!Keysight Technologies,P9374A,MY57211807,A.19.30.04
!Date: Friday, May 01, 2026 14:11:39
!Correction: S11(C  2-Port  ) 
!S21(C  2-Port  ) 
!S12(C  2-Port  ) 
!S22(C  2-Port  ) 
!S2P File: Measurements: S11, S21, S12, S22:
# Hz S  RI   R 50
13000000000 0.040089987 0.097132489 0.0015019327 0.034675919 0.0040270612 0.034537308 -0.012585297 0.17580579
13010000000 0.042924523 0.10678785 0.012093438 0.032800607 0.013662275 0.031880774 -0.022497602 0.17888755
13020000000 0.045950819 0.10842626 0.026557978 0.024449386 0.027908292 0.023215223 -0.024527341 0.17775585
13030000000 0.054528974 0.10747129 0.032965217 0.01334076 0.033988591 0.01175314 -0.019792128 0.18616466
13040000000 0.053316966 0.09427809 0.03472412 -0.0011006934 0.034539811 -0.0031755855 -0.009867046 0.18082412
13050000000 0.049188521 0.088169582 0.033788957 -0.012893143 0.032620631 -0.014466023 -0.0090138251 0.17248289
13060000000 0.039771214 0.083880603 0.024416637 -0.025929946 0.023258038 -0.027017964 -0.017131764 0.17429422
13070000000 0.035188045 0.089095205 0.012956643 -0.033681829 0.011363125 -0.034150854 -0.016626626 0.17179213
13080000000 0.033529066 0.093417168 0.00029966794 -0.033751905 -0.0012323083 -0.034003559 -0.019787468 0.17755923
13090000000 0.040487275 0.10063673 -0.013820596 -0.033347603 -0.015296291 -0.032929234 -0.010655053 0.17925249
13100000000 0.043581322 0.099988103 -0.025048289 -0.025222367 -0.026156146 -0.023986958 -0.0029161721 0.18151952
13110000000 0.049434498 0.1028683 -0.032343138 -0.012632158 -0.03348691 -0.011754843 -0.0015460886 0.17480846
13120000000 0.050966877 0.097203188 -0.03509625 0.0001099176 -0.034984078 0.0022185538 -0.010763828 0.17704588
13130000000 0.051329959 0.097995088 -0.031574532 0.014360774 -0.031138752 0.015444236 -0.017831935 0.18113442
13140000000 0.050382059 0.091282941 -0.024641607 0.024259545 -0.023859054 0.024933841 -0.015177589 0.18384939
13150000000 0.047935989 0.09299092 -0.013644224 0.03232519 -0.012435005 0.033160031 -0.0067958981 0.18480635
13160000000 0.043378323 0.088280275 -0.00059405528 0.034959473 0.00060800649 0.035041638 0.0020634532 0.17776445
13170000000 0.040007088 0.096378818 0.013657458 0.03253616 0.014752915 0.031833947 0.0077736974 0.17740697
13180000000 0.044193916 0.099828519 0.024312403 0.024395494 0.024736652 0.023561465 0.0025593676 0.16599251
13190000000 0.053193327 0.10409244 0.032722376 0.014234134 0.033226673 0.013370624 -0.005786513 0.17685585
13200000000 0.061616983 0.09849903 0.035125282 0.00047127251 0.035188083 -0.00076164026 -0.0039541982 0.18704726
13210000000 0.066400625 0.094612673 0.031944741 -0.011841607 0.031654954 -0.013007918 0.012572471 0.18518624
13220000000 0.063351363 0.08796674 0.025240226 -0.02378903 0.024478404 -0.024863988 0.017835684 0.17850411
13230000000 0.060248636 0.088267386 0.014335149 -0.031442892 0.013183586 -0.031649582 0.021005318 0.17059393
13240000000 0.059781589 0.089191146 0.00098196976 -0.034856729 0.00017980114 -0.035184704 0.015638866 0.17228827
13250000000 0.059322905 0.091879457 -0.012928789 -0.032117851 -0.013998169 -0.031871624 0.014678376 0.17636669
13260000000 0.060964186 0.091672435 -0.02242993 -0.025545368 -0.023446638 -0.024726596 0.019312289 0.18485397
13270000000 0.062058121 0.091621377 -0.032482687 -0.014448307 -0.032221578 -0.013688718 0.027859867 0.18168738
13280000000 0.066530555 0.090665199 -0.033995323 -0.00066522323 -0.034498937 0.00020622928 0.031405617 0.17378026
13290000000 0.072803363 0.087893814 -0.032112636 0.011849204 -0.031477202 0.012732078 0.029706255 0.16696025
13300000000 0.078840315 0.080116153 -0.026096638 0.023575693 -0.025517663 0.024158895 0.029470082 0.15921175
13310000000 0.077059768 0.072777435 -0.014586572 0.031507336 -0.014049177 0.031909361 0.029984135 0.16478175
13320000000 0.075859122 0.068590485 -0.0019324406 0.034795709 -0.0009473362 0.03471747 0.042858757 0.16657698
13330000000 0.072457835 0.068749368 0.010423122 0.032293074 0.010807063 0.032132432 0.051166974 0.16952863
13340000000 0.072226942 0.073065132 0.023152407 0.026093431 0.024027249 0.025691316 0.053935047 0.1645838
13350000000 0.076263994 0.07610777 0.030934531 0.015271124 0.032085977 0.01460721 0.051469423 0.16006681
13360000000 0.083884358 0.07232336 0.033923808 0.0012212321 0.033611562 9.4044954e-06 0.038140144 0.15533431
13370000000 0.081501111 0.066494368 0.031859551 -0.010239099 0.031834897 -0.011176388 0.043579236 0.15624583
13380000000 0.084893189 0.061898351 0.02603991 -0.021314653 0.025523439 -0.021664726 0.049890216 0.15022223
13390000000 0.079240121 0.056234829 0.016261548 -0.030152826 0.015557718 -0.031043319 0.059584178 0.14697275
13400000000 0.080764189 0.053968728 0.0030457843 -0.03400686 0.0018586414 -0.03421396 0.065228879 0.14712229
13410000000 0.075628735 0.048527654 -0.010252086 -0.031942353 -0.011481733 -0.031356242 0.061523505 0.14164697
13420000000 0.080367997 0.044233952 -0.022146316 -0.026520006 -0.022682071 -0.025837041 0.053181011 0.14000162
13430000000 0.072535276 0.043633316 -0.030077059 -0.015970429 -0.030088093 -0.015045599 0.048760392 0.1403877
13440000000 0.080414981 0.0448853 -0.033442751 -0.0036661914 -0.033760216 -0.0033435896 0.057989307 0.13282184
13450000000 0.075581856 0.042606182 -0.032860629 0.0091714244 -0.032645583 0.01036418 0.06499894 0.12564331
13460000000 0.083215952 0.040168244 -0.026017854 0.021001702 -0.025561852 0.022084283 0.070985541 0.11815789
13470000000 0.080635682 0.035539441 -0.017015629 0.029689746 -0.016005695 0.030071907 0.062940545 0.12318324
13480000000 0.08235538 0.026122099 -0.0042986739 0.033153024 -0.0032805353 0.033134472 0.062951289 0.12475931
13490000000 0.06741941 0.027260225 0.0081693726 0.032744966 0.0090461606 0.03300323 0.056745525 0.12452506
13500000000 0.068604648 0.025498215 0.020253791 0.027154654 0.021534309 0.026287034 0.060378965 0.11692676
13510000000 0.064164326 0.026257936 0.029761624 0.017008517 0.030231724 0.01600438 0.060037516 0.10997459
13520000000 0.068113379 0.023032241 0.033402588 0.0051820683 0.033302963 0.0039255074 0.063250013 0.1038852
13530000000 0.064512409 0.021415949 0.032855634 -0.0083751939 0.032974783 -0.0091120284 0.05873226 0.10431796
13540000000 0.068346463 0.016369358 0.027800001 -0.019421589 0.027051356 -0.020733509 0.05843905 0.10941666
13550000000 0.062505558 0.014740868 0.016717555 -0.029208794 0.015956588 -0.029644009 0.05649098 0.10437263
13560000000 0.064599529 0.014783913 0.0050910199 -0.033044707 0.0039786911 -0.033329483 0.057894923 0.1005958
13570000000 0.06266205 0.015004696 -0.0071360487 -0.032525666 -0.0085276254 -0.032522656 0.055821009 0.092818856
13580000000 0.060828347 0.012522982 -0.01903319 -0.028152082 -0.020157252 -0.027519248 0.057976272 0.092745222
13590000000 0.053645041 0.014261181 -0.028586809 -0.018491477 -0.028991813 -0.017528184 0.054762203 0.095862485
13600000000 0.051725451 0.014713761 -0.033916555 -0.0054430477 -0.034187376 -0.0044700112 0.057449065 0.096374676
13610000000 0.046134241 0.016325813 -0.032265391 0.0068968041 -0.032322433 0.0084534474 0.050910674 0.093171962
13620000000 0.048438586 0.017726809 -0.028043471 0.019100605 -0.026943682 0.020112317 0.04937391 0.092432559
13630000000 0.045833409 0.013835884 -0.019017935 0.027641444 -0.017895076 0.028398255 0.044880688 0.090852186
13640000000 0.046706647 0.011138363 -0.0063421368 0.033798456 -0.0051290011 0.033864468 0.050362747 0.092272133
13650000000 0.042398956 0.0074888044 0.0065810266 0.032535896 0.0078832489 0.032146297 0.050083227 0.089631684
13660000000 0.04551369 0.0089037251 0.017930251 0.028574729 0.019107066 0.027820094 0.050495442 0.084257931
13670000000 0.042774901 0.0080083283 0.028580485 0.018558891 0.028988179 0.017633742 0.044027217 0.083277047
13680000000 0.045543924 0.0096867196 0.031603575 0.0059120059 0.032084797 0.004915134 0.047696277 0.084583037
13690000000 0.042575933 0.012097429 0.03272225 -0.0051825205 0.032440506 -0.0066850865 0.046325274 0.083357662
13700000000 0.043784 0.013474124 0.028675172 -0.017002784 0.028142774 -0.017847618 0.051345095 0.090616055
13710000000 0.040122036 0.018335005 0.019585881 -0.027597047 0.018387804 -0.028444868 0.049764406 0.088288344
13720000000 0.043193407 0.018437196 0.0079761771 -0.032184847 0.0068866769 -0.032700833 0.049802713 0.09199594
13730000000 0.041339364 0.016230395 -0.0051004193 -0.032777701 -0.0062157791 -0.032687791 0.048440266 0.08137022
13740000000 0.039983027 0.014599708 -0.016468426 -0.028625717 -0.01820806 -0.028131936 0.043868825 0.081193648
13750000000 0.037657626 0.013096105 -0.027495926 -0.020505395 -0.027855992 -0.019019235 0.049254842 0.080894515
13760000000 0.037541136 0.010428144 -0.03185394 -0.0085248882 -0.032211807 -0.0077260509 0.052834008 0.085122719
13770000000 0.037141055 0.008984495 -0.033324949 0.0036364533 -0.03336519 0.0047002742 0.055873096 0.085511491
13780000000 0.039469182 0.0082986746 -0.029044723 0.01695038 -0.02837866 0.018214522 0.054723606 0.085831061
13790000000 0.041985258 0.0069271512 -0.020449415 0.027050845 -0.019675203 0.027689833 0.052986614 0.075289592
13800000000 0.040783405 0.0075853653 -0.0086910948 0.031878639 -0.0073738266 0.032550663 0.044510569 0.077884518
13810000000 0.044448461 0.0094441939 0.0039333617 0.032838531 0.0048134755 0.032798175 0.057420425 0.080735333
13820000000 0.046123624 0.008557884 0.015212473 0.029810829 0.016350655 0.0293383 0.06094984 0.077670746
13830000000 0.047001407 0.0083438624 0.026578873 0.021130046 0.027314888 0.020498833 0.066836096 0.078491554
13840000000 0.045353089 0.0050497111 0.032138783 0.0095015224 0.032647628 0.0082396176 0.065470397 0.073726557
13850000000 0.042942505 0.00037825853 0.033358477 -0.0028608143 0.033202577 -0.0043313671 0.0528014 0.067513429
13860000000 0.03757802 -0.00014807517 0.030491736 -0.01613744 0.029687721 -0.016566189 0.05325707 0.071221195
13870000000 0.036989428 -0.00063111167 0.021310126 -0.025084261 0.02081012 -0.026188254 0.060277302 0.065054871
13880000000 0.038175732 -0.0028846543 0.010618885 -0.031768557 0.0098262392 -0.031828046 0.067280844 0.064715281
13890000000 0.040753923 -0.0066161677 -0.0014422601 -0.033578321 -0.0027316436 -0.03391023 0.071507297 0.059501793
13900000000 0.040022388 -0.0096207196 -0.015914414 -0.031144992 -0.016726982 -0.03013102 0.067038417 0.057834174
13910000000 0.042906001 -0.012062317 -0.025447953 -0.021517698 -0.025497289 -0.020908456 0.066445924 0.055132162
13920000000 0.040362142 -0.012924848 -0.030991977 -0.010907462 -0.031636611 -0.010625193 0.058932289 0.050411411
13930000000 0.041952334 -0.014731499 -0.034809377 0.00065159844 -0.03498451 0.0019296235 0.066562794 0.052893799
13940000000 0.036318481 -0.016603488 -0.03052118 0.01596994 -0.03014965 0.016664829 0.07333985 0.044878416
13950000000 0.034411907 -0.017609926 -0.022400046 0.025310371 -0.021435488 0.026041083 0.072773948 0.041224755
13960000000 0.02662506 -0.017372062 -0.011066575 0.032113742 -0.010645879 0.032275431 0.065289691 0.040860653
13970000000 0.025379945 -0.017641623 0.0023774356 0.033676431 0.0031637475 0.03373009 0.067038409 0.039472774
13980000000 0.02349896 -0.020779956 0.013077066 0.030429594 0.01433751 0.030376261 0.055825096 0.032701224
13990000000 0.022543069 -0.028318845 0.025869431 0.023552019 0.026148671 0.022438142 0.05800667 0.039459717
14000000000 0.01614346 -0.032060385 0.031963363 0.011403831 0.032218143 0.011091033 0.070611678 0.033930413
14010000000 0.015457137 -0.035891343 0.033092674 -0.0012393764 0.033196714 -0.0021677171 0.065008007 0.018155105
14020000000 0.010894382 -0.034734279 0.031010203 -0.013861827 0.030763615 -0.014804453 0.055138439 0.022540934
14030000000 0.015519944 -0.033490896 0.022863068 -0.023796335 0.02207822 -0.024567869 0.053136468 0.020627795
14040000000 0.016862549 -0.032450743 0.012179163 -0.031263251 0.011656006 -0.031091657 0.046907149 0.01464113
14050000000 0.017371725 -0.036865875 0.0010163113 -0.032609656 0.0003149081 -0.033571683 0.046919897 0.022515001
14060000000 0.0092970412 -0.036265086 -0.012936765 -0.032138683 -0.014505574 -0.031284958 0.055098366 0.019283809
14070000000 0.0036681858 -0.034704853 -0.024269274 -0.02434789 -0.024522118 -0.023824871 0.053066168 0.010605288
14080000000 -0.0032222148 -0.028765809 -0.030950366 -0.011591334 -0.031330653 -0.011080686 0.039607365 0.0011199852
14090000000 -0.0053322166 -0.026509276 -0.033782654 -0.00053886697 -0.033704504 0.00015621725 0.027425824 0.0099706128
14100000000 -0.0083151385 -0.026434232 -0.031252138 0.011475133 -0.031002769 0.012414489 0.032414909 0.0039523244
14110000000 -0.013717286 -0.031016901 -0.025527734 0.023985041 -0.024633272 0.024746366 0.036489569 0.0042769574
14120000000 -0.017189967 -0.030566355 -0.014840234 0.030948574 -0.014205762 0.031279318 0.04159338 -0.00048941933
14130000000 -0.018065251 -0.032960482 0.00042095035 0.034402322 0.0013087187 0.03464108 0.03883538 -0.0021424722
14140000000 -0.021202749 -0.033892944 0.011732628 0.030949438 0.012376699 0.030495722 0.027061798 -0.0044208621
14150000000 -0.022689279 -0.031552672 0.022615563 0.024698539 0.023024397 0.024189483 0.016812621 0.0018096764
14160000000 -0.020580005 -0.032524649 0.030367427 0.01476644 0.031052615 0.014409626 0.023697492 0.0062472294
14170000000 -0.026126437 -0.031878173 0.033219159 0.0021110587 0.033379905 0.0012689773 0.026935613 -0.0043202378
14180000000 -0.030017234 -0.024227638 0.032656454 -0.011772829 0.032424234 -0.012825307 0.025610721 -0.002361754
14190000000 -0.030111797 -0.016518172 0.025078252 -0.022212666 0.024512129 -0.022956252 0.022006571 0.0020441255
14200000000 -0.030984357 -0.017694645 0.014276102 -0.030690406 0.013619265 -0.031025719 0.016727298 0.0059103207
14210000000 -0.034806166 -0.010597301 0.0023813418 -0.033297431 0.0016729858 -0.03352759 0.0033794076 0.0068597645
14220000000 -0.029979644 -0.016898189 -0.010492433 -0.031612098 -0.011266835 -0.031282049 0.0038901942 0.0090852128
14230000000 -0.039344005 -0.019329727 -0.021944687 -0.025878334 -0.022989353 -0.025456004 0.0052387994 0.0025747272
14240000000 -0.040504087 -0.018536052 -0.029887732 -0.01560667 -0.030026983 -0.014786955 0.010255862 -0.0023665181
14250000000 -0.042348593 -0.015898153 -0.034737106 -0.0033923611 -0.034813203 -0.0024575368 0.0068453271 -0.0018016736
14260000000 -0.044325918 -0.017897353 -0.031852283 0.011027115 -0.031920031 0.011654078 0.0016695175 0.0012828567
14270000000 -0.044793092 -0.0074696681 -0.025149796 0.020686205 -0.024633039 0.022013679 -0.0057270341 0.0088741044
14280000000 -0.039318021 -0.0079239514 -0.016877543 0.028775953 -0.015837913 0.029143935 -0.00159852 0.015244461
14290000000 -0.036343805 -0.00052189222 -0.0039243065 0.034250844 -0.0030730139 0.03412132 0.0069266879 0.0034327889
14300000000 -0.035176661 -0.0019698413 0.0089363195 0.032170556 0.009778684 0.032214802 0.0017819835 -0.0013951837
14310000000 -0.033142008 0.0025547445 0.020862587 0.027191235 0.021719988 0.026288958 -0.0015851861 0.00067913911
14320000000 -0.03700972 -0.0066380026 0.029271938 0.016491462 0.029604986 0.016010605 -0.0030743885 0.012137596
14330000000 -0.042076588 -0.00042455643 0.033085287 0.0037012817 0.033176541 0.0030546095 -0.0026898813 0.01526089
14340000000 -0.046528548 -0.0023410097 0.031867094 -0.0074229306 0.031913012 -0.0086877216 -0.0011490458 0.013523162
14350000000 -0.047263738 0.0027505262 0.027599368 -0.019414229 0.026937157 -0.019838054 -0.0016410523 0.0046973717
14360000000 -0.046610221 0.0030802591 0.017582238 -0.02925095 0.016792355 -0.029431136 -0.0065894141 0.0042358418
14370000000 -0.040277869 0.0048935898 0.0052316203 -0.032408528 0.0048826966 -0.032538455 -0.007222591 0.0087680956
14380000000 -0.037874579 0.00070173945 -0.0077655925 -0.03363739 -0.0089564156 -0.033803731 -0.0031494498 0.013560129
14390000000 -0.032260645 0.0025880216 -0.018623253 -0.026628407 -0.019441674 -0.025892012 -0.0017738601 0.0085855983
14400000000 -0.032014072 -0.00013096072 -0.027875058 -0.018939363 -0.028061198 -0.018216752 -0.003355789 0.0064539267
14410000000 -0.031449795 0.0012688646 -0.033928741 -0.0073010856 -0.034462515 -0.0069013806 -0.0029372105 0.0078655062
14420000000 -0.035393327 -0.00019103754 -0.032726273 0.0081963725 -0.032913115 0.0093183042 8.587609e-05 0.003414904
14430000000 -0.038166173 0.0042556529 -0.028290913 0.017866943 -0.027645821 0.018922489 -0.0017388116 0.0065233274
14440000000 -0.042100534 0.0069695991 -0.018696304 0.027587064 -0.017773997 0.027675651 -0.0068772174 0.010413448
14450000000 -0.043154113 0.010773218 -0.0080991006 0.033754952 -0.0077895718 0.034134291 -0.0043170052 0.0091855032
14460000000 -0.044102184 0.011984801 0.006636451 0.033400267 0.0071359184 0.033565879 -0.010202286 0.0044837892
14470000000 -0.03692244 0.0057868175 0.018798219 0.028893556 0.019513402 0.028606329 -0.0083986903 0.0026162281
14480000000 -0.04099191 -0.00047881529 0.026964055 0.02002576 0.027503222 0.019309932 -0.00494966 0.0025354731
14490000000 -0.041249722 -0.003709482 0.033787586 0.0068226699 0.033692818 0.0063280282 -0.0036718431 0.0006573046
14500000000 -0.041704707 -0.0060141613 0.03367205 -0.00361691 0.03355572 -0.0041594952 -0.006856862 0.00070921693
14510000000 -0.045296811 -0.0053714989 0.029745989 -0.018470572 0.029724976 -0.019254012 -0.012443271 -0.0013149455
14520000000 -0.045301795 -0.0015229173 0.02055705 -0.028416717 0.019871291 -0.02849997 -0.014683127 -0.0048525766
14530000000 -0.042181041 0.001030406 0.0066407723 -0.032567888 0.0065635704 -0.032802295 -0.013002023 -0.006656847
14540000000 -0.043532416 0.0027974807 -0.0042054188 -0.033317462 -0.0048841108 -0.033674832 -0.011307429 -0.007923346
14550000000 -0.045470797 0.0055617541 -0.015445963 -0.029663641 -0.016266648 -0.028975338 -0.0098404689 -0.0038236899
14560000000 -0.046833992 0.0067059603 -0.028714761 -0.022291891 -0.028634941 -0.021819619 -0.013751424 -0.002399707
14570000000 -0.05060409 0.0030470439 -0.032819986 -0.008040796 -0.033159476 -0.007785771 -0.018929217 -0.0029397942
14580000000 -0.054635327 0.0038065962 -0.034109354 0.0049759718 -0.034502834 0.0055406494 -0.026021468 -0.0071538244
14590000000 -0.057884578 -0.00035610236 -0.029488849 0.016653128 -0.028966712 0.017155467 -0.030228078 -0.011619968
14600000000 -0.062459815 0.00065079145 -0.021026954 0.026703198 -0.020808507 0.026699413 -0.029017866 -0.012495125
14610000000 -0.064939499 -0.00048131123 -0.010507893 0.033681288 -0.010451802 0.033596057 -0.024537396 -0.0098071061
14620000000 -0.06412062 0.0052688941 0.0042412067 0.033766173 0.0046474319 0.034205105 -0.02568977 -0.012272798
14630000000 -0.061981529 0.0052916054 0.016934397 0.030415608 0.017464142 0.030073062 -0.035622176 -0.010120417
14640000000 -0.059145365 0.0096216444 0.026577126 0.021179931 0.026669838 0.02066773 -0.043786261 -0.0076957354
14650000000 -0.059372913 0.0079433415 0.032424912 0.0099581368 0.032151394 0.0097641563 -0.045123469 -0.0057501155
14660000000 -0.061885286 0.0088831792 0.033482715 -0.0025665686 0.034020782 -0.0024942746 -0.038523968 -0.0092473533
14670000000 -0.0720919 0.010679409 0.030615235 -0.015971413 0.030554011 -0.016434874 -0.041299675 -0.014850443
14680000000 -0.073113799 0.017911036 0.022201287 -0.025985438 0.021652566 -0.026285499 -0.045175243 -0.012755476
14690000000 -0.079209663 0.019940391 0.0098725231 -0.032655254 0.0097802132 -0.032665476 -0.055667099 -0.006456865
14700000000 -0.078377336 0.026774595 -0.0020323936 -0.03290242 -0.0022360077 -0.032941256 -0.056830186 -0.00013814587
14710000000 -0.078673832 0.024717784 -0.014465806 -0.030399544 -0.014741 -0.030650994 -0.057012379 -0.0015953074
14720000000 -0.075343408 0.026856329 -0.025284357 -0.023220837 -0.025507631 -0.022675414 -0.054951683 -0.0028088354
14730000000 -0.073634483 0.021384239 -0.03251094 -0.01148796 -0.032629363 -0.011741214 -0.057668313 -0.0071025454
14740000000 -0.076339751 0.023573916 -0.033961721 0.0033165636 -0.033998936 0.0033643609 -0.065145478 -0.0013348404
14750000000 -0.077925004 0.024546625 -0.029594222 0.013650505 -0.029816575 0.013985241 -0.069369167 0.006661661
14760000000 -0.077825375 0.032040916 -0.023168636 0.024443394 -0.022953926 0.024612457 -0.067531407 0.01150273
14770000000 -0.082410589 0.037974834 -0.011832331 0.031212127 -0.011673329 0.031518038 -0.066129625 0.0091609331
14780000000 -0.076694071 0.050400306 0.00088029832 0.033719491 0.00088868849 0.033530172 -0.065779127 0.0086994264
14790000000 -0.076127365 0.051454209 0.013762191 0.031516373 0.013996588 0.032044828 -0.068827078 0.0091733932
14800000000 -0.072932743 0.056377389 0.024766689 0.022539331 0.025078621 0.022375029 -0.074798778 0.013956999
14810000000 -0.073365107 0.05490851 0.030578382 0.012430407 0.030738566 0.011946797 -0.081137463 0.022728072
14820000000 -0.07238467 0.05531114 0.032805331 1.7579645e-05 0.032482766 0.0002163928 -0.074289009 0.028717814
14830000000 -0.075906441 0.049469553 0.031592995 -0.012352451 0.031751383 -0.012684064 -0.071453087 0.020684661
14840000000 -0.078272656 0.052585844 0.023887364 -0.02398256 0.024041992 -0.024290573 -0.070024595 0.021495111
14850000000 -0.078504771 0.053773224 0.012996509 -0.030846018 0.01252237 -0.030779334 -0.070820317 0.022444505
14860000000 -0.076445706 0.061232783 0.0011334168 -0.032920785 0.001527248 -0.0331866 -0.07292553 0.035055231
14870000000 -0.069164246 0.066648528 -0.012011303 -0.030384358 -0.012215942 -0.030297318 -0.072859116 0.041558523
14880000000 -0.057831988 0.074253187 -0.022502899 -0.024702542 -0.022499766 -0.024976926 -0.074455298 0.045170784
14890000000 -0.049605027 0.072424956 -0.030023428 -0.012863796 -0.030022558 -0.012947898 -0.068351775 0.041627605
14900000000 -0.04213874 0.072356202 -0.032949295 -0.0016033519 -0.033280984 -0.0014803186 -0.069353849 0.036554903
14910000000 -0.041825049 0.066013701 -0.030857503 0.010649873 -0.030996427 0.010389027 -0.068964764 0.037380215
14920000000 -0.050300144 0.065690905 -0.025203753 0.021876153 -0.025189947 0.022318004 -0.071583793 0.048105106
14930000000 -0.055577166 0.06828104 -0.014720885 0.02948972 -0.014834891 0.029312335 -0.06648165 0.057343625
14940000000 -0.059892096 0.074729815 -0.0016731936 0.033330135 -0.0017835125 0.0333682 -0.065240078 0.054489356
14950000000 -0.05836954 0.080895424 0.0099466946 0.031598195 0.010093578 0.031691283 -0.061661281 0.04868415
14960000000 -0.048950393 0.086162925 0.021391612 0.024957029 0.02147001 0.02472334 -0.062997058 0.039270692
14970000000 -0.036384352 0.079151943 0.029021304 0.016156023 0.029092222 0.01620982 -0.062292218 0.046333283
14980000000 -0.029441491 0.072002359 0.033267651 0.003147311 0.033007007 0.003386864 -0.054438736 0.055942338
14990000000 -0.02382385 0.058370531 0.031317599 -0.0098460149 0.031634469 -0.00956125 -0.048873708 0.060568467
15000000000 -0.027841099 0.053842247 0.025404816 -0.020336349 0.025306785 -0.020307742 -0.049059339 0.060001396
15010000000 -0.031382173 0.051203743 0.015989065 -0.0285905 0.016069397 -0.028762631 -0.054292072 0.055247728
15020000000 -0.036033385 0.056987286 0.004095966 -0.032650515 0.0043127509 -0.032410536 -0.058439974 0.050720844
15030000000 -0.037009533 0.062637188 -0.0086958334 -0.03176932 -0.0085053807 -0.032283269 -0.056409866 0.051041223
15040000000 -0.03337615 0.073164828 -0.019749206 -0.026191205 -0.019996399 -0.026273128 -0.050619692 0.054639719
15050000000 -0.027239198 0.071458459 -0.028199533 -0.016550489 -0.028422607 -0.016367709 -0.044610355 0.057129014
15060000000 -0.021957198 0.073595338 -0.032358624 -0.0049844366 -0.032260895 -0.0051111188 -0.046284407 0.055147208
15070000000 -0.016303921 0.06016846 -0.032298226 0.0075660064 -0.032373961 0.0076029985 -0.047763638 0.049706973
15080000000 -0.019588759 0.051504459 -0.026683068 0.019252442 -0.027253645 0.019196479 -0.052741747 0.042564232
15090000000 -0.024939759 0.039615989 -0.018267769 0.028039373 -0.017886316 0.02861757 -0.050436381 0.043828674
15100000000 -0.034509279 0.038369998 -0.0055505428 0.032829858 -0.0056912932 0.032538205 -0.047212794 0.043840289
15110000000 -0.041114971 0.039346416 0.0074098916 0.032333665 0.0071625765 0.032459494 -0.043176584 0.050959293
15120000000 -0.042870484 0.048911545 0.01841625 0.026744718 0.018663367 0.027320372 -0.039091781 0.052786026
15130000000 -0.037800822 0.056005716 0.027853679 0.018016387 0.028207613 0.01765695 -0.045380738 0.048672199
15140000000 -0.027726052 0.060610317 0.032435499 0.0063377535 0.032331251 0.0061428137 -0.053815421 0.048160404
15150000000 -0.021285016 0.056990027 0.03122809 -0.0067299977 0.031207137 -0.0065286215 -0.057093251 0.045256592
15160000000 -0.017201412 0.051532667 0.027760237 -0.016980873 0.028067635 -0.017360082 -0.05755822 0.048133135
15170000000 -0.021592123 0.039609164 0.018708084 -0.027102452 0.018462537 -0.027207268 -0.053468548 0.047505692
15180000000 -0.034239657 0.03883601 0.0073360186 -0.032893382 0.0069946204 -0.033011314 -0.052951664 0.047620036
15190000000 -0.042889871 0.041071352 -0.0064020227 -0.032039776 -0.0062709893 -0.032072254 -0.058324352 0.041821335
15200000000 -0.050572813 0.046193745 -0.017650265 -0.027255941 -0.017957594 -0.027342208 -0.063108273 0.043004204
15210000000 -0.05268839 0.055526927 -0.025542624 -0.018969789 -0.025668269 -0.018829752 -0.064617716 0.04684069
15220000000 -0.044215612 0.06271182 -0.032310352 -0.0080063371 -0.032127175 -0.0076784501 -0.061320353 0.052649394
15230000000 -0.036480505 0.061912518 -0.032425992 0.0042799618 -0.032599032 0.0041345721 -0.054136962 0.052583143
15240000000 -0.029028229 0.058558851 -0.027826343 0.017275637 -0.027850201 0.017474325 -0.058707766 0.052046392
15250000000 -0.025644071 0.052868057 -0.019468728 0.025576985 -0.019359093 0.025861716 -0.063916422 0.054718662
15260000000 -0.028375521 0.045747988 -0.0080584716 0.030685829 -0.0079155965 0.030436315 -0.066287383 0.059985701
15270000000 -0.035907194 0.04693912 0.0031540883 0.032178495 0.0030205133 0.032294068 -0.068168849 0.061755784
15280000000 -0.040593673 0.051240236 0.016180072 0.028137108 0.016364032 0.028256463 -0.065572001 0.068068907
15290000000 -0.044078417 0.061861522 0.025630407 0.019808516 0.025827149 0.019749489 -0.068453051 0.066780247
15300000000 -0.041921716 0.06746988 0.029887997 0.0087119574 0.030139994 0.0088333366 -0.071801588 0.073051214
15310000000 -0.03589084 0.07514587 0.031687729 -0.0031783786 0.031784654 -0.0032738782 -0.069380306 0.068283044
15320000000 -0.027923442 0.070283726 0.027998954 -0.014309814 0.028141275 -0.014125534 -0.070686914 0.068066776
15330000000 -0.024060415 0.07012479 0.021152109 -0.02494129 0.021221451 -0.025289709 -0.064922497 0.069057606
15340000000 -0.021733653 0.061520331 0.0096548265 -0.029851206 0.0095236143 -0.030074075 -0.060322843 0.074586362
15350000000 -0.021584533 0.060487825 -0.0028197384 -0.031998523 -0.0030048927 -0.032083288 -0.055226751 0.081359729
15360000000 -0.023755182 0.054491527 -0.013605237 -0.02801857 -0.013542648 -0.028097864 -0.057259835 0.088868558
15370000000 -0.022958763 0.059679881 -0.023424923 -0.02075088 -0.0235075 -0.020708194 -0.055860329 0.089320175
15380000000 -0.024223644 0.059477728 -0.029730722 -0.011531782 -0.029910648 -0.011602277 -0.061229676 0.086476855
15390000000 -0.02062824 0.067660652 -0.031470519 0.0018878276 -0.031451609 0.0019278601 -0.059674762 0.089559048
15400000000 -0.014736105 0.067556061 -0.029020101 0.012980784 -0.029172625 0.01307911 -0.05459182 0.091259219
15410000000 -0.0070832456 0.067888774 -0.020928098 0.022652144 -0.02097081 0.022576237 -0.047279745 0.096782118
15420000000 -0.0024949778 0.061786082 -0.011810821 0.029850401 -0.011796555 0.029957367 -0.044096604 0.094916411
15430000000 0.0012351125 0.056886733 0.00059281848 0.030710023 0.00051061716 0.030556498 -0.047957897 0.093044236
15440000000 -0.0039076414 0.048100822 0.012216318 0.028390553 0.012012534 0.028571442 -0.049538232 0.09410049
15450000000 -0.0052597364 0.0505253 0.021149972 0.022686858 0.021276385 0.023027431 -0.043396953 0.08957202
15460000000 -0.0057002534 0.047437288 0.029144332 0.01233109 0.029406883 0.012190264 -0.038794104 0.090969175
15470000000 -0.0012600346 0.050061438 0.031357907 0.0010956143 0.031177009 0.0012455898 -0.027205741 0.095627323
15480000000 0.0018631481 0.047144786 0.029029308 -0.011280634 0.029141769 -0.010928715 -0.022446798 0.096902519
15490000000 0.0075134281 0.045234066 0.022840025 -0.020893987 0.023118321 -0.020966057 -0.022742979 0.10137726
15500000000 0.0082238214 0.038376696 0.013363711 -0.027473893 0.013462229 -0.027597023 -0.02480026 0.099219471
15510000000 0.0099149235 0.034637213 0.0017215451 -0.031744547 0.0018798439 -0.031505477 -0.023136787 0.097422391
15520000000 0.0068094237 0.032331288 -0.010062548 -0.029486988 -0.0095330365 -0.02958864 -0.02532067 0.09449251
15530000000 0.007650502 0.030989112 -0.021194307 -0.023429167 -0.020856248 -0.023844607 -0.019260781 0.099338621
15540000000 0.0050990614 0.0268842 -0.027152723 -0.013698309 -0.027129859 -0.014047237 -0.015919197 0.09616553
15550000000 0.0079120211 0.024443068 -0.03087269 -0.0029847138 -0.030840367 -0.0032254979 -0.014987448 0.094893917
15560000000 0.0044381963 0.019950356 -0.029809427 0.009156974 -0.02992388 0.0084825894 -0.014161624 0.086816162
15570000000 0.0087297568 0.016126316 -0.024174947 0.020105911 -0.024634954 0.019640934 -0.020284537 0.086430632
15580000000 0.0041767098 0.0086857285 -0.014827557 0.027407272 -0.015524438 0.027415419 -0.011396911 0.089199528
15590000000 0.0056541613 0.0053797029 -0.0037415577 0.030795638 -0.0041330019 0.030957932 -0.0053311624 0.085427806
15600000000 0.0010048324 0.0020013188 0.0081888568 0.030420875 0.0076728114 0.030565392 -0.0047130287 0.086327814
15610000000 0.0021400445 -0.00063004578 0.020124936 0.024635773 0.019574765 0.024942897 -0.0025940889 0.08110486
15620000000 -0.0027566457 0.00010851992 0.026358355 0.014860277 0.026404999 0.015633391 -0.011366449 0.078571685
15630000000 0.00060197507 -0.0021356908 0.030076127 0.0042229732 0.030123316 0.0049026031 -0.0081703998 0.082983986
15640000000 -0.0014656144 -0.0019763326 0.03004262 -0.0067058224 0.03030191 -0.0063188048 -0.0030646287 0.079439729
15650000000 9.9491794e-05 -0.0085498625 0.025823833 -0.018085539 0.026127234 -0.017641032 -0.0020840503 0.08105363
15660000000 -0.0033220681 -0.011577142 0.016577855 -0.027144846 0.017052671 -0.026811829 -0.0022307578 0.077186912
15670000000 -0.0084896749 -0.021302007 0.0045956173 -0.030444756 0.0053487858 -0.030234579 -0.0096096043 0.074109599
15680000000 -0.016501307 -0.02091117 -0.0067098225 -0.030313598 -0.0060900208 -0.030391479 -0.010489 0.069665231
15690000000 -0.024556011 -0.026542857 -0.017105419 -0.02560254 -0.016505636 -0.025901446 -0.0087667294 0.066932328
15700000000 -0.026823286 -0.018822145 -0.026248598 -0.017746994 -0.025517967 -0.018537451 -0.00332148 0.065801315
15710000000 -0.028410584 -0.021936469 -0.03128498 -0.0061116852 -0.031204794 -0.0070426716 -0.0042315759 0.067767158
15720000000 -0.023678698 -0.018828537 -0.030542303 0.0066181263 -0.03061606 0.0056180665 -0.0016001053 0.074202679
15730000000 -0.023190914 -0.026552144 -0.025386689 0.016144294 -0.026078692 0.015525636 -0.0051219538 0.067847431
15740000000 -0.01982183 -0.02782885 -0.018324295 0.025305079 -0.01909552 0.024591323 -0.013363203 0.067633078
15750000000 -0.025813419 -0.038352735 -0.0068329116 0.030663142 -0.0080436589 0.030386185 -0.0096853618 0.063278347
15760000000 -0.031394381 -0.03803787 0.0045654792 0.030747708 0.0036209263 0.030955803 -0.0089721996 0.063050658
15770000000 -0.044735726 -0.042372629 0.016148578 0.027619263 0.015064472 0.028157445 -0.0034313593 0.069410279
15780000000 -0.048648 -0.031068295 0.025709469 0.018870082 0.024981096 0.020006116 -0.0034206696 0.069613248
15790000000 -0.055417117 -0.030610805 0.030399224 0.0073870858 0.030295685 0.008475963 -0.011583615 0.070383415
15800000000 -0.053797401 -0.024253128 0.030915288 -0.0041470388 0.031146552 -0.003237267 -0.018041678 0.065930918
15810000000 -0.055240039 -0.025330469 0.027506631 -0.015707605 0.028067905 -0.014604184 -0.022277046 0.06633009
15820000000 -0.045518856 -0.028620793 0.019420866 -0.025140313 0.020535957 -0.02434 -0.014829203 0.065741785
15830000000 -0.051659659 -0.042837221 0.0084624356 -0.030577835 0.0098080654 -0.030410826 -0.0076698903 0.066444524
15840000000 -0.053869434 -0.044833325 -0.0037209326 -0.030841358 -0.0027629845 -0.031040955 -0.0053667873 0.06701234
15850000000 -0.06294696 -0.052791815 -0.01452087 -0.028133206 -0.013388743 -0.028556637 -0.013292586 0.069042116
15860000000 -0.069111906 -0.049535677 -0.024425121 -0.020164762 -0.023485493 -0.021216765 -0.015569076 0.074594319
15870000000 -0.079284146 -0.045516379 -0.030499104 -0.0094114784 -0.030140446 -0.010988724 -0.017382048 0.069015227
15880000000 -0.07389877 -0.032619558 -0.031456649 0.0026757084 -0.031840321 0.0015837015 -0.015821125 0.072762087
15890000000 -0.072742574 -0.030179758 -0.02807587 0.014986675 -0.028575886 0.013836897 -0.0061720572 0.069010109
15900000000 -0.065091088 -0.026425935 -0.020563936 0.023839103 -0.021869862 0.022905769 -0.010890493 0.071643934
15910000000 -0.063171729 -0.035187718 -0.0097879851 0.030460967 -0.010892944 0.030189503 -0.0070884861 0.079471566
15920000000 -0.066866443 -0.04412742 0.0022469927 0.031357616 0.00078601576 0.031429976 -0.0073016286 0.076411799
15930000000 -0.078544632 -0.051172867 0.013763981 0.028070396 0.012652151 0.028755117 -0.0086434949 0.078125246
15940000000 -0.085543811 -0.053151608 0.023742253 0.021302678 0.02261686 0.022413168 -0.0072951838 0.076401107
15950000000 -0.10052845 -0.054156788 0.029537326 0.010405296 0.029137656 0.011641492 -0.0077337306 0.080762275
15960000000 -0.10181086 -0.044610571 0.031904526 -0.0016634957 0.03177698 -2.3440924e-05 -0.0059647989 0.08218047
15970000000 -0.10060961 -0.04428608 0.028798483 -0.012692003 0.029450171 -0.011177893 -0.0051110443 0.081279971
15980000000 -0.093080655 -0.04162284 0.022421889 -0.023943398 0.023633126 -0.02283288 -0.0084087905 0.076260097
15990000000 -0.089949504 -0.04735899 0.01043749 -0.030225221 0.012052377 -0.029921923 -0.0073923431 0.078458652
16000000000 -0.085118391 -0.051521525 -0.0018578405 -0.03133928 -0.00048576668 -0.031564318 -0.00034105033 0.078752838
16010000000 -0.092250846 -0.062511496 -0.01224072 -0.028245363 -0.011001034 -0.028770741 0.0034192782 0.078747571
16020000000 -0.098596811 -0.064320676 -0.0223548 -0.022548994 -0.021125624 -0.023478962 0.0063606557 0.079462558
16030000000 -0.11291158 -0.066290326 -0.029622775 -0.012288884 -0.028878462 -0.013889989 0.0023581898 0.075656451
16040000000 -0.12145429 -0.058957908 -0.032121256 0.00097875297 -0.032245938 -0.00059601758 0.0008660797 0.075499497
16050000000 -0.12963346 -0.054614067 -0.028584205 0.012614194 -0.029205279 0.011243182 0.0072878636 0.074855328
16060000000 -0.12871821 -0.051098138 -0.02233799 0.021983715 -0.023165042 0.020920223 0.012248099 0.072618552
16070000000 -0.12930942 -0.053710539 -0.012633917 0.02930087 -0.014153463 0.028630208 0.017613826 0.07666342
16080000000 -0.12602507 -0.058329262 -0.00022637751 0.032035418 -0.0016821288 0.032080792 0.014810583 0.078758605
16090000000 -0.131156 -0.070330054 0.01221763 0.029213816 0.010866098 0.029848862 0.0082402797 0.081512883
16100000000 -0.13744821 -0.076969035 0.02185287 0.02197073 0.020768497 0.022919027 0.0084886225 0.076611087
16110000000 -0.15030056 -0.080565006 0.02854564 0.012623445 0.027982809 0.013881655 0.008524741 0.069333069
16120000000 -0.15762863 -0.076872952 0.031025857 0.00068320893 0.03120112 0.0023786621 0.013919186 0.061146483
16130000000 -0.16563936 -0.069474652 0.029559489 -0.011021889 0.030178346 -0.009964454 0.014770532 0.063131936
16140000000 -0.16764267 -0.064568564 0.023207864 -0.021302184 0.024189292 -0.02036632 0.019100495 0.068929344
16150000000 -0.17044671 -0.062159829 0.012524026 -0.028654646 0.013566965 -0.028270295 0.0186524 0.067728885
16160000000 -0.17391711 -0.06336692 0.0016593251 -0.031400107 0.0028842608 -0.031280119 0.016381443 0.064567953
16170000000 -0.18090238 -0.064853445 -0.011293888 -0.028597524 -0.010055709 -0.029345216 0.015748801 0.057627544
16180000000 -0.19165279 -0.070361756 -0.020246767 -0.02293854 -0.019601006 -0.023740247 0.017756123 0.054064699
16190000000 -0.20228773 -0.070574075 -0.027772713 -0.013335052 -0.027310975 -0.014401073 0.022808585 0.059280492
16200000000 -0.21352178 -0.072862394 -0.031304125 -0.00162182 -0.031376444 -0.0029436722 0.025097014 0.063821875
16210000000 -0.22112426 -0.069520086 -0.028303556 0.010011194 -0.02869829 0.0090449052 0.021616608 0.064314626
16220000000 -0.22843701 -0.066946134 -0.022959147 0.019669484 -0.023759365 0.018839853 0.010684972 0.059615102
16230000000 -0.23009028 -0.06209391 -0.0141782 0.026764067 -0.015057336 0.026344197 0.004086013 0.056143444
16240000000 -0.23528393 -0.060115885 -0.0024100738 0.030997559 -0.003569365 0.030825602 0.0069677671 0.051280085
16250000000 -0.23650625 -0.056772433 0.0092678964 0.029266171 0.008067851 0.029438214 0.012642949 0.049151741
16260000000 -0.24580099 -0.057089277 0.020057769 0.023022925 0.01910267 0.023921875 0.014029949 0.047825001
16270000000 -0.25309372 -0.050718106 0.026539996 0.013976716 0.025860488 0.014945094 0.011480367 0.047638994
16280000000 -0.26727286 -0.047426201 0.029758364 0.002884374 0.029670715 0.0041142576 0.0072896108 0.049121957
16290000000 -0.27684295 -0.039187796 0.029084148 -0.008537909 0.029481009 -0.0072570108 0.0053015277 0.043134142
16300000000 -0.28798088 -0.033394571 0.022856075 -0.018922031 0.023721008 -0.018307615 0.0069340412 0.044127595
16310000000 -0.29165304 -0.02618596 0.014743235 -0.026374502 0.015686907 -0.025788952 0.012900265 0.043153673
16320000000 -0.30108252 -0.025640257 0.0033693034 -0.029542647 0.004582365 -0.029397761 0.010330364 0.049431529
16330000000 -0.30293536 -0.021989658 -0.0078194281 -0.029247619 -0.0064260177 -0.029705543 0.0093298741 0.055665959
16340000000 -0.31176338 -0.023355946 -0.018890265 -0.02344441 -0.018038876 -0.024354842 -0.0003705211 0.054502405
16350000000 -0.31650138 -0.018428713 -0.025674095 -0.014353914 -0.02534687 -0.015478441 -0.0045913681 0.049761146
16360000000 -0.32818893 -0.012894161 -0.028823972 -0.0038474356 -0.028802741 -0.0047457051 -0.011518369 0.046236269
16370000000 -0.33043244 0.00045675412 -0.028844755 0.0071843825 -0.029111259 0.0060143704 -0.0067470502 0.048508521
16380000000 -0.33828437 0.0085688606 -0.023842985 0.01794878 -0.024930459 0.016848497 -0.0038490109 0.045967367
16390000000 -0.33881411 0.02012714 -0.015036951 0.025750194 -0.016148604 0.025476847 -0.0053103101 0.047109164
16400000000 -0.3474369 0.027210981 -0.0044484111 0.02865999 -0.0052356329 0.028566811 -0.0091723725 0.044148408
16410000000 -0.35056257 0.034925938 0.0070939586 0.028780941 0.0058731092 0.028854944 -0.013318866 0.044938739
16420000000 -0.36295012 0.039293915 0.017339882 0.023762506 0.016248362 0.024597783 -0.0076708943 0.051019192
16430000000 -0.36732304 0.045665227 0.025135737 0.015047027 0.024822148 0.016228219 0.0014274195 0.052138228
16440000000 -0.38049963 0.049220987 0.028702728 0.0053759264 0.028495865 0.0064087841 -0.00049691647 0.055842895
16450000000 -0.38505855 0.057535294 0.028537884 -0.0067284973 0.028817032 -0.005794799 -0.0038776342 0.058663059
16460000000 -0.39414036 0.065960743 0.024198484 -0.016617909 0.024582407 -0.015454786 -0.018287951 0.060928799
16470000000 -0.39260975 0.076035917 0.015321995 -0.02497169 0.016410118 -0.024133489 -0.019169478 0.064776927
16480000000 -0.39694068 0.085799232 0.004749923 -0.028506994 0.0062772678 -0.028302491 -0.014394771 0.061236121
16490000000 -0.39332783 0.094459921 -0.0055923546 -0.028358754 -0.0045616683 -0.02863225 -0.010079574 0.058916092
16500000000 -0.39850959 0.10216881 -0.017480478 -0.024173075 -0.016258473 -0.024934854 -0.0099457931 0.059733916
16510000000 -0.4007768 0.109492 -0.023742335 -0.015208874 -0.023085902 -0.016351936 -0.011097929 0.064564444
16520000000 -0.41178632 0.1184658 -0.028847154 -0.0046974323 -0.028827768 -0.0061786757 -0.015224219 0.06418813
16530000000 -0.41935235 0.12860033 -0.02745535 0.0061100433 -0.02791553 0.0049746726 -0.012337683 0.061041631
16540000000 -0.43109435 0.14165282 -0.023519656 0.016037514 -0.02413366 0.014872947 -0.0074391048 0.057610244
16550000000 -0.43494761 0.15503731 -0.016027678 0.024004202 -0.017405696 0.023009259 -0.0022846386 0.063374914
16560000000 -0.43922496 0.16575885 -0.0046548164 0.028115172 -0.0059749829 0.028075166 0.0058312118 0.068178453
16570000000 -0.43738678 0.17294663 0.0061733057 0.028429227 0.004586718 0.028746633 -0.001646243 0.076523244
16580000000 -0.43960279 0.18039422 0.016430739 0.022886319 0.015343244 0.023822803 -0.0031732868 0.079214849
16590000000 -0.43932545 0.18424989 0.023894833 0.015282804 0.022979241 0.016734026 -0.0074038208 0.075537458
16600000000 -0.44665232 0.19332835 0.02734752 0.0049259942 0.027306944 0.0064611379 -0.0072476845 0.073125958
16610000000 -0.45018551 0.20540674 0.027508773 -0.0067416718 0.02799415 -0.0053739455 0.0016037822 0.070300467
16620000000 -0.45702696 0.22175539 0.022351086 -0.016046226 0.023001447 -0.014844531 0.0055229478 0.070001148
16630000000 -0.46040869 0.23920164 0.014481295 -0.023579311 0.015821861 -0.022884071 0.0047586262 0.067053191
16640000000 -0.46435389 0.2576254 0.0049108369 -0.026911804 0.0063415742 -0.026559338 -0.0029748855 0.069116779
16650000000 -0.46436274 0.27292207 -0.0063564214 -0.027269147 -0.0046571158 -0.027604682 -0.00044982927 0.07244058
16660000000 -0.46764308 0.28505424 -0.016395517 -0.022030042 -0.015190871 -0.022979764 0.0059603262 0.067861065
16670000000 -0.47036108 0.29448831 -0.023185547 -0.013459645 -0.022272473 -0.0148602 0.015381998 0.065990567
16680000000 -0.47505921 0.3044602 -0.026698586 -0.0038424432 -0.026445691 -0.0054885494 0.018409854 0.06254518
16690000000 -0.48072898 0.31349006 -0.025845826 0.0067032948 -0.026115134 0.0051724454 0.013645593 0.067714371
16700000000 -0.4867785 0.3285026 -0.021145556 0.016141439 -0.022257883 0.014529375 0.013931477 0.072172448
16710000000 -0.48742038 0.34627414 -0.012729371 0.022719225 -0.014381542 0.021920308 0.011672992 0.071031407
16720000000 -0.48612845 0.36448371 -0.0027744544 0.025521141 -0.0043069739 0.025481142 0.013562536 0.068515129
16730000000 -0.48217988 0.38437361 0.0067736409 0.024370505 0.00529759 0.024687007 0.010483754 0.061332498
16740000000 -0.4779548 0.40361986 0.015571646 0.019457594 0.014171856 0.020397302 0.0070714038 0.064745016
16750000000 -0.47571009 0.4203904 0.02164094 0.012019806 0.020882182 0.013699118 0.0075536892 0.06365443
16760000000 -0.47346553 0.43808034 0.024511682 0.0029603802 0.024389984 0.0044557303 0.008163156 0.061013818
16770000000 -0.47363853 0.45475748 0.02348737 -0.0072323484 0.023978123 -0.0058971681 0.012423657 0.053074326
16780000000 -0.47326365 0.47195917 0.018148484 -0.015552094 0.019175645 -0.014470866 0.0092494143 0.049016632
16790000000 -0.47401744 0.48879576 0.010755055 -0.020793688 0.012042535 -0.020083381 0.011106336 0.050369207
16800000000 -0.47062609 0.507644 0.0018707814 -0.022956366 0.0035238962 -0.022769792 0.0082580969 0.053394359
16810000000 -0.4665671 0.52637565 -0.0070332433 -0.021640645 -0.0054911496 -0.022137927 0.0091566658 0.053522263
16820000000 -0.45610654 0.54644156 -0.014452068 -0.01749062 -0.013301294 -0.018346105 0.0037158672 0.049169935
16830000000 -0.44583777 0.56676257 -0.01991665 -0.0096882815 -0.019129477 -0.011010398 0.003363952 0.050640605
16840000000 -0.43211347 0.58547634 -0.021520745 -0.001470645 -0.021287829 -0.0029630819 0.0072783455 0.049247622
16850000000 -0.42164171 0.60423493 -0.020306591 0.0065850667 -0.020646922 0.0050915526 0.010490776 0.053638566
16860000000 -0.41007042 0.62191707 -0.016048118 0.014474321 -0.017038733 0.01319166 0.0097935665 0.056689888
16870000000 -0.40332025 0.64228076 -0.0082842316 0.01849426 -0.0097632967 0.017930862 0.00060490798 0.056085143
16880000000 -0.39310461 0.66288227 -0.00082316529 0.020157158 -0.0021498022 0.020091377 -0.0088616125 0.056795277
16890000000 -0.38574067 0.68391693 0.0065374556 0.017915074 0.005255363 0.018417651 -0.011806728 0.05321233
16900000000 -0.37278587 0.70157707 0.012736792 0.013927225 0.011650158 0.014882251 -0.0084571075 0.05226551
16910000000 -0.36057866 0.71840489 0.017080586 0.0079984162 0.01653751 0.0092269601 -0.0028190408 0.050602656
16920000000 -0.34458208 0.7320832 0.017982848 0.00060711801 0.017922683 0.0019152137 -0.0049878228 0.054368798
16930000000 -0.32983088 0.74702209 0.016945252 -0.0060533099 0.017411226 -0.0048538521 -0.003573216 0.059833102
16940000000 -0.31057835 0.76040018 0.012483328 -0.011906416 0.01326049 -0.011123023 -0.0097381156 0.059285402
16950000000 -0.29254457 0.77660167 0.0068775234 -0.015271842 0.0080062114 -0.014626358 -0.0096041728 0.058345906
16960000000 -0.2708849 0.79224277 0.00052330364 -0.016483022 0.0018070214 -0.016572289 -0.012144111 0.055564649
16970000000 -0.24979681 0.81004405 -0.0059157591 -0.015009474 -0.0050171204 -0.015437258 -0.0077716559 0.060537189
16980000000 -0.22777012 0.82504028 -0.010929761 -0.011107107 -0.010259415 -0.01173403 -0.0064961575 0.065241061
16990000000 -0.20755076 0.84116453 -0.013728713 -0.0058833365 -0.013356251 -0.0067380788 -0.01012486 0.071407534
17000000000 -0.1874879 0.85415536 -0.014455767 -0.00030204072 -0.014314698 -0.0013946979 -0.0097821141 0.071282171
