!Keysight Technologies,P9374A,MY57211807,A.19.30.04
!Date: Friday, May 01, 2026 14:14:27
!Correction: S11(C  2-Port  ) 
!S21(C  2-Port  ) 
!S12(C  2-Port  ) 
!S22(C  2-Port  ) 
!S2P File: Measurements: S11, S21, S12, S22:
# Hz S  RI   R 50
13000000000 0.044711798 0.091935501 -0.0018647934 -0.0044515119 -0.0011286314 -0.0042715394 -0.021040589 0.18087862
13010000000 0.042991821 0.099135399 -0.0019921139 -0.0026292803 -0.0020586066 -0.0037499799 -0.022344835 0.18643793
13020000000 0.041359857 0.10095682 -0.0035496224 -0.0015088497 -0.0048757056 -0.00079796452 -0.014982902 0.18599018
13030000000 0.042832289 0.10379989 -0.0037171484 -0.001405392 -0.0030231758 -0.00053589715 -0.0060293153 0.18006238
13040000000 0.042999405 0.10404131 -0.0035934791 0.0013841554 -0.0028477267 0.0014413216 -0.0058505051 0.16295721
13050000000 0.049729791 0.1017298 -0.0039220988 0.0023425061 -0.0039410847 0.0014466279 -0.030768443 0.16189569
13060000000 0.04966519 0.092290781 -0.0011529881 0.0038973035 -0.001844461 0.0040296526 -0.03307654 0.188622
13070000000 0.04796778 0.08893057 -0.00055245729 0.0038826538 -0.00020562985 0.0050894683 -0.01549606 0.1940919
13080000000 0.042981513 0.083975136 0.0013445586 0.0033050932 0.0024475963 0.002825673 0.0040357262 0.18425554
13090000000 0.040032052 0.088442072 0.0024181991 0.0030905756 0.0020416605 0.0019897425 0.0037047043 0.15777671
13100000000 0.035001054 0.092545763 0.0028462471 0.0019779066 0.0020019386 0.0019677402 -0.02104732 0.16123888
13110000000 0.039141919 0.10361829 0.0048112576 0.00038146926 0.0045602079 0.00076745951 -0.023877263 0.18649921
13120000000 0.044193242 0.10360332 0.00348104 -0.0014565561 0.0038762819 -0.0011719052 -0.011240253 0.19497201
13130000000 0.05178678 0.1070336 0.0029470702 -0.0027533467 0.0029529771 -0.0031707485 -0.0033850167 0.18890761
13140000000 0.055928051 0.096789896 0.0018598852 -0.0032763269 0.0010105429 -0.0033347951 -0.00090448931 0.17287076
13150000000 0.05535179 0.093513496 -0.00033983123 -0.0040892032 -0.00021697616 -0.002998173 -0.012236923 0.16567215
13160000000 0.048296388 0.084832035 -0.0011690914 -0.0030678725 -1.7583603e-05 -0.0031572292 -0.013712592 0.1790234
13170000000 0.044199415 0.088718638 -0.0019760681 -0.0025614798 -0.002459429 -0.0035148256 0.00010634214 0.18675081
13180000000 0.038872596 0.091367364 -0.0029339457 -0.0024354334 -0.003440226 -0.001615452 0.0088642575 0.18164554
13190000000 0.045650456 0.10237686 -0.0041993884 -0.00032432529 -0.0034046036 -0.0002869438 0.0051481929 0.17492265
13200000000 0.051523712 0.10280599 -0.003296192 0.0019955556 -0.0033921902 0.0009351992 -0.0013704114 0.17772236
13210000000 0.065452315 0.10439066 -0.0019134266 0.0023163708 -0.0028035138 0.0021236376 0.0048165098 0.18422207
13220000000 0.067677163 0.094736144 -0.0021780899 0.0024905247 -0.0025488152 0.0031756454 0.018713154 0.18033919
13230000000 0.070376717 0.090571843 -0.00094094116 0.0039146366 -0.00017083331 0.0041873157 0.019144036 0.16879186
13240000000 0.06366989 0.084713548 0.001757725 0.0036021059 0.0016598038 0.0030825851 0.010711789 0.17256936
13250000000 0.062683389 0.085709415 0.0026053623 0.0023887025 0.0019851495 0.0028686959 0.012534566 0.18448797
13260000000 0.05597692 0.087040789 0.0027490377 0.0011548765 0.0028475383 0.0017345375 0.024593836 0.18755659
13270000000 0.060626075 0.090054423 0.0029829512 0.0010843957 0.0040839277 0.0012225461 0.029883686 0.17907472
13280000000 0.062501475 0.091209516 0.0032514303 -0.00025209622 0.0034096008 -0.0011674785 0.032228913 0.17192671
13290000000 0.07317704 0.089856647 0.0033407919 -0.0023028115 0.0032689616 -0.0025052319 0.027446017 0.16012883
13300000000 0.074175604 0.08154732 0.0019785648 -0.0031266771 0.0013817968 -0.0028519814 0.022810802 0.16414255
13310000000 0.079002962 0.077863179 0.00020836067 -0.0035233106 0.00090316741 -0.0036822574 0.034051791 0.16931233
13320000000 0.078154668 0.072471231 -0.00016328393 -0.0032989883 -0.00058706256 -0.0036139346 0.047499865 0.1682886
13330000000 0.080362536 0.068029836 -0.0019372336 -0.0029031557 -0.0022714497 -0.0028282332 0.052230366 0.16626744
13340000000 0.074734308 0.067582086 -0.0026449421 -0.0027670651 -0.0027047805 -0.0022117964 0.053500183 0.16288793
13350000000 0.076579116 0.069008097 -0.0041609197 -0.00044044503 -0.0035607466 -0.00039505982 0.043640859 0.16141075
13360000000 0.073357768 0.068005562 -0.0038872068 0.0014505397 -0.0039427695 0.00072627713 0.042472761 0.16062286
13370000000 0.076206468 0.070601545 -0.001888402 0.0024718046 -0.0027518086 0.0025941215 0.0425767 0.15270953
13380000000 0.080547303 0.069501974 -0.0018107684 0.0016818774 -0.0013323303 0.0025656652 0.048783988 0.15140584
13390000000 0.084550202 0.06300994 -0.0015595665 0.0034573325 -0.0011868199 0.0027326716 0.059449106 0.15197785
13400000000 0.085083038 0.057609849 0.00020358991 0.0040011257 -5.4565491e-05 0.0039412039 0.07205575 0.14584912
13410000000 0.084662415 0.046182036 0.0026949039 0.0034552566 0.0025338028 0.0037269352 0.061642673 0.1336738
13420000000 0.081097521 0.039773464 0.0028020451 0.0017943133 0.0032107281 0.0019516553 0.044404052 0.13719851
13430000000 0.075549729 0.038165309 0.0037875387 0.00089584861 0.0036905233 0.00076067226 0.043751325 0.14425014
13440000000 0.073284119 0.039210033 0.0031095657 -0.00074873981 0.0029878514 -0.00048166886 0.060930867 0.14076038
13450000000 0.071054175 0.043217145 0.0027915391 -0.0016446327 0.0033707456 -0.0019039144 0.071457475 0.12336595
13460000000 0.078277484 0.044717025 0.0030423165 -0.0022251897 0.0029136997 -0.0025384871 0.070285417 0.11791851
13470000000 0.081445448 0.040593412 0.0016738659 -0.0041639218 0.0012586886 -0.0044351709 0.063700244 0.12135398
13480000000 0.083879232 0.032532245 -0.00081440446 -0.0043060253 -0.0010295956 -0.0038344632 0.061504066 0.12426217
13490000000 0.077825472 0.027832404 -0.0023800936 -0.0021164161 -0.0021237151 -0.0023820784 0.055408992 0.12138949
13500000000 0.074367575 0.019042131 -0.0018477807 -0.002611154 -0.0020177094 -0.0027112456 0.053870544 0.11479689
13510000000 0.063665092 0.017290745 -0.0036880681 -0.0017046528 -0.0036878271 -0.001591527 0.056765642 0.11549541
13520000000 0.060561322 0.019090639 -0.0045524212 -0.00025680344 -0.0046387441 -0.00020012347 0.066895425 0.1109435
13530000000 0.059308805 0.021299928 -0.0035869353 0.0021010113 -0.0038124525 0.0025757866 0.067556947 0.10283014
13540000000 0.062616453 0.021562684 -0.0023953074 0.0033225468 -0.0019545632 0.0034387186 0.059732087 0.099653006
13550000000 0.066093288 0.020195305 -0.00091762154 0.0038131538 -0.0011012804 0.0038013789 0.048122827 0.099725574
13560000000 0.068578079 0.016468167 -7.6422701e-05 0.0039026237 4.9568247e-05 0.0041281935 0.047762737 0.1058519
13570000000 0.065051362 0.011760345 0.001701406 0.0036647122 0.0022962373 0.0037586526 0.059162907 0.10326058
13580000000 0.060613859 0.011987746 0.0030382725 0.0032862416 0.0028634674 0.002754882 0.065943055 0.094350494
13590000000 0.055458013 0.012282602 0.0041012717 0.00079953414 0.0037875504 0.00088281819 0.062486384 0.086063482
13600000000 0.049332902 0.012817496 0.0045021609 -0.0003145081 0.0046245256 0.00015218504 0.048331268 0.088639319
13610000000 0.046543363 0.01418879 0.0033846886 -0.0017974816 0.0037990175 -0.0021674421 0.041810606 0.097745165
13620000000 0.046471816 0.015716957 0.0035359401 -0.0034376709 0.0029428271 -0.0038350224 0.046816535 0.10095178
13630000000 0.040911663 0.013118476 0.00089690264 -0.0041986699 0.00087573717 -0.0039690249 0.050856583 0.097204387
13640000000 0.04296653 0.015920198 -0.00031102949 -0.0042133457 -0.0007052205 -0.0042772829 0.058297496 0.088322207
13650000000 0.044482362 0.01127337 -0.0018762099 -0.0035040025 -0.0017371458 -0.0033582817 0.048156194 0.078277811
13660000000 0.045291048 0.012710804 -0.0035498466 -0.0032078549 -0.0038575435 -0.0031267109 0.041027546 0.083611555
13670000000 0.047830336 0.0090733441 -0.0042447108 -0.00072041224 -0.0042768815 -0.00062275317 0.041675799 0.08707618
13680000000 0.048289247 0.0071665291 -0.0042972309 0.00066459214 -0.0041812668 0.00069108536 0.045213502 0.088432126
13690000000 0.040724531 0.007492533 -0.0031140554 0.0016043102 -0.0032783709 0.0018082416 0.053361513 0.090599775
13700000000 0.041819718 0.012499791 -0.0031459562 0.003389868 -0.0031567565 0.0034419233 0.056858249 0.084834725
13710000000 0.034873135 0.016955517 -0.001648385 0.0036771442 -0.001409371 0.0045103948 0.050530799 0.084286459
13720000000 0.039783683 0.022453429 0.00022459685 0.0050125192 0.0010668236 0.0046317708 0.043655206 0.085468918
13730000000 0.039994583 0.021933138 0.0018406848 0.0039673005 0.0019454161 0.0032589473 0.043306954 0.089864939
13740000000 0.044886328 0.019655991 0.0037879446 0.0028139832 0.0033434534 0.0028162652 0.049708422 0.083747618
13750000000 0.042615414 0.012573609 0.004040305 0.0012229146 0.004262472 0.0014078933 0.050578505 0.08234106
13760000000 0.04288673 0.007358538 0.0044950005 5.0859293e-05 0.0049444367 -0.00067721144 0.054326124 0.083500221
13770000000 0.036132053 0.002520727 0.0048516467 -0.0025940822 0.0040110443 -0.0027423899 0.054213308 0.083418936
13780000000 0.03617575 0.0053341677 0.0025821815 -0.003938877 0.0021978379 -0.0034762612 0.050149754 0.084331721
13790000000 0.037699305 0.0092167547 0.00094304583 -0.0044704401 0.0013510083 -0.0039978428 0.049285091 0.083454154
13800000000 0.042837281 0.0095011732 -0.00075002818 -0.0041846377 -0.00056963868 -0.0048275283 0.05543207 0.078700915
13810000000 0.044930823 0.009948411 -0.0019202642 -0.0039851549 -0.0024049345 -0.0035383177 0.059205662 0.069885209
13820000000 0.049702838 0.0078646652 -0.003872572 -0.0029554085 -0.0036668349 -0.0026638024 0.053922772 0.070598155
13830000000 0.045933411 0.0048246495 -0.004587457 -0.0011002427 -0.0041302359 -0.0012784749 0.056301869 0.087381415
13840000000 0.046105601 0.003765244 -0.0045286501 0.00041537173 -0.0045583625 0.00041911949 0.072208263 0.084554031
13850000000 0.039328951 0.00095546059 -0.0040765638 0.0027359554 -0.0041361963 0.0023786295 0.068743512 0.062724978
13860000000 0.041058574 0.0030241467 -0.0021426792 0.0041349027 -0.0023022164 0.0043025268 0.050380111 0.05482113
13870000000 0.039777823 -0.0020605677 -0.00027563149 0.0039064777 -7.4311014e-05 0.0040953779 0.046382789 0.066551492
13880000000 0.040834174 -0.0051622065 0.00025519333 0.004326439 0.00024581363 0.0037657579 0.06280911 0.075526237
13890000000 0.039471328 -0.0094256811 0.0018220188 0.0038713054 0.001317037 0.0042061824 0.080523223 0.068015143
13900000000 0.039325267 -0.011663028 0.0040686321 0.0027581723 0.0045161801 0.0031854883 0.076988265 0.049229689
13910000000 0.036187589 -0.011416565 0.0039647515 0.00087764987 0.0044079535 0.00019431522 0.054893959 0.045020215
13920000000 0.040508721 -0.0094844578 0.0041057374 -0.0010188193 0.0037433004 -0.00088814553 0.054013725 0.056660604
13930000000 0.039445896 -0.010598151 0.0036941166 -0.0015108975 0.0035478089 -0.0015643393 0.067220554 0.056183819
13940000000 0.040856775 -0.012235395 0.0028238841 -0.0036683071 0.0026957705 -0.0033541296 0.079338513 0.041418146
13950000000 0.038473323 -0.015533595 0.0016101215 -0.0041698022 0.0017516641 -0.0043442184 0.063951537 0.03431683
13960000000 0.033864368 -0.02223729 -0.00070118287 -0.0048582344 -0.0011061747 -0.0048914771 0.062527291 0.04764672
13970000000 0.021594116 -0.025395855 -0.002346606 -0.0038702327 -0.002409149 -0.003531608 0.071578518 0.043426439
13980000000 0.017891614 -0.023396311 -0.0035947489 -0.0020260795 -0.0032313166 -0.0018486603 0.06601347 0.030473026
13990000000 0.014364099 -0.024516819 -0.0039559249 -0.0010782734 -0.0037375567 -0.0013199045 0.058193088 0.027781211
14000000000 0.015847255 -0.024394257 -0.0040305755 0.00064614532 -0.0039666425 0.00079826638 0.054728009 0.030043583
14010000000 0.020331565 -0.02891296 -0.0035154349 0.0023289574 -0.0036546751 0.0016224334 0.057542518 0.034587234
14020000000 0.020799037 -0.03639245 -0.0020702304 0.0031440151 -0.002813268 0.0036033834 0.065916538 0.029205602
14030000000 0.018926086 -0.040216759 -0.0017371037 0.0045132795 -0.000873368 0.0044809142 0.06032129 0.012416383
14040000000 0.01488501 -0.041868214 0.00074345805 0.0041296361 0.00046080525 0.0036388433 0.044271406 0.0085173976
14050000000 0.0083297286 -0.03810171 0.002348254 0.0035812226 0.0018124033 0.0040214485 0.04033019 0.017345304
14060000000 0.0064910166 -0.031579629 0.0034797501 0.0023485315 0.0037767729 0.0027512694 0.046485286 0.023429982
14070000000 0.0057744472 -0.029658739 0.0031716574 0.00084551453 0.0038992625 0.00080357044 0.053136803 0.018297931
14080000000 0.0038099913 -0.028942877 0.0041269278 0.00024109875 0.0039426838 -0.00029306044 0.048871122 0.0053975694
14090000000 -0.0020343782 -0.030407578 0.0043191817 -0.0017066826 0.0040166928 -0.0015393086 0.034974586 -0.004359765
14100000000 -0.0066468623 -0.032111119 0.0023027668 -0.004545345 0.0023130034 -0.0038398881 0.024080306 -0.00011861138
14110000000 -0.016826324 -0.033279039 9.1152498e-05 -0.003311222 0.0012404119 -0.0035382179 0.032519415 0.0086546978
14120000000 -0.018123189 -0.031532574 0.00041465322 -0.0031329039 -0.00023494835 -0.0039939894 0.044504195 0.0038698986
14130000000 -0.019637324 -0.031063868 -0.00085526903 -0.0047920458 -0.0013153941 -0.0044881171 0.039416358 -0.0048341434
14140000000 -0.019290771 -0.031255949 -0.0039891936 -0.0026929309 -0.0037461505 -0.0021587012 0.023736028 -0.002701709
14150000000 -0.019950815 -0.031097183 -0.0042891675 -0.00096630625 -0.0039356817 -0.0011512253 0.018649293 0.005811682
14160000000 -0.018825771 -0.033965304 -0.0029046899 0.000425381 -0.0033151871 0.00017400121 0.02792035 0.0025071092
14170000000 -0.026332561 -0.030583272 -0.0040960303 0.00062953751 -0.0045271018 0.00085442595 0.028958311 -0.010218745
14180000000 -0.028620593 -0.02578824 -0.0032286115 0.0027800833 -0.0031569309 0.0036614786 0.01764565 -0.0084303226
14190000000 -0.03154029 -0.01675361 -0.0018549227 0.0049415878 -0.001050095 0.0045408909 0.013611685 0.0090473071
14200000000 -0.03031902 -0.015685292 0.0011009658 0.0038466763 0.0002490707 0.0034033351 0.021887219 0.015756689
14210000000 -0.03356554 -0.012430366 0.0014128711 0.0033987185 0.0013405464 0.0039332458 0.018868748 0.001105925
14220000000 -0.032280736 -0.017144144 0.0020606392 0.0026719114 0.0028600032 0.0030574221 0.0017904164 -0.0070627532
14230000000 -0.039277732 -0.017699365 0.0038504442 0.0024316437 0.0041978946 0.0018114141 -0.0080059739 -0.001184603
14240000000 -0.043223489 -0.018109363 0.0047507631 0.00057626027 0.0040645944 0.00023512449 0.0050220336 0.012043168
14250000000 -0.044658672 -0.012021365 0.0041792933 -0.0026342841 0.0042026155 -0.0015867756 0.019780846 0.0043177493
14260000000 -0.044301633 -0.012620864 0.0024962642 -0.0034070606 0.0034178393 -0.0037071249 0.0079058399 -0.0069795046
14270000000 -0.03961144 -0.0048761433 0.0012585968 -0.003011409 0.0013693677 -0.0036739453 -0.011046538 0.0018293869
14280000000 -0.03524014 -0.010068438 0.0013026972 -0.0037652671 0.0003509029 -0.0040518199 -0.0083535546 0.016275911
14290000000 -0.035196047 -0.0068544396 -0.0013104471 -0.0053065838 -0.00095146918 -0.0046707252 0.006308754 0.0099248914
14300000000 -0.040676631 -0.0084197642 -0.003576301 -0.0030058066 -0.0033113151 -0.0033337777 0.0085151633 -0.0032968184
14310000000 -0.041293621 0.00085878 -0.0039925547 -0.001200404 -0.0045125643 -0.001473205 -0.0023503634 -0.004872649
14320000000 -0.045869187 0.00010853633 -0.0035461036 -0.00050977303 -0.0039678314 -6.5250322e-05 -0.0095832366 0.0088392636
14330000000 -0.041158989 0.0078309234 -0.0044795987 0.00096298428 -0.0043478035 0.0014651332 -0.0044264789 0.018522685
14340000000 -0.041042943 0.0038151219 -0.0037802837 0.0027341864 -0.0036439993 0.0026878403 0.00056213047 0.01482844
14350000000 -0.036647815 4.327856e-06 -0.0018243927 0.004719526 -0.0016607194 0.0050092842 0.0019359175 0.0035832608
14360000000 -0.043166194 -0.0046500796 -0.00047532073 0.0039343298 -0.00039704322 0.0040090308 -0.0067354916 -0.001126801
14370000000 -0.039630335 -0.004706935 0.0011913283 0.0037850325 0.0016283486 0.0039645731 -0.009110488 0.0084995572
14380000000 -0.045569569 -0.0038377177 0.0011838991 0.0044995793 0.0019059632 0.0041337367 -0.0021154941 0.014287842
14390000000 -0.037017059 0.002440758 0.0057677026 0.0031210152 0.0049808659 0.0018424668 4.803203e-05 0.0091364235
14400000000 -0.035812132 0.0029579103 0.005138522 -0.0003902379 0.0050185788 0.00050299079 -0.0042100633 0.0055800751
14410000000 -0.030262731 0.0026892759 0.0036282719 -0.0015941873 0.0041325656 -0.0021831603 -0.0049321325 0.0069188317
14420000000 -0.034180824 0.0045165354 0.0040683649 -0.00267512 0.003442294 -0.0031566347 -0.0020578923 0.0053065447
14430000000 -0.032786485 0.0034197546 0.0022977556 -0.0042762347 0.0017646677 -0.0034805094 -0.0065002432 0.0071046599
14440000000 -0.039975051 0.0061521381 0.00046647631 -0.0056357314 0.00080468948 -0.0051532751 -0.0043431595 0.015502627
14450000000 -0.037719507 0.0070709232 -0.0017035257 -0.0042546266 -0.0013495634 -0.0043778038 0.0021341583 0.0079317112
14460000000 -0.041391239 0.0067768116 -0.0030680927 -0.0043293 -0.0033496432 -0.0042428626 -0.0062407688 -0.0062865033
14470000000 -0.038568545 -0.0016745906 -0.0045336029 -0.0022793838 -0.0047050202 -0.0022836667 -0.018295288 -0.0034402902
14480000000 -0.045852516 -0.0035037622 -0.0056778602 0.00016686856 -0.0053722183 0.0006132361 -0.013232198 0.011147594
14490000000 -0.047235008 -0.0053009237 -0.0039486373 0.0021119826 -0.0038314657 0.0015324794 0.0033530514 0.013946501
14500000000 -0.049949087 -0.0011583404 -0.0026505212 0.0031118225 -0.0035259174 0.0030512542 0.0098784631 -0.0024242138
14510000000 -0.046510134 0.0033692745 -0.0026484171 0.0035879347 -0.0026788998 0.0043459432 -0.0090613943 -0.023164922
14520000000 -0.041275971 0.0081366217 -0.00061181828 0.0053077238 -0.00016101613 0.0056450358 -0.03891854 -0.012710252
14530000000 -0.032871194 0.0050211567 0.0017908576 0.0048580458 0.0024919298 0.0047189491 -0.029114176 0.018424571
14540000000 -0.032268323 0.00038786791 0.0030399489 0.003012276 0.0031182449 0.0026438655 0.0085473675 0.016749542
14550000000 -0.038874611 -0.0067541944 0.0043172808 0.0021493756 0.0044245557 0.0020378283 0.023551503 -0.015615413
14560000000 -0.053112563 -0.0068236184 0.0044583399 1.1585886e-05 0.0045375908 0.00045737316 -0.015812434 -0.042039253
14570000000 -0.063759215 -0.0021049413 0.0043579047 -0.0011751893 0.0047671567 -0.0017779411 -0.057954907 -0.012504608
14580000000 -0.069058597 0.009722827 0.004358531 -0.0026203166 0.0040889978 -0.0030190677 -0.047254533 0.023026615
14590000000 -0.064219773 0.013728947 0.002568855 -0.0049917307 0.0018224776 -0.0049815169 -0.0075296173 0.020302972
14600000000 -0.056137912 0.017203322 7.8368001e-05 -0.005503647 7.7225268e-05 -0.0051159412 0.0098277824 -0.026468612
14610000000 -0.047419064 0.0055719167 -0.0024417979 -0.0044701612 -0.0026090252 -0.0043498534 -0.026424363 -0.047158778
14620000000 -0.057758395 -0.0004000254 -0.0033665695 -0.0034237658 -0.0036333732 -0.0028189169 -0.054182168 -0.020430569
14630000000 -0.060252868 -0.0017377343 -0.0033682426 -0.0019625514 -0.0026220337 -0.0014730268 -0.050597861 0.011004233
14640000000 -0.061320946 0.0041557332 -0.0057367226 -0.001557179 -0.0053060027 -0.0021207114 -0.029155744 0.012463755
14650000000 -0.064520605 0.0027826023 -0.0053332485 0.002033012 -0.0061021685 0.0018519892 -0.023974389 -0.013414336
14660000000 -0.070237465 0.0095166788 -0.0038679002 0.0044244565 -0.0038224398 0.0051082321 -0.04209476 -0.027272455
14670000000 -0.076532647 0.014174929 -0.0010582545 0.0044757007 -0.00039346307 0.0044669206 -0.052764669 -0.01615284
14680000000 -0.07585977 0.024773454 0.00011892128 0.004565252 0.00035542762 0.0038514296 -0.050033495 -0.0035703573
14690000000 -0.077432618 0.027693396 0.00087275368 0.0044449745 0.0001682383 0.0039949585 -0.047592103 -0.0044432934
14700000000 -0.071437418 0.032519184 0.0036485493 0.0042488296 0.0032757595 0.0050624106 -0.054759022 -0.0089962501
14710000000 -0.067164212 0.024165722 0.00453196 0.002184497 0.005402226 0.0024879705 -0.06773445 -0.0055619576
14720000000 -0.067646429 0.015757984 0.0058740606 -0.0002853573 0.0062079555 -0.0011499929 -0.062307227 0.0084487004
14730000000 -0.076278746 0.0092378091 0.0045492537 -0.0025903948 0.0035334474 -0.0027549705 -0.043560289 0.0025577769
14740000000 -0.086325154 0.014151573 0.0026516861 -0.0036480615 0.0026783114 -0.0029542539 -0.048714653 -0.018753972
14750000000 -0.093805417 0.027631171 0.0014649241 -0.003474748 0.0020285849 -0.0035140116 -0.07957574 -0.014494045
14760000000 -0.08611694 0.045123391 0.00035080686 -0.0039044102 0.00061206496 -0.0047454564 -0.089281119 0.012426026
14770000000 -0.078115463 0.05250819 -0.00025225163 -0.0053925538 -0.0010228074 -0.0056858412 -0.072532251 0.030803856
14780000000 -0.064996675 0.056600388 -0.004112313 -0.0044542304 -0.0042291153 -0.0040609315 -0.048265588 0.024980834
14790000000 -0.063203216 0.049560383 -0.0055140029 -0.0014700347 -0.0053475113 -0.0015296321 -0.047775842 -0.0016924841
14800000000 -0.064803556 0.045022778 -0.0039050244 0.0013453277 -0.0042291163 0.0013657351 -0.078101858 -0.0086172074
14810000000 -0.077934079 0.0414095 -0.0034587537 0.00079469732 -0.0035572122 0.0010777734 -0.10186057 0.014243834
14820000000 -0.083729982 0.049348038 -0.0040969672 0.0018897422 -0.0039422838 0.0023278887 -0.090656169 0.043956436
14830000000 -0.085897811 0.054159425 -0.0031267458 0.005401846 -0.0028187113 0.005317647 -0.063851103 0.039743304
14840000000 -0.082564726 0.059460875 0.0003611662 0.0056115165 0.0004982049 0.0057418938 -0.054951299 0.022054588
14850000000 -0.077527829 0.063588478 0.0027683433 0.0039099162 0.002816966 0.003891394 -0.062890567 0.011752212
14860000000 -0.068134181 0.065081827 0.0029501976 0.0032352188 0.0030820656 0.0029244949 -0.078906722 0.02185164
14870000000 -0.064275034 0.066317566 0.003400815 0.0024083308 0.0036326237 0.0020533754 -0.084454216 0.037508428
14880000000 -0.052366465 0.069774941 0.0052224593 0.00034099049 0.0050912583 -9.1579277e-06 -0.084168948 0.050424714
14890000000 -0.048671134 0.066822059 0.0046054181 -0.0016719647 0.0043512718 -0.001732996 -0.067482799 0.0544165
14900000000 -0.043282636 0.066368073 0.0033579357 -0.0033378396 0.0029456427 -0.003347575 -0.05714047 0.041026615
14910000000 -0.047911089 0.062792316 0.0023297882 -0.004010418 0.0022051842 -0.0036049439 -0.059772056 0.033677515
14920000000 -0.056258604 0.064618111 0.00015617296 -0.0047035394 0.00054762705 -0.0048756786 -0.067299142 0.036703933
14930000000 -0.062936366 0.073144294 -0.001359091 -0.0047704629 -0.0016943829 -0.0048776697 -0.074437551 0.050545774
14940000000 -0.0601114 0.083297074 -0.0034133522 -0.0037099193 -0.0035642956 -0.0031727294 -0.074369833 0.055986673
14950000000 -0.052643329 0.087957487 -0.0049302736 -0.001446682 -0.0043254904 -0.0012964705 -0.071374446 0.058843423
14960000000 -0.040140845 0.085786663 -0.0039770855 -6.7271991e-05 -0.0036842532 -0.00066561904 -0.055686042 0.058137432
14970000000 -0.029750438 0.075186081 -0.0041855099 0.0008189131 -0.0047155181 0.00073583133 -0.040816274 0.043488357
14980000000 -0.026404306 0.06148066 -0.0043860385 0.0030970972 -0.0044512916 0.0034917623 -0.049756136 0.033670835
14990000000 -0.030184152 0.050925639 -0.0022766488 0.0050206422 -0.0019531851 0.0050228378 -0.064445414 0.048107699
15000000000 -0.037643846 0.050972812 0.0011894268 0.0050545931 0.0011152893 0.0047206841 -0.066773511 0.065408789
15010000000 -0.040839873 0.05763521 0.0019390654 0.002711778 0.0014281002 0.0027965456 -0.055023104 0.071090005
15020000000 -0.03858263 0.066944115 0.0019879546 0.0029501971 0.0020127997 0.0035737322 -0.042828601 0.05694408
15030000000 -0.03131672 0.072544955 0.0034270766 0.0034321197 0.003933121 0.0032663615 -0.042638496 0.042224042
15040000000 -0.023556804 0.074616984 0.0058136629 0.00061597524 0.0061017512 0.00033925951 -0.048279613 0.040521998
15050000000 -0.017905306 0.067421675 0.0045014638 -0.0024871139 0.0044758357 -0.0028491807 -0.053838558 0.049999189
15060000000 -0.018609846 0.062383354 0.0019483571 -0.0035081524 0.0019604187 -0.0035921384 -0.052317217 0.057727899
15070000000 -0.021072188 0.050371855 0.0020457597 -0.0025330379 0.0017206017 -0.0025129626 -0.053472407 0.054258898
15080000000 -0.031560861 0.048454594 0.00065221707 -0.0044482411 0.00084232644 -0.0043434864 -0.05362533 0.052446999
15090000000 -0.033868287 0.046342645 -0.00093762483 -0.0049340613 -0.0010452277 -0.0053423289 -0.042450272 0.049103588
15100000000 -0.036010996 0.047974769 -0.0033186639 -0.0027769315 -0.0040400168 -0.0028988563 -0.034235936 0.039742831
15110000000 -0.036059666 0.047736056 -0.0038124744 -0.0020606529 -0.0041396953 -0.0011118816 -0.039227087 0.031102667
15120000000 -0.033669852 0.049916212 -0.0038267255 -0.0004448145 -0.0026459086 -0.00033265067 -0.057805393 0.036451068
15130000000 -0.030845009 0.051299833 -0.0044881525 0.00084578386 -0.0044261813 0.00029045908 -0.069083028 0.059096642
15140000000 -0.026870772 0.053627886 -0.0035451639 0.0029542327 -0.0043545566 0.0030675069 -0.050152842 0.072258413
15150000000 -0.023066904 0.05010616 -0.0020192 0.0040808748 -0.0015199664 0.0047784355 -0.028822336 0.053897936
15160000000 -0.024753708 0.048179567 -0.00031830673 0.0040339073 0.00033016293 0.0035053417 -0.035972577 0.022280324
15170000000 -0.027527647 0.042284708 0.0012590832 0.0039455616 0.00051845226 0.0031801574 -0.06804578 0.018433765
15180000000 -0.03755185 0.043336481 0.0024382551 0.0031946467 0.0020214519 0.0039011727 -0.083884358 0.051915228
15190000000 -0.043197233 0.044960599 0.0035284096 0.0023075342 0.0040477868 0.002413129 -0.065882109 0.07254611
15200000000 -0.049302861 0.052313201 0.00433621 0.0005849005 0.0045082103 0.00035178091 -0.041135207 0.06426917
15210000000 -0.045458417 0.057898022 0.0038776975 -0.00099874474 0.0036234625 -0.0012431596 -0.038101841 0.033082858
15220000000 -0.037505761 0.06087745 0.0026798423 -0.0027544694 0.0026520693 -0.0023293516 -0.067859441 0.023752654
15230000000 -0.032351363 0.054717999 0.0020594646 -0.0024744584 0.0026602345 -0.0026073623 -0.078568153 0.050572187
15240000000 -0.029849742 0.050276048 0.0012572268 -0.0038039505 0.0013886658 -0.0045626727 -0.065122575 0.065768845
15250000000 -0.03454037 0.046224434 -0.00042788457 -0.0043440228 -0.001148233 -0.0045844712 -0.059922598 0.060222961
15260000000 -0.0391551 0.048691921 -0.0025282069 -0.0031825013 -0.0026825164 -0.0027311218 -0.062042914 0.062896557
15270000000 -0.042385779 0.055343155 -0.0029517268 -0.0025934749 -0.0028544054 -0.0028153767 -0.057217605 0.060000725
15280000000 -0.038997494 0.064004093 -0.0034527159 -0.0012044514 -0.003909721 -0.00093988038 -0.063073747 0.056935344
15290000000 -0.033725411 0.068240687 -0.0049291747 8.7398803e-05 -0.0050624916 0.00042902958 -0.068866327 0.063016139
15300000000 -0.029547639 0.065227419 -0.003325643 0.0024038304 -0.0029243871 0.0029004589 -0.074216194 0.068641424
15310000000 -0.029289477 0.063127376 -0.0023891756 0.003721182 -0.0019055848 0.0035111143 -0.075751409 0.077058673
15320000000 -0.032990523 0.058699779 -0.0014284408 0.0026334878 -0.0014508136 0.0024007238 -0.064975321 0.076192737
15330000000 -0.035038229 0.065671153 -0.00018234503 0.0047504236 -1.5007128e-05 0.0047168126 -0.059539862 0.072763987
15340000000 -0.030733995 0.066590145 0.0020126575 0.0044149999 0.002056876 0.0042041875 -0.0511913 0.074579142
15350000000 -0.025278261 0.067955911 0.0042333342 0.0025671325 0.0041971724 0.0025701737 -0.051157497 0.07022094
15360000000 -0.020894639 0.064303912 0.0038314855 0.00082092616 0.0040891999 0.00032055413 -0.067065835 0.07798367
15370000000 -0.015040809 0.061912749 0.0036507384 -0.00051278353 0.0031609251 -0.00072635198 -0.073725104 0.095148154
15380000000 -0.018271446 0.057217136 0.0038165811 -0.00091303559 0.0037481179 -0.00050946616 -0.059747718 0.10606806
15390000000 -0.017411465 0.061414361 0.0033081421 -0.0034077894 0.0034543276 -0.0034595816 -0.038326353 0.092473209
15400000000 -0.016952585 0.063402705 0.0016883578 -0.0048009609 0.0016969728 -0.0049092467 -0.040226199 0.071289867
15410000000 -0.0096682105 0.064980999 -0.00094046351 -0.0041572009 -0.0010654058 -0.0039008113 -0.059207164 0.076250151
15420000000 -0.007089233 0.061225861 -0.0016160217 -0.0030952585 -0.0017128645 -0.0032308667 -0.062804982 0.10190907
15430000000 -0.0024003107 0.057828009 -0.0022889443 -0.0028520287 -0.0021790967 -0.0025378459 -0.044332679 0.11216804
15440000000 -0.0074588638 0.052973606 -0.0040148837 -0.0026451892 -0.0041242046 -0.002860053 -0.033168197 0.096017048
15450000000 -0.0043445304 0.05541309 -0.0049228957 2.9509887e-05 -0.0052102464 0.00043996901 -0.036209706 0.080777802
15460000000 -0.00091598649 0.051623549 -0.0045119659 0.0022785394 -0.003894082 0.0023775762 -0.042460524 0.085877672
15470000000 0.0039530126 0.049674883 -0.0026952627 0.0034470051 -0.0028320095 0.0030312894 -0.031859074 0.096644342
15480000000 0.0072061252 0.044354234 -0.0017691406 0.0039255172 -0.0021272684 0.0041329684 -0.022044126 0.10058004
15490000000 0.010123653 0.036531262 -2.5987392e-06 0.0047784862 0.00042779394 0.0051158061 -0.025060941 0.096807621
15500000000 0.0021252185 0.030943226 0.0020393808 0.0040619681 0.0020290902 0.003664657 -0.031570729 0.1011731
15510000000 0.00042707101 0.034152549 0.0036717874 0.0027886403 0.0032532201 0.0034003707 -0.025817614 0.10523085
15520000000 -0.0013366798 0.039209802 0.0033277799 0.0021030908 0.0039249002 0.002264176 -0.0098713711 0.097135291
15530000000 0.0084292805 0.040802009 0.0052572242 9.5156021e-05 0.0056929644 -0.00035177509 -0.013611825 0.082079254
15540000000 0.012528585 0.034272108 0.0045907013 -0.0018380467 0.0044654971 -0.0021353788 -0.025475424 0.086176179
15550000000 0.019139532 0.022946097 0.0028290516 -0.0043419893 0.0025323578 -0.004336209 -0.027516047 0.098110795
15560000000 0.010159579 0.01066866 0.0015103138 -0.0041110422 0.0015382088 -0.0038423524 -0.015784357 0.10569461
15570000000 0.0048155156 0.0051685837 -0.00042132521 -0.003467462 -0.00043053098 -0.0038249041 0.0021739341 0.094676673
15580000000 -0.0044814618 0.0059322817 -0.00074244849 -0.0049128411 -0.00096980575 -0.0052184127 0.0017693602 0.073886961
15590000000 -0.0030340862 0.0080766007 -0.0032830702 -0.0037109153 -0.0038113154 -0.0032253878 -0.013470892 0.071186349
15600000000 -0.0020746081 0.011764615 -0.0057523763 -0.00217317 -0.0056340354 -0.0017331953 -0.024527974 0.085603118
15610000000 0.007100008 0.0066125426 -0.0045493939 0.00074993481 -0.0043247477 0.0012169161 -0.014805437 0.10481348
15620000000 0.005172519 0.0013181985 -0.0040909527 0.0023306292 -0.0037201561 0.0021005627 0.011726699 0.09784162
15630000000 0.0052879984 -0.0063127382 -0.0026557811 0.0026338291 -0.0029824467 0.0026406215 0.013518969 0.06362357
15640000000 -0.00076168519 -0.0060680155 -0.0027539865 0.0047357623 -0.0024506741 0.0049200989 -0.013947526 0.055784553
15650000000 -0.00019790838 -0.01361895 4.236633e-05 0.0054701017 0.0003232914 0.0051819803 -0.025466397 0.079546966
15660000000 -0.0082758386 -0.014086517 0.0030016531 0.0045836521 0.0027928844 0.0040630018 -0.0086841676 0.098958924
15670000000 -0.013112379 -0.020560544 0.0035790242 0.0021897973 0.0030670709 0.0024190105 0.010662859 0.083844125
15680000000 -0.019963257 -0.017814631 0.0034967205 0.0014408581 0.0036286479 0.0017344673 0.0072450154 0.057021424
15690000000 -0.025428604 -0.022729632 0.004720584 0.00098376698 0.0050896951 0.00073813775 -0.014616312 0.050786596
15700000000 -0.025461201 -0.013765417 0.0054005878 -0.0023406486 0.0052027851 -0.0022751486 -0.018493162 0.071524933
15710000000 -0.022927709 -0.020041823 0.0027666241 -0.0037862693 0.0025817235 -0.0041653849 0.0021510683 0.08529602
15720000000 -0.018765409 -0.018946653 0.0017897086 -0.0042302655 0.001548175 -0.0040247734 0.012670547 0.073671311
15730000000 -0.017182076 -0.03217414 -0.00011391251 -0.004657269 0.0002772857 -0.0041752355 -0.0022793058 0.057945233
15740000000 -0.020794071 -0.036155023 -0.0019716539 -0.0043400805 -0.0014292474 -0.0046876357 -0.024217926 0.061085392
15750000000 -0.033550177 -0.044557638 -0.0028181095 -0.0031924776 -0.0033886994 -0.0038830524 -0.020440379 0.077369533
15760000000 -0.040874913 -0.034982558 -0.0045518368 -0.0024536639 -0.0052261436 -0.0018315287 0.004452656 0.074781321
15770000000 -0.048460327 -0.034624644 -0.0050193905 -0.00011056429 -0.0046205963 0.00076520827 0.0085943155 0.055343136
15780000000 -0.047851589 -0.021601815 -0.0053711697 0.0021886518 -0.0043698037 0.0016453086 -0.013850799 0.054991886
15790000000 -0.047978271 -0.024769573 -0.0032236534 0.0040317415 -0.0039381594 0.0035462349 -0.026115434 0.072793886
15800000000 -0.043124869 -0.025137398 -0.0011172267 0.0048221298 -0.0016657251 0.0052917106 -0.020106789 0.083581232
15810000000 -0.049194355 -0.035226069 0.00019176846 0.0046222368 0.00064162398 0.0051323795 -0.0011285776 0.072545134
15820000000 -0.048478458 -0.038030252 0.0019527306 0.0041988208 0.0027037517 0.0038461052 0.0013404759 0.050006755
15830000000 -0.059207037 -0.047274243 0.0034017684 0.0035603377 0.0030136611 0.0031931945 -0.013212639 0.046291441
15840000000 -0.0623037 -0.043509506 0.0049395398 0.0016643894 0.0046172189 0.0020553032 -0.024912324 0.066117913
15850000000 -0.06888257 -0.046371572 0.0050847596 -0.00043367641 0.0056098555 0.00019600289 -0.02247164 0.08884111
15860000000 -0.068075679 -0.04031238 0.0044570686 -0.0023315721 0.0050755003 -0.0030693836 -0.0040849708 0.093477078
15870000000 -0.072861172 -0.040228464 0.0033021029 -0.0037590188 0.0027494796 -0.0042448374 0.0064868759 0.069570005
15880000000 -0.066447988 -0.031811722 0.001146568 -0.0051030661 0.00070731889 -0.0046920376 -0.0064981547 0.046047699
15890000000 -0.066547692 -0.034522418 -0.00017754885 -0.0042733354 1.1461064e-05 -0.0039783572 -0.031954948 0.054099649
15900000000 -0.06301567 -0.03436365 -0.0019578976 -0.0041020052 -0.0019348525 -0.0047801556 -0.029345987 0.088545002
15910000000 -0.067166865 -0.041351549 -0.0034383368 -0.0038769643 -0.0041576731 -0.00385478 -0.00066770986 0.09802524
15920000000 -0.071693279 -0.046857465 -0.0056574261 -0.0015472877 -0.005725346 -0.0011362799 0.012328606 0.075839117
15930000000 -0.085532442 -0.051740363 -0.0048422944 0.001160501 -0.0047420096 0.0015429519 -0.0031679459 0.059429884
15940000000 -0.092063323 -0.047652934 -0.0036777896 0.002433728 -0.0033677442 0.0025015157 -0.018385321 0.065531358
15950000000 -0.1011666 -0.044755489 -0.0029076098 0.0025751181 -0.0028341981 0.0027347682 -0.016523227 0.086046517
15960000000 -0.095808178 -0.038434524 -0.0021337587 0.0050570029 -0.0017691083 0.0052279234 -0.0012367233 0.089830019
15970000000 -0.091978282 -0.042054027 0.00085236755 0.0054812594 0.0010504867 0.0051329988 0.00019262545 0.082453057
15980000000 -0.084141657 -0.046286814 0.0032475735 0.0034809608 0.0034314203 0.0036545969 -0.0041376259 0.078925498
15990000000 -0.086858906 -0.05688829 0.0025953052 0.0024980539 0.0027943384 0.0024131564 -0.0022339448 0.077427007
16000000000 -0.089582704 -0.061188716 0.0046613016 0.001882688 0.0043991767 0.00096453121 0.0028818026 0.07671313
16010000000 -0.10189675 -0.066285416 0.0055535915 -0.00042197318 0.0048048841 7.0680398e-05 0.0027463082 0.070931293
16020000000 -0.10922908 -0.060297444 0.0038289907 -0.0030652101 0.0039920062 -0.0028836399 -0.0070844349 0.077279195
16030000000 -0.1176245 -0.055649683 0.0023183208 -0.0039069648 0.0026939292 -0.0040597036 -0.0047337427 0.089023769
16040000000 -0.11575286 -0.049155019 0.00069115753 -0.0035389543 0.0003725983 -0.0038190533 0.010130804 0.085672818
16050000000 -0.12085832 -0.052796863 -0.00025767437 -0.0043728976 -0.00048726588 -0.004505625 0.018894119 0.069977671
16060000000 -0.1206018 -0.053851493 -0.0019183953 -0.0041789273 -0.0019157084 -0.0034933398 0.01607281 0.060383648
16070000000 -0.12493101 -0.062201634 -0.0042004031 -0.0031362921 -0.0038409731 -0.0031319289 0.0077887848 0.068608396
16080000000 -0.12945908 -0.06704893 -0.0043209088 -0.00066734775 -0.0042231036 -0.0008923366 0.0096838661 0.083625436
16090000000 -0.13824244 -0.07283958 -0.004560492 0.0010804783 -0.0048175612 0.00095318159 0.011944843 0.086258814
16100000000 -0.14329951 -0.075083368 -0.0031672304 0.0025217577 -0.0031962253 0.0027017444 0.012617322 0.078648508
16110000000 -0.15285248 -0.075287282 -0.0019544687 0.0031789513 -0.0019926 0.0031876802 0.013737801 0.070709892
16120000000 -0.15542403 -0.072142966 -0.0016186901 0.0033959695 -0.0012266433 0.0036625208 0.018728409 0.062301759
16130000000 -0.16368471 -0.068282448 9.5296185e-05 0.0046478705 0.00012306054 0.0043027233 0.019165073 0.058765315
16140000000 -0.16512702 -0.064073183 0.0027184719 0.0045793629 0.0024428349 0.0043413979 0.015630761 0.063710183
16150000000 -0.16806532 -0.061884113 0.0039099092 0.001879567 0.0039826133 0.0022819885 0.010104856 0.070632666
16160000000 -0.17004976 -0.064761654 0.0039736861 0.00047616655 0.0045174542 0.00021037934 0.012948331 0.073609523
16170000000 -0.18090421 -0.069115028 0.0033498304 -0.0007795344 0.0030266391 -0.0010012022 0.024244372 0.064750679
16180000000 -0.19287413 -0.073118396 0.0035072749 -0.001742042 0.0034998942 -0.0014502039 0.029304413 0.048796453
16190000000 -0.20545843 -0.072427869 0.0028133944 -0.0032269119 0.0032251673 -0.0032605329 0.023829743 0.043258369
16200000000 -0.21533915 -0.072678328 0.00073704554 -0.0043737171 0.00050733448 -0.0050754859 0.013873233 0.054511715
16210000000 -0.22494172 -0.067291111 -0.00033963239 -0.0039141863 -0.0012321346 -0.0038949414 0.0095161702 0.070550464
16220000000 -0.22843821 -0.062805504 -0.0026523753 -0.0034004999 -0.0024644043 -0.0025278502 0.014468359 0.074935831
16230000000 -0.22711779 -0.058456685 -0.0036373811 -0.0020390605 -0.0028522133 -0.0026586636 0.023663135 0.062336601
16240000000 -0.23029085 -0.060895506 -0.0031330197 5.9180427e-05 -0.0039435546 -0.00047194719 0.022942036 0.038577039
16250000000 -0.23556225 -0.059469707 -0.0034655076 9.9078985e-05 -0.0038855821 0.00081214495 0.0087450696 0.031625871
16260000000 -0.24460757 -0.059144095 -0.0031902497 0.0014522625 -0.0027337961 0.0022439254 -0.0012311097 0.045685843
16270000000 -0.25425655 -0.052848399 -0.0029579531 0.0036094452 -0.0025489472 0.0032162198 0.00014244393 0.067650527
16280000000 -0.2674185 -0.048848525 -0.00055326999 0.0040134974 -0.00063419988 0.003939121 0.021244934 0.065688096
16290000000 -0.27860779 -0.04085245 0.0012549876 0.0036466646 0.0014504797 0.0040133176 0.022312807 0.039739862
16300000000 -0.29000777 -0.033173438 0.0018512119 0.0027643924 0.0022173114 0.0023019817 0.0084325103 0.025831955
16310000000 -0.29443106 -0.025079969 0.0032084628 0.0017519398 0.0030666201 0.0014511989 -0.0060044546 0.036876347
16320000000 -0.30105078 -0.023124278 0.0030385044 0.00068824377 0.002659831 0.00094655511 0.0035156365 0.059667207
16330000000 -0.30285126 -0.018939704 0.0027845325 -0.00044168555 0.0033061604 -0.00026573369 0.015510663 0.059501253
16340000000 -0.30758983 -0.020284563 0.0035633519 -0.0010998832 0.0036072424 -0.0016288616 0.008307768 0.046758827
16350000000 -0.31152016 -0.019887529 0.0023632245 -0.0032995585 0.0019308996 -0.0036196432 -0.0095253708 0.043677058
16360000000 -0.32479364 -0.017800786 0.00015556702 -0.0042625666 -0.00029736944 -0.0037234267 -0.010081172 0.053505611
16370000000 -0.33217153 -0.0058667772 -0.0015585672 -0.0026402979 -0.001268073 -0.002139746 0.004613487 0.051130962
16380000000 -0.34141648 0.0057086274 -0.0014468031 -0.0015444949 -0.00085708039 -0.0016622348 0.004650807 0.038890842
16390000000 -0.34458774 0.019662715 -0.0016225779 -0.0023795951 -0.002005402 -0.0029412869 -0.013100048 0.039472904
16400000000 -0.35038668 0.031118914 -0.0031426917 -0.001344251 -0.0035959363 -0.0009992742 -0.021091392 0.055048916
16410000000 -0.35106713 0.038820654 -0.0043644998 0.00089955376 -0.0037705903 0.0011003583 -0.0065172669 0.061990216
16420000000 -0.36035946 0.043975115 -0.002051794 0.0023550619 -0.0021510608 0.0021260395 0.0073666628 0.050506886
16430000000 -0.36281332 0.045888811 -0.0012756211 0.002538932 -0.0013009121 0.002681202 0.0025857799 0.038640119
16440000000 -0.37673092 0.047167294 -0.00051824504 0.0023656241 -0.00065419055 0.0022853154 -0.011097843 0.047442287
16450000000 -0.38399598 0.054008897 0.00032788276 0.0025131309 0.00017955329 0.0027311456 -0.018631591 0.063834198
16460000000 -0.39329356 0.062724203 0.00078465359 0.0029549059 0.001095606 0.002974767 -0.014850898 0.074334919
16470000000 -0.39512217 0.071503446 0.0029569019 0.0021329755 0.0028097921 0.0018092017 -0.0040644277 0.065105364
16480000000 -0.40078121 0.084762424 0.0031129976 0.00016808952 0.0032153749 0.00052290014 -0.0051087737 0.049987029
16490000000 -0.39836732 0.096227691 0.00206809 -0.00048732437 0.0023114542 -0.00061987637 -0.01250711 0.049947917
16500000000 -0.39980629 0.10636253 0.0023820677 -0.00056654238 0.002498959 -0.00098903978 -0.014916213 0.062147293
16510000000 -0.40042442 0.11379348 0.0024276199 -0.002415447 0.0021038081 -0.0024157788 -0.012424923 0.071662404
16520000000 -0.40691745 0.1218601 0.00056163582 -0.0032696 0.00065351214 -0.0029492751 -0.0078279851 0.072546162
16530000000 -0.41466516 0.12768309 -0.00085287885 -0.0028076735 -0.00069740991 -0.0031330902 -0.0053144153 0.0605557
16540000000 -0.42661947 0.13801408 -0.0013536197 -0.0016067139 -0.0017122702 -0.0016128746 -0.0075712129 0.056353193
16550000000 -0.43421352 0.14914839 -0.0014967936 -0.0012876308 -0.0014703476 -0.0010808636 -0.0033058245 0.062816858
16560000000 -0.44231057 0.16026135 -0.0023313251 -0.0014609536 -0.0022360513 -0.0015021201 0.0017856285 0.072375089
16570000000 -0.44331098 0.17151949 -0.0028578802 2.9925432e-05 -0.0029771293 -4.2505504e-05 0.0028830636 0.077204376
16580000000 -0.44466761 0.18248321 -0.0029260875 0.0014050318 -0.0029096834 0.0015583802 -0.0037761689 0.075529851
16590000000 -0.44249964 0.18996561 -0.0010332468 0.0025972365 -0.00090236735 0.0027530007 -0.0063979328 0.075775541
16600000000 -0.44508427 0.19970226 -0.00019707397 0.0020648267 -0.00027589692 0.0016514135 -0.0033647865 0.068572052
16610000000 -0.44430885 0.20962235 8.2011276e-05 0.0016229923 -5.1844283e-05 0.0018669339 -0.00089098141 0.067008026
16620000000 -0.44992247 0.22013266 0.00048513996 0.0021277717 0.00068667787 0.0026063034 0.0020370521 0.072213605
16630000000 -0.45617291 0.23288321 0.0014867539 0.0025864376 0.0018112839 0.0019750125 0.0082611218 0.078938708
16640000000 -0.46480367 0.25014755 0.0030807904 0.00033858998 0.0025658703 0.00033718924 0.013951047 0.071619965
16650000000 -0.46992725 0.26649687 0.002179418 -0.00072342553 0.0021644959 -0.00038265027 0.0072961552 0.059102621
16660000000 -0.47588533 0.28494763 0.0010420115 -0.00051697111 0.0015318104 -0.00053575716 -0.0043733986 0.060346834
16670000000 -0.47569826 0.29976553 0.0018316912 -0.0010288027 0.0019657598 -0.0014324015 0.0014377423 0.076386869
16680000000 -0.47544956 0.31186652 0.001504033 -0.001981071 0.0008290066 -0.0022261138 0.021747539 0.083264723
16690000000 -0.47572142 0.31926107 5.2742427e-05 -0.0026855632 4.7690002e-05 -0.0021731432 0.034057021 0.070288233
16700000000 -0.4795543 0.32923117 -0.0006134822 -0.0023014199 -0.00022173475 -0.0023083035 0.019210264 0.054065462
16710000000 -0.4821384 0.34155166 -0.0019986839 -0.0015427311 -0.0019762088 -0.001889437 -0.0031065973 0.057919241
16720000000 -0.48590645 0.35870546 -0.0019658678 -0.00091016333 -0.0025641264 -0.00098014728 -0.0049580191 0.074646145
16730000000 -0.48543906 0.38022697 -0.0020397769 -0.00010569254 -0.0021317878 0.00049803022 0.011848439 0.083402462
16740000000 -0.48222393 0.40166712 -0.002009514 0.00042272086 -0.0015534436 0.00058061525 0.03016758 0.069576807
16750000000 -0.48090196 0.42162365 -0.001786554 0.0012581822 -0.0016370779 0.0010627164 0.0235631 0.048692934
16760000000 -0.47590983 0.44243717 -0.0011972238 0.0022982045 -0.001449063 0.0022282652 0.0072170626 0.043517303
16770000000 -0.4722327 0.45797032 -6.005523e-05 0.0021116915 -8.514052e-05 0.0023837085 -0.0060804607 0.046908636
16780000000 -0.47103465 0.4739756 0.00092971878 0.0025097753 0.0011398303 0.002546621 -0.0028003864 0.066853464
16790000000 -0.47058234 0.4891634 0.0015463328 0.0014552695 0.0015152515 0.0011210166 0.018108632 0.071211226
16800000000 -0.46769315 0.50552613 0.0020846578 0.0007450424 0.001872743 0.00086053251 0.028104763 0.059927143
16810000000 -0.4652192 0.52292264 0.0021778764 0.00013275753 0.0019294498 1.8985011e-05 0.019587338 0.044635847
16820000000 -0.45780182 0.54321945 0.0020283777 -0.00072589912 0.0023031877 -0.0007108922 0.00076859072 0.036832646
16830000000 -0.44936305 0.56479841 0.0014696685 -0.001087693 0.0014196147 -0.0011674103 -0.011617409 0.044054896
16840000000 -0.43608677 0.58640224 0.0013790188 -0.0024911992 0.0012581914 -0.0024911833 -0.0061439425 0.061865598
16850000000 -0.42381117 0.60695744 -0.00032080288 -0.0020739008 -0.00029678302 -0.0021731313 0.017140906 0.067676857
16860000000 -0.40973479 0.62496084 -0.0011783811 -0.002113309 -0.0012703004 -0.0018779301 0.023071749 0.055189785
16870000000 -0.40139145 0.64400595 -0.0014031645 -0.00084551855 -0.0012129791 -0.00090615125 0.0073809493 0.04641778
16880000000 -0.390742 0.66269767 -0.0015440484 -0.00062828476 -0.0014868486 -0.00078602391 -0.010905751 0.047203485
16890000000 -0.38314974 0.68116069 -0.0018519664 -0.00039795617 -0.0021304272 -0.00036960182 -0.018835688 0.053620003
16900000000 -0.37331831 0.69774085 -0.0023145117 0.0007449218 -0.0021924763 0.0010188324 -0.0097754393 0.06063557
16910000000 -0.36331573 0.71654403 -0.0012356867 0.0016277372 -0.0010787786 0.0015544 0.0024857894 0.059404559
16920000000 -0.3476966 0.7317664 -0.00040004886 0.0019407438 -0.0004108267 0.0016661554 0.0073821787 0.058505259
16930000000 -0.3319 0.74850065 0.00032468408 0.0015631224 -2.6802096e-05 0.0016690195 0.0017060717 0.056380663
16940000000 -0.31143087 0.76260644 0.00084394647 0.0016119382 0.0011892063 0.0019161574 -0.0090816943 0.053885404
16950000000 -0.29121709 0.77835661 0.0010237328 0.0012020848 0.0014990482 0.0009510573 -0.020088764 0.055728443
16960000000 -0.26966172 0.7922411 0.0018369008 0.00048575696 0.0013570065 2.5847345e-05 -0.01952121 0.062396154
16970000000 -0.24919748 0.80926526 0.0015347683 -0.00017707126 0.0013704125 0.00035562064 -0.012819437 0.068936974
16980000000 -0.22796586 0.82358891 0.001369443 -0.00083301071 0.0018899101 -0.00069493265 0.0002830103 0.076851986
16990000000 -0.20856193 0.84009635 0.0013580129 -0.001231485 0.0013161969 -0.0018218624 0.0090219826 0.070117131
17000000000 -0.18881223 0.85383636 -8.6767832e-06 -0.001898268 -0.00059807074 -0.0020473446 -0.0017392356 0.052780796
