!Keysight Technologies,P9374A,MY57211807,A.19.30.04
!Date: Friday, May 01, 2026 14:15:00
!Correction: S11(C  2-Port  ) 
!S21(C  2-Port  ) 
!S12(C  2-Port  ) 
!S22(C  2-Port  ) 
!S2P File: Measurements: S11, S21, S12, S22:
# Hz S  RI   R 50
13000000000 0.050931331 0.098515995 -0.0025233093 0.0027353172 -0.0025347539 0.0029577608 -0.03405007 0.17625242
13010000000 0.050948843 0.098647937 -0.00028664677 0.0024671589 -0.00035159849 0.0028793253 -0.028697342 0.19823179
13020000000 0.047118083 0.096325397 -0.00069115486 0.0037276191 -0.00040567259 0.0033785268 -0.0084152147 0.19466713
13030000000 0.044181239 0.098254591 0.0010804612 0.002809484 0.00068275281 0.0026884498 0.0013255775 0.17970727
13040000000 0.041208278 0.098593861 0.0024911277 0.0034165939 0.0026837634 0.0033480672 -0.0030562505 0.15658544
13050000000 0.044185728 0.098422319 0.0032960665 0.0012442693 0.0034105841 0.0011141162 -0.03416127 0.15554562
13060000000 0.044049423 0.094159439 0.0039692139 -0.00044064011 0.0036283371 -0.0005779881 -0.040305872 0.18591331
13070000000 0.044574 0.093141779 0.0022120113 -0.0013131684 0.0023831404 -0.001329639 -0.021079101 0.20013577
13080000000 0.044079442 0.089325026 0.0019145234 -0.0027396176 0.0016015891 -0.002989874 0.0076922104 0.19385758
13090000000 0.042996205 0.091085158 0.0010241065 -0.0023106607 0.001021264 -0.0020822424 0.013248153 0.15768039
13100000000 0.040187538 0.092327408 -0.00021318777 -0.0031287181 0.00024673331 -0.0033067334 -0.018089194 0.15524676
13110000000 0.041645385 0.098810531 -0.00068995822 -0.0036233626 -0.0011702644 -0.0036868725 -0.02895732 0.18069068
13120000000 0.042927202 0.1003986 -0.0029932724 -0.0015706102 -0.0029449835 -0.0016308066 -0.019861661 0.19572291
13130000000 0.047216646 0.10505588 -0.0024421406 -0.0013696625 -0.0021710542 -0.00092529994 -0.007147748 0.19647999
13140000000 0.05387589 0.099570446 -0.0027745017 -2.8301787e-05 -0.0025363492 -0.0002910156 0.0048469603 0.18038334
13150000000 0.053323358 0.09648563 -0.0031967312 0.00095967186 -0.0035740596 0.00061050477 -0.0033263564 0.16192192
13160000000 0.050900735 0.088641793 -0.0015567882 0.0023522349 -0.0018083546 0.0027460174 -0.011338957 0.17166406
13170000000 0.047465324 0.088659674 -0.001240327 0.0026404751 -0.00090442871 0.0029635648 -0.0070411265 0.18120959
13180000000 0.042597111 0.089811765 0.00038740411 0.0032231575 0.00027212792 0.0026965518 -0.0011826567 0.18691912
13190000000 0.045275196 0.097178549 0.0011387026 0.0020101983 0.00082333782 0.002269815 0.0038798111 0.18680318
13200000000 0.049977496 0.10055619 0.0018919618 0.0020501663 0.0016750511 0.0025372026 0.0091891494 0.18270902
13210000000 0.061568182 0.10346564 0.0023629912 0.0018289576 0.0029688403 0.0016072352 0.013671853 0.17498326
13220000000 0.066017494 0.097819582 0.0026504127 8.939323e-05 0.0028299191 -0.00036061625 0.013330989 0.16958195
13230000000 0.070493966 0.091869965 0.0029869904 -0.00095273531 0.0025002141 -0.00056300242 0.0089995265 0.16962403
13240000000 0.066074759 0.086699113 0.0021962756 -0.0023823783 0.0028063196 -0.0019480742 0.0072303452 0.18269467
13250000000 0.064329252 0.08415103 0.001771383 -0.0022741137 0.0019854787 -0.0030403216 0.020518331 0.19203159
13260000000 0.058212023 0.085426748 0.00030887319 -0.0035434521 -0.00018289544 -0.0035447392 0.033401098 0.18254653
13270000000 0.058550373 0.086432345 -0.00082533521 -0.002993355 -0.00062915595 -0.0025589832 0.027366338 0.16772912
13280000000 0.060125358 0.090930283 -0.0025205491 -0.0023419606 -0.0020966143 -0.0025631383 0.019388109 0.17105609
13290000000 0.068384841 0.090026096 -0.0023631076 -0.00096175657 -0.0029192655 -0.00093886745 0.02347061 0.1741803
13300000000 0.074421555 0.08694613 -0.0023581879 -0.00060575869 -0.0022030051 -0.00033833866 0.035489701 0.16996756
13310000000 0.080505133 0.079039842 -0.0031787865 9.2030095e-05 -0.0029693879 -4.0437095e-05 0.043102555 0.16108994
13320000000 0.080055334 0.074417293 -0.0035301633 0.0023299938 -0.0035612595 0.0024224478 0.04130061 0.15774356
13330000000 0.082738034 0.067837156 -0.0014132622 0.0040615625 -0.0014398533 0.0040780189 0.039225794 0.16807765
13340000000 0.079080157 0.066965871 0.00088004762 0.0029100527 0.0011351025 0.0029872863 0.05058369 0.17451784
13350000000 0.077128753 0.064158112 0.0002058511 0.0020515039 0.00023206841 0.0017742333 0.051513705 0.16782025
13360000000 0.073249958 0.065460995 0.0014251681 0.003093726 0.0012059184 0.0032710074 0.052910581 0.15617296
13370000000 0.07363756 0.066812374 0.0028739898 0.0027818559 0.0031034956 0.0028183211 0.043899149 0.14125806
13380000000 0.07584691 0.069580749 0.0046924204 0.00012220093 0.0045358767 -0.00052749808 0.036758266 0.14595573
13390000000 0.081346914 0.064268515 0.0035776612 -0.0021841074 0.0031972844 -0.0021176899 0.047594775 0.16232555
13400000000 0.083698869 0.061135732 0.0012034634 -0.0027928175 0.0014713481 -0.0025527671 0.078439817 0.15952469
13410000000 0.084548637 0.049599122 0.00095228199 -0.0013015836 0.00084788894 -0.0015319858 0.076001756 0.13145709
13420000000 0.086437881 0.043392684 0.0015403533 -0.0029791703 0.0012265022 -0.0028564415 0.046160612 0.12405519
13430000000 0.080902748 0.034838036 -0.00029469095 -0.0041550621 0.00018749246 -0.0041161068 0.033502962 0.13669908
13440000000 0.076487347 0.033999953 -0.0034284114 -0.0033095614 -0.0034737347 -0.0034864401 0.050922278 0.14601253
13450000000 0.069749422 0.034178406 -0.0035295135 -0.00064380799 -0.0035427215 -0.00052010891 0.070154026 0.13328873
13460000000 0.069085069 0.038142882 -0.0029708727 0.00019371518 -0.0026990536 0.0002724205 0.078412659 0.12562773
13470000000 0.070093885 0.042442895 -0.0030509541 0.00057032937 -0.0031949766 0.00033155765 0.074141949 0.11621532
13480000000 0.076348364 0.041496091 -0.0021768124 0.002346036 -0.0024666984 0.0023856899 0.059791792 0.11163378
13490000000 0.077682205 0.0406918 -0.0020071412 0.0034479434 -0.001723967 0.0035619247 0.042015277 0.11882309
13500000000 0.083508261 0.028232383 2.6891939e-05 0.0031914944 -3.700261e-05 0.0028022318 0.0504511 0.12269641
13510000000 0.077910803 0.017290063 0.00055135635 0.0036125458 3.5744044e-05 0.0040777833 0.059815932 0.12027684
13520000000 0.069545761 0.0082401913 0.0028150836 0.0024614565 0.0030444907 0.0028522457 0.073581859 0.11188462
13530000000 0.058383889 0.0082121473 0.0034088746 0.0011895151 0.0035328518 0.0009178872 0.069319844 0.097339675
13540000000 0.053101737 0.011970019 0.0030458993 0.00057538319 0.0028041466 0.00049427728 0.057136692 0.099454753
13550000000 0.050517283 0.020100985 0.0032004374 -0.00064804102 0.0032808592 -0.0004840527 0.047654118 0.098759398
13560000000 0.05707778 0.027228439 0.0034226603 -0.0015358981 0.0036548767 -0.0015172248 0.04226828 0.10573243
13570000000 0.065294884 0.028562449 0.001903908 -0.0042182999 0.0021647247 -0.0042324397 0.058886468 0.10817951
13580000000 0.070832886 0.023018247 -0.00049085822 -0.0040663942 -0.00058892625 -0.0042577065 0.069638222 0.095167033
13590000000 0.070427321 0.013513686 -0.0016517182 -0.0034487708 -0.002125775 -0.0034177189 0.065272883 0.084283568
13600000000 0.060982339 0.0024156692 -0.0017873456 -0.0021437493 -0.0016742853 -0.0022016368 0.04694989 0.085621931
13610000000 0.047787707 0.0013134237 -0.0028562252 -0.0016772491 -0.0030014939 -0.0017929294 0.039577421 0.099146768
13620000000 0.038738459 0.003583435 -0.0036874644 -0.0012068776 -0.0038450174 -0.0010840117 0.047483075 0.10165283
13630000000 0.028622791 0.011697548 -0.0043785181 0.0014838582 -0.0047312374 0.0014800291 0.047856189 0.095710948
13640000000 0.032760289 0.022181684 -0.0032802566 0.0032537915 -0.00313506 0.0036985874 0.056086734 0.09173508
13650000000 0.042109646 0.023297356 -0.0012530031 0.004258832 -0.00069163524 0.0042878254 0.053210437 0.079975896
13660000000 0.051556922 0.019251661 -9.0252186e-05 0.0035979787 -0.00029133834 0.0032554707 0.04418622 0.079849578
13670000000 0.055940449 0.012677502 0.001810963 0.0037597097 0.0016356418 0.0039422926 0.039500047 0.084712043
13680000000 0.057602413 0.0041526742 0.0020834228 0.0027112928 0.0027287179 0.0027904725 0.041735061 0.088983819
13690000000 0.047087237 0.00036633015 0.0041625733 0.001951339 0.0041085896 0.0014826815 0.050316222 0.093443587
13700000000 0.040217485 0.0024633203 0.0045548091 0.0004032125 0.0042331638 7.7177887e-05 0.057924811 0.087608539
13710000000 0.031881928 0.01036265 0.0040319264 -0.0027432924 0.0036230921 -0.002539658 0.054346345 0.083207883
13720000000 0.030797351 0.018066633 0.0022594749 -0.0035827216 0.002268939 -0.003428854 0.043866616 0.07997077
13730000000 0.031068686 0.025030827 0.00038376293 -0.0033027909 0.00040231805 -0.0035708006 0.03885676 0.090337873
13740000000 0.038564526 0.026819428 0.00046543975 -0.0036993744 0.00024273247 -0.0036455535 0.051191173 0.087489709
13750000000 0.044462219 0.023315074 -0.0020961845 -0.0042178906 -0.0023196938 -0.0039502219 0.054005694 0.083108999
13760000000 0.048756182 0.014236514 -0.0041926345 -0.0019578328 -0.0035236641 -0.0017422545 0.054888867 0.079446137
13770000000 0.047285162 0.0035808459 -0.0028409804 -0.00028133846 -0.0030475745 -0.0010901461 0.047983296 0.082082808
13780000000 0.042028103 -0.0016670711 -0.0039825393 -8.4727304e-05 -0.0043239659 0.0006251568 0.047475345 0.08960852
13790000000 0.038413029 -0.00039036339 -0.0036914435 0.0022916137 -0.0031811027 0.0023632327 0.054947391 0.086200058
13800000000 0.03413089 0.0010836248 -0.0023021167 0.0035955159 -0.0021310379 0.0032403888 0.059233192 0.074010007
13810000000 0.03283583 0.010265606 -0.0006269943 0.0041888366 -0.0013061254 0.0044069719 0.055265471 0.064963728
13820000000 0.038337026 0.016059987 0.0015769417 0.0030919015 0.0017588965 0.0035427492 0.049109764 0.073952422
13830000000 0.04447737 0.019217892 0.0016411925 0.002239828 0.0021261459 0.0021639585 0.056410413 0.090442099
13840000000 0.051261678 0.01449052 0.0020408779 0.0016432957 0.0018439901 0.0011773505 0.074186981 0.086437166
13850000000 0.051913723 0.0063440474 0.0033837529 0.00163493 0.0028582464 0.0020360616 0.071726784 0.061574243
13860000000 0.051413476 -0.0031844811 0.0040470255 2.7176546e-05 0.0044025835 0.00038815744 0.051722594 0.050397191
13870000000 0.043329574 -0.01360853 0.0038705636 -0.0030655086 0.0041706096 -0.0031190536 0.043346599 0.063301325
13880000000 0.032669943 -0.015240661 0.0012855842 -0.002888324 0.0013097634 -0.0033916698 0.059759878 0.07639835
13890000000 0.029325033 -0.010162557 0.00010181731 -0.0030669714 -0.00067718996 -0.002821615 0.078318961 0.070803538
13900000000 0.02976935 -0.0066747973 0.00026064517 -0.0027977149 0.00060505519 -0.0021496662 0.075502567 0.054313812
13910000000 0.033665337 -0.00073118601 -0.0016554325 -0.0031511365 -0.00093595462 -0.0034029388 0.061387073 0.048715003
13920000000 0.044198018 -0.001408061 -0.0023527243 -0.0028997129 -0.0032793372 -0.0034564738 0.061092801 0.049955588
13930000000 0.050114356 -0.0066547398 -0.0044831317 -0.0010940684 -0.0046561901 -0.0004035852 0.061136488 0.044208065
13940000000 0.049698934 -0.017829647 -0.0043279184 0.0013388621 -0.0038298897 0.0013057298 0.065053746 0.044905324
13950000000 0.042323224 -0.025095638 -0.0015916929 0.0020876853 -0.0018068476 0.0017422021 0.065478191 0.048205029
13960000000 0.02932517 -0.031389385 -0.0022731989 0.0018127442 -0.0024912911 0.0022261729 0.074504107 0.048438877
13970000000 0.014199788 -0.027239537 -0.0019346086 0.0038218466 -0.001245218 0.003710299 0.075170644 0.036162335
13980000000 0.011214728 -0.021344509 0.0013462078 0.0045051528 0.00073404284 0.004360036 0.060580574 0.025302859
13990000000 0.012286644 -0.01877469 0.0019656538 0.0025828439 0.0023953696 0.0030822703 0.051570795 0.029069535
14000000000 0.015920473 -0.018732773 0.0030800016 0.0023500803 0.0033111991 0.0019250989 0.052443653 0.033947457
14010000000 0.024173962 -0.024147065 0.0037216027 0.00080012705 0.0034099461 0.00072208198 0.059850067 0.037581626
14020000000 0.026303206 -0.035746895 0.0040080859 -0.0008939316 0.0042539062 -0.00072446279 0.069995716 0.02859755
14030000000 0.024068976 -0.042307317 0.0025090268 -0.0017247478 0.0024433804 -0.0021954731 0.061988816 0.0107425
14040000000 0.017165929 -0.047138572 0.001902052 -0.0034525711 0.0015052877 -0.0033761556 0.044155762 0.0065734796
14050000000 0.0064873667 -0.044890814 0.00060276559 -0.0030815229 0.00077571935 -0.0033585702 0.03723491 0.014945055
14060000000 -0.0013414361 -0.03497868 -0.00053472794 -0.0037150302 -0.0008522541 -0.0036050486 0.04134997 0.022558644
14070000000 -0.0032123628 -0.02655871 -0.0023193248 -0.0033912621 -0.0026214444 -0.0031223227 0.050870918 0.022940459
14080000000 -0.0015011199 -0.020661442 -0.0031988705 -0.0014423446 -0.0027279451 -0.0014610441 0.052706018 0.0079000536
14090000000 -0.0019650459 -0.020283472 -0.0030510214 0.00021060725 -0.0034115843 -0.00016201555 0.039578695 -0.0061763804
14100000000 -0.00030085631 -0.024434078 -0.0029619806 -3.775931e-05 -0.0032345948 0.00051376037 0.024719499 -0.0031418316
14110000000 -0.006050908 -0.032812692 -0.0041409913 0.0014652783 -0.0033932042 0.001685206 0.030111283 0.0058444934
14120000000 -0.011894674 -0.039266165 -0.0017903438 0.0045589861 -0.0017315288 0.0039625638 0.039611019 0.0040814104
14130000000 -0.021376679 -0.041721299 0.0012820389 0.0031374653 0.00092118268 0.0032700957 0.035625074 -0.001184715
14140000000 -0.02801951 -0.038955815 0.00074756588 0.002639943 0.00093168189 0.0029359085 0.027989319 0.0013072394
14150000000 -0.032917514 -0.029667266 0.0010893152 0.002546479 0.0012370513 0.0023636792 0.023397179 0.00051130238
14160000000 -0.026914634 -0.02507914 0.0031185006 0.0024254648 0.002920947 0.0025872942 0.023499116 -0.003989032
14170000000 -0.026091933 -0.019274637 0.0038442737 0.00035703019 0.0037778472 0.00034545443 0.023037419 -0.0069473591
14180000000 -0.021069286 -0.017684782 0.0039002129 -0.0017874925 0.003820634 -0.0018018236 0.01830912 -0.0033803359
14190000000 -0.019125618 -0.016244479 0.0015443407 -0.0020954015 0.0015160756 -0.0021392333 0.017842934 0.0096437912
14200000000 -0.020810505 -0.026183331 0.00093730848 -0.002637736 0.0014627152 -0.0024533959 0.023352433 0.011662735
14210000000 -0.034609508 -0.024698388 0.001706808 -0.0025406659 0.001225849 -0.0028769549 0.014294387 -0.0015812934
14220000000 -0.03983603 -0.025781959 -0.0016053006 -0.0043993234 -0.0015518719 -0.0040262118 -0.0010040319 -0.0038331444
14230000000 -0.049006328 -0.018313689 -0.0022179545 -0.0021189142 -0.0021696056 -0.0022313001 -0.0041421708 -0.00037625548
14240000000 -0.049877148 -0.013132885 -0.0033320077 -0.0011036064 -0.0031655454 -0.0011713436 0.0054223947 0.0074343556
14250000000 -0.045653407 -0.003992537 -0.0029580987 0.00016578462 -0.0033396203 -3.9533246e-05 0.014725756 0.0033620964
14260000000 -0.03859248 -0.0065541146 -0.0026022492 5.948043e-05 -0.002478509 0.0005878763 0.0053941482 -0.0016510549
14270000000 -0.031449992 -0.002830293 -0.0029680212 0.0019514009 -0.0028792378 0.0018192716 -0.0065470338 0.0057996847
14280000000 -0.026663635 -0.013563279 -0.0013122389 0.0035702419 -0.0013353111 0.0037237629 -0.0039185956 0.011679094
14290000000 -0.030412508 -0.013483835 0.00029053766 0.0026714762 0.0004436624 0.0030925095 0.0022045842 0.0032763723
14300000000 -0.039729785 -0.016805999 0.00065732608 0.0023448176 0.00076228561 0.0021812315 0.0032230376 0.00045367726
14310000000 -0.046312712 -0.0049221199 0.00094090798 0.003015918 0.0010159824 0.0025533363 0.00060644292 -0.002768429
14320000000 -0.050893523 -0.0025335029 0.0036594751 0.0021396244 0.0038323267 0.0026871846 -0.0083922502 0.0075803832
14330000000 -0.049533378 0.01057224 0.0034889681 -0.00049203506 0.0037795813 -0.00076249905 -0.0053304029 0.01798765
14340000000 -0.044861153 0.011935897 0.002084882 -0.001419299 0.0018770038 -0.0018365949 -0.0024317058 0.012849566
14350000000 -0.035500705 0.011824137 0.002234872 -0.00085884513 0.0021816809 -0.00093826966 -0.0013934625 0.006448695
14360000000 -0.03303564 0.0022479177 0.0016594012 -0.0027022848 0.0015090504 -0.0028605592 -0.0024453471 0.0017333098
14370000000 -0.029574808 -0.0045660636 0.0011225188 -0.0034949847 0.00065127289 -0.0035624739 -0.0050728251 0.0039936183
14380000000 -0.037243877 -0.012640621 -0.0019703507 -0.0028980749 -0.0018548022 -0.0025927748 -0.0044056308 0.0081058713
14390000000 -0.03937161 -0.0085491594 -0.0019035315 -0.0016039712 -0.0018840601 -0.0018251463 -0.0063486081 0.010914067
14400000000 -0.045708425 -0.0049286764 -0.0018868046 -0.00091901515 -0.0022243513 -0.00091466249 -0.0046347165 0.011960199
14410000000 -0.044989754 0.0054280031 -0.0034189096 -0.001355072 -0.003109063 -0.00065873261 -0.002229834 0.0082648164
14420000000 -0.042983033 0.015311595 -0.0030984031 0.0011566051 -0.002673886 0.0010268549 0.0031631356 0.0028392181
14430000000 -0.032759558 0.01863341 -0.0023071042 0.0020093955 -0.0023526119 0.0019600561 -0.0094462307 -0.00093964051
14440000000 -0.029389361 0.015431009 -0.0010703343 0.0021445749 -0.0009784766 0.0023194044 -0.011468587 0.015731437
14450000000 -0.025922658 0.0055620363 -3.9228471e-05 0.0030500314 -0.00019917125 0.0028289002 -1.3241544e-05 0.013012389
14460000000 -0.035339616 -0.0020053629 0.00096120883 0.0026745501 0.0011322978 0.0026843636 -0.0030353738 -0.00055736874
14470000000 -0.040632442 -0.010337848 0.0022412334 0.0019904701 0.0022586735 0.0017741246 -0.0099784695 -0.0048128041
14480000000 -0.053904973 -0.0085490663 0.0021114671 0.00081095297 0.0017609159 0.0010562234 -0.013808871 0.0015634121
14490000000 -0.055089656 -0.0028589005 0.002391157 0.00076865742 0.0025882041 0.00064937474 -0.0052409777 0.0095462613
14500000000 -0.053320218 0.0050899088 0.0032184767 -0.00063623593 0.0027642285 -0.00050843472 0.002384457 0.0034656215
14510000000 -0.044702962 0.0080370372 0.0019654492 -0.0020384223 0.0021677227 -0.0019720043 -0.0064461031 -0.014654179
14520000000 -0.037244722 0.010293869 0.00071804674 -0.0028403152 0.00093467301 -0.0025872439 -0.028955042 -0.012179902
14530000000 -0.028850488 0.003118501 -0.00029442768 -0.0017754105 -0.00045723678 -0.0021609971 -0.022529386 0.0075587966
14540000000 -0.032373078 -0.0028729308 1.5422236e-05 -0.0020612688 -0.00025356538 -0.0018638147 -0.0019834831 0.0044953469
14550000000 -0.039506059 -0.0072637247 -0.0012133692 -0.0030512712 -0.00082711957 -0.0028236732 0.008309829 -0.0058603124
14560000000 -0.052080251 -0.0064135212 -0.0035483746 -0.0012235981 -0.003190947 -0.0018053309 -0.011171307 -0.025745353
14570000000 -0.061718013 -0.0040345481 -0.0025198741 0.00091662438 -0.002999177 0.00059539074 -0.040995929 -0.012291279
14580000000 -0.067825772 0.007217519 -0.00079022784 0.0007508776 -0.0011999435 0.0010695031 -0.040981539 0.0031192442
14590000000 -0.064435758 0.009529761 -0.0021316865 0.00025341241 -0.0016251387 0.00030977631 -0.025556751 0.0075248564
14600000000 -0.061624717 0.013505762 -0.0018993884 0.0018772386 -0.0022169594 0.0016917516 -0.0050996682 -0.012925861
14610000000 -0.053678893 0.0077223964 -0.00099192816 0.0033804334 -0.0012249195 0.0031198289 -0.019016452 -0.028610017
14620000000 -0.052414324 0.0034820475 0.0014797694 0.0026729018 0.0010991825 0.0033442159 -0.035309907 -0.020946074
14630000000 -0.054552738 -0.0038454961 0.002085912 0.0011603512 0.002559786 0.0016700369 -0.045890886 -0.0079968795
14640000000 -0.058876682 -0.00077894772 0.000678382 0.00068095198 0.0013564986 -0.00027187119 -0.046528298 0.00087741553
14650000000 -0.065579914 -0.0020036558 0.001890493 0.0012368858 0.00091752113 0.0007434506 -0.039823681 -0.004033729
14660000000 -0.074270368 0.0073144119 0.0027645407 0.00034914474 0.0025408105 0.0016774347 -0.03969495 -0.010516129
14670000000 -0.07941667 0.016823892 0.0026822649 -0.0020335515 0.0045810672 -0.0021319375 -0.033802845 -0.011428531
14680000000 -0.075007431 0.026877221 0.00092206296 -0.0022704243 0.00043662626 -0.003810656 -0.038707413 -0.020905633
14690000000 -0.075332165 0.026794208 -0.0002310595 -0.0019987726 -0.0012411717 -0.0021168571 -0.06098232 -0.020908717
14700000000 -0.071872242 0.030227823 0.00038897959 -0.0017231395 6.9325091e-05 -0.00037093062 -0.074073516 -0.0019621272
14710000000 -0.069756046 0.021797618 -0.00072775478 -0.0022944894 0.00035322455 -0.0024144219 -0.06875208 0.011183366
14720000000 -0.072619103 0.018426901 -0.0012157444 -0.0021693108 -0.001855433 -0.0033227724 -0.049009375 0.014053654
14730000000 -0.076223232 0.014256218 -0.0028533065 -0.0010071332 -0.003438171 -5.8141653e-05 -0.033316053 -0.007212813
14740000000 -0.082189865 0.017794836 -0.0026078681 0.0002949544 -0.0023092641 0.00054623745 -0.051432088 -0.031203261
14750000000 -0.088599756 0.025935337 -0.0024695869 0.0016274124 -0.0023463741 0.0019196514 -0.091399632 -0.016654678
14760000000 -0.083406806 0.03983555 -0.0016133676 0.0020977582 -0.001062736 0.0020495923 -0.095579624 0.020185631
14770000000 -0.080314763 0.046845306 -0.00014184571 0.0016955433 -1.595472e-05 0.0014832413 -0.069306016 0.037645761
14780000000 -0.071026079 0.054776382 -0.00059905043 0.0022253655 -0.00049908756 0.0020138489 -0.043598086 0.024523523
14790000000 -0.066479482 0.052263062 0.00097581092 0.002712568 0.0006549161 0.0025724526 -0.04585962 -0.0056477878
14800000000 -0.066082388 0.049823612 0.0022486441 0.0019981414 0.0021994521 0.0025068652 -0.076597214 -0.011963598
14810000000 -0.073360592 0.044064708 0.002153872 0.00054101442 0.0032515039 0.00012357475 -0.10422441 0.0069211908
14820000000 -0.081395254 0.047615595 0.0025505028 -0.00036264223 0.0016977843 -0.001365496 -0.1005064 0.045510363
14830000000 -0.08522208 0.051221125 0.002042752 -0.0011261867 0.0011313432 -0.00012012143 -0.065681398 0.048764765
14840000000 -0.085725188 0.058562942 0.0014099395 -0.0018314488 0.0020238729 -0.0011721376 -0.047795765 0.027180202
14850000000 -0.078127712 0.06604813 0.0017137456 -0.002379226 0.001815067 -0.0028410528 -0.055797018 0.0068338155
14860000000 -0.067484908 0.067926332 -0.00015226007 -0.0025355273 -4.8194837e-05 -0.0030033321 -0.081571132 0.013285232
14870000000 -0.057577241 0.066389725 -0.0016177422 -0.0023991256 -0.0021264513 -0.0020945356 -0.091359563 0.036176316
14880000000 -0.050132338 0.064417146 -0.0020590636 -0.001534156 -0.0016153045 -0.00073453161 -0.088457361 0.054622158
14890000000 -0.04991189 0.059704494 -0.0020583395 -0.00030522782 -0.00099575205 -0.00072682678 -0.067189351 0.057435125
14900000000 -0.05176203 0.0638263 -0.0018135568 -0.00064428995 -0.0025304446 -0.0014378305 -0.05489552 0.042407278
14910000000 -0.05432209 0.067371644 -0.0029669777 0.00054318068 -0.0037341837 0.00093316019 -0.056914486 0.033459023
14920000000 -0.058699645 0.073854588 -0.0024566071 0.0029726056 -0.0020238461 0.0035427851 -0.065484613 0.032572329
14930000000 -0.055628061 0.080952592 -4.4550165e-05 0.0025630263 0.00084922527 0.0025249976 -0.078275874 0.047192082
14940000000 -0.050192647 0.083306566 0.001013541 0.0015520625 0.00025976804 0.00051121961 -0.077631019 0.057627905
14950000000 -0.04465678 0.08018107 -0.00025484979 0.0016797975 -0.0010273299 0.0026139878 -0.07133235 0.060958736
14960000000 -0.041375119 0.07553333 0.0012553261 0.0026517166 0.0021083788 0.0029619811 -0.0538431 0.059229154
14970000000 -0.036582708 0.068413876 0.0036580975 0.0011511762 0.0033431498 0.00082441588 -0.037972301 0.04326158
14980000000 -0.036874942 0.061774492 0.0025800564 -0.00096534559 0.0028181919 -0.00056017307 -0.049701188 0.032188501
14990000000 -0.03493619 0.057799414 0.001223346 -0.00078145042 0.0019336715 -0.0011168539 -0.066591881 0.045981154
15000000000 -0.038307659 0.058521174 0.0022582724 -0.0012822073 0.0016131047 -0.0013648958 -0.069512449 0.065745965
15010000000 -0.03476024 0.063565835 0.0015689295 -0.0030734211 0.0015182309 -0.0027587919 -0.055468917 0.071242578
15020000000 -0.032178923 0.067073599 -0.00084327115 -0.0032731076 -0.00014080526 -0.0031075347 -0.042368907 0.058661439
15030000000 -0.02621486 0.068647601 -0.0013013654 -0.0011925254 -0.001838041 -0.0019691812 -0.037478399 0.041608926
15040000000 -0.023206482 0.069168456 -0.001010294 -0.0018019571 -0.0015724889 -0.0014575585 -0.048114967 0.036677632
15050000000 -0.020012908 0.064030871 -0.0021633846 -0.0014594807 -0.0021761341 -0.0011958518 -0.057384439 0.048664808
15060000000 -0.021161789 0.060534619 -0.0032141027 -0.0009533327 -0.0032367264 -0.00086079998 -0.056961626 0.059005179
15070000000 -0.023756279 0.049253453 -0.0032628546 0.0017271864 -0.0033319851 0.0019665502 -0.052627817 0.057106063
15080000000 -0.035054117 0.048552144 -0.0018410406 0.003235817 -0.0013490587 0.0029991916 -0.049673915 0.051669549
15090000000 -0.036957446 0.049438883 0.0007358318 0.0016522143 0.0004227137 0.0016588444 -0.040913001 0.044191968
15100000000 -0.037971601 0.052846726 -0.0011521217 0.0016924056 -0.0010260423 0.002692488 -0.038077682 0.036642462
15110000000 -0.033351671 0.053222887 -0.00011550478 0.0035069615 0.00096513267 0.0027652837 -0.043734916 0.034510389
15120000000 -0.029415851 0.054001 0.0035880224 0.0032859028 0.0029461121 0.0024906439 -0.057305977 0.04150426
15130000000 -0.02091774 0.051544484 0.0037502893 -0.0005082346 0.0030637297 -0.00021838251 -0.060001578 0.05750208
15140000000 -0.02042751 0.045682013 0.001349428 -0.0012152124 0.0018490161 -0.00083926012 -0.049581107 0.059505694
15150000000 -0.02285582 0.038311586 0.0015530281 1.2132165e-05 0.0018640702 -0.00067935948 -0.043128386 0.050338309
15160000000 -0.035033293 0.039971579 0.0030478032 -0.0015133491 0.0021657734 -0.0016060973 -0.042932149 0.035541922
15170000000 -0.040101722 0.042937461 0.001299134 -0.0039197202 0.00090288464 -0.0037073025 -0.056865923 0.029405167
15180000000 -0.046499424 0.05341858 -0.0012448642 -0.0031683461 -0.00091036659 -0.0025722305 -0.070349604 0.045705535
15190000000 -0.041019354 0.058496013 -0.0020637787 -0.0014775801 -0.0015288192 -0.0014655652 -0.065186583 0.053573281
15200000000 -0.039576296 0.060516577 -0.0013288725 -0.00096155063 -0.0013853943 -0.0014416155 -0.06224579 0.055409916
15210000000 -0.032246321 0.056648441 -0.001838791 -0.0010550832 -0.0020316257 -0.0012189313 -0.052202232 0.054165062
15220000000 -0.029349135 0.051704865 -0.00429253 -0.00099662633 -0.0044575278 -0.00028659962 -0.051008098 0.040526573
15230000000 -0.031572036 0.041634683 -0.0028870574 0.0033393316 -0.0018061227 0.0033010959 -0.059937574 0.041884348
15240000000 -0.039545387 0.040910132 0.00020364241 0.0031311265 -9.9791156e-05 0.0022897997 -0.065882117 0.045471378
15250000000 -0.045791376 0.046555106 0.00018647518 0.00080714456 -0.0008396834 0.001106672 -0.077645995 0.053255014
15260000000 -0.046829663 0.056120917 -0.00064017973 0.0025479819 -3.7671598e-05 0.0030288436 -0.07610818 0.076384924
15270000000 -0.042119559 0.063603029 0.0013208722 0.0023008054 0.0017800496 0.0018411606 -0.049532812 0.076735854
15280000000 -0.035831243 0.070035532 0.0027901507 0.0014459708 0.0027359019 0.0012066551 -0.045570664 0.055237841
15290000000 -0.028298743 0.070733748 0.0024397033 4.5018387e-05 0.0019936026 0.00025784288 -0.064623669 0.04941754
15300000000 -0.024052735 0.06522952 0.0020425222 -0.0012131967 0.0025161451 -0.0008508336 -0.083452068 0.058879543
15310000000 -0.023732375 0.059964653 0.0018174183 -0.001167167 0.0018070468 -0.0017051471 -0.088443592 0.080019131
15320000000 -0.029837655 0.053788155 0.00063749036 -0.0025379057 -9.8274293e-05 -0.002665461 -0.065236211 0.089801677
15330000000 -0.035952888 0.057729527 -1.8201419e-05 -0.0017406646 0.0001111843 -0.0010453222 -0.04803801 0.076687589
15340000000 -0.036255527 0.061033737 -0.0005576493 -0.00099564809 2.3928471e-05 -0.0019624191 -0.044926792 0.066067636
15350000000 -0.033531599 0.066566058 0.00010289822 -0.0020060989 -0.00080439111 -0.0020006348 -0.056483306 0.063244551
15360000000 -0.029231152 0.069107927 -0.0020844098 -0.0017262601 -0.0021763633 -0.0012522489 -0.072156571 0.079812288
15370000000 -0.019164966 0.072290286 -0.0029375884 -0.00020642509 -0.0024341964 -5.1923213e-05 -0.073188692 0.098859265
15380000000 -0.011803286 0.068653993 -0.0020287321 0.0017618191 -0.0019513057 0.00146492 -0.054930389 0.10547069
15390000000 -0.0055125766 0.063583151 -0.00029136217 0.0012851162 -0.00059945241 0.0010704611 -0.039293602 0.089284785
15400000000 -0.0066054342 0.05707841 -0.00028162973 -5.3692627e-05 -0.00057402335 0.00026920493 -0.042260587 0.071852073
15410000000 -0.0071215359 0.053966381 -0.0018381445 0.0019142204 -0.0013761497 0.0023242696 -0.059323251 0.078011088
15420000000 -0.01198896 0.052533932 0.00048608484 0.0029639953 0.00084140169 0.0028592937 -0.062087238 0.10090183
15430000000 -0.011464179 0.05468265 0.0024461404 0.0018596188 0.002007236 0.0012282275 -0.042867638 0.10936237
15440000000 -0.014094509 0.055529829 0.0014731674 -0.00058994314 0.001371942 -0.00020913035 -0.03588089 0.091706775
15450000000 -0.0086272918 0.060160037 0.00070796988 -0.00016589585 0.00067023246 0.00040041219 -0.038916331 0.082526535
15460000000 -0.0011208868 0.05845191 0.0013169952 0.00071152649 0.0023352148 0.00029699414 -0.04069031 0.089773089
15470000000 0.0070055053 0.054793298 0.0024162426 -0.0010584339 0.0017625715 -0.0017499819 -0.027953699 0.094987616
15480000000 0.011348804 0.047074862 -6.765686e-05 -0.0019824852 -0.00015234716 -0.0013275676 -0.023602601 0.096248917
15490000000 0.01528272 0.038520604 0.00015813718 -0.00080601149 0.00048414987 -0.00082700979 -0.031275488 0.094653174
15500000000 0.011393674 0.029572781 -2.9689108e-05 -0.0014698757 0.00017991645 -0.0015449617 -0.032941353 0.10606664
15510000000 0.0063310843 0.024860989 -0.00047868019 -0.0015266822 -0.00060799444 -0.0019834815 -0.020074204 0.10652955
15520000000 -0.0031812964 0.026809879 -0.0014149214 -0.00039287694 -0.0021832953 -0.00031770766 -0.007759247 0.09224622
15530000000 -0.0026060659 0.03179533 -0.001157287 -0.0004419192 -0.0011389569 0.00023629772 -0.017392505 0.077204406
15540000000 -0.0028155842 0.035138294 -0.0010329058 0.00064428151 -0.00037476668 0.00081881339 -0.034168474 0.088105835
15550000000 0.0067533483 0.035429418 -0.0010344114 -8.0724945e-05 -0.0013127573 -0.001034215 -0.026633346 0.10751397
15560000000 0.012892762 0.030771371 -0.0011041686 0.00044020874 -0.0018533691 0.00098038395 -0.0053531267 0.10699125
15570000000 0.02123069 0.016851913 -0.0015273944 0.0021301028 -0.001052164 0.0032713325 0.0059435889 0.082507394
15580000000 0.015043363 0.0021537701 0.0012554511 0.0015702629 0.0022631355 0.0006747219 -0.0076641422 0.065855294
15590000000 0.0076876553 -0.0077851932 0.0013945847 0.00065319805 0.00068145484 -0.00029211096 -0.025345581 0.078074716
15600000000 -0.0049593556 -0.0070205913 -0.00042941805 -0.00050781044 -0.0011882243 0.00040452182 -0.020825358 0.099340446
15610000000 -0.0069216983 -0.00065347296 0.00035076766 0.0012130968 0.00039863578 0.0015127755 -0.00022136071 0.10555695
15620000000 -0.0087258611 0.0055388245 0.001534614 0.0012480287 0.0018737838 0.00083566527 0.017026749 0.082751185
15630000000 -7.7230623e-05 0.0052946433 0.0024325105 -0.0010331395 0.0021830683 -0.0013215281 0.00012013502 0.055804443
15640000000 0.0016184851 0.0043132305 3.8385624e-06 -0.0014418522 -0.00014256022 -0.001209959 -0.023042971 0.063853651
15650000000 0.0084671127 -0.0070142434 0.00014779923 -0.00077059824 0.00036787649 -0.00022048631 -0.022079965 0.088393174
15660000000 0.00038769655 -0.015746063 0.00043043907 -0.00020504942 0.00058784458 -6.1650702e-05 -7.2341412e-05 0.1001057
15670000000 -0.0082857264 -0.025311429 0.0004731064 -0.001300949 0.00045250333 -0.0019118438 0.016123587 0.075250626
15680000000 -0.018416718 -0.024336141 -0.00024322592 -0.0019739212 -0.00052931643 -0.0018078289 0.0021227442 0.050583243
15690000000 -0.026655216 -0.027882077 -0.0018414985 -0.0012340265 -0.0016338866 -0.00076943461 -0.020468134 0.053728942
15700000000 -0.030437678 -0.018443245 -0.0016745219 0.00076816289 -0.0011593343 0.00046925776 -0.019435532 0.075365268
15710000000 -0.028498854 -0.02054403 -0.0003103207 0.00064696046 -0.00079459348 7.015359e-05 0.0062421337 0.086817935
15720000000 -0.025220579 -0.017908832 -0.00038732332 -0.00012186293 -0.00066678505 0.00030017697 0.014820175 0.069156103
15730000000 -0.022070266 -0.024394989 -0.0010590435 9.9857309e-05 -0.00068049855 0.00034667025 -0.0040643923 0.05555721
15740000000 -0.018719433 -0.027280942 -0.0017187058 0.0010082506 -0.0017454471 0.00096800399 -0.024836648 0.06123317
15750000000 -0.025369124 -0.039261911 0.00014198713 0.002350532 0.00029777296 0.0021749146 -0.0203465 0.076883815
15760000000 -0.032571774 -0.036626112 0.0016829385 0.0012202609 0.0011866883 0.001337974 0.0047171507 0.075346284
15770000000 -0.041172113 -0.040887982 0.00094551337 -0.00046501242 0.0012389985 -8.0256665e-05 0.0083792899 0.054445717
15780000000 -0.047362626 -0.033962891 -0.00065162301 0.00063758862 -0.00028816308 0.00046758042 -0.012920607 0.053363189
15790000000 -0.056818776 -0.032696217 0.0011313768 0.0017180198 0.0011194618 0.0017690321 -0.026451223 0.070561968
15800000000 -0.054668367 -0.024220608 0.0028110554 0.0004725465 0.0027122144 0.00010354101 -0.021375507 0.081968337
15810000000 -0.055452891 -0.027474534 0.0018919953 -0.0024130787 0.0012779091 -0.0021303024 -0.0016234452 0.074628256
15820000000 -0.049974818 -0.028386828 -0.00067760481 -0.0021820287 -0.00033575535 -0.0017554518 0.0038386332 0.050650693
15830000000 -0.051966392 -0.038730279 -0.00082974014 0.00038835136 -0.00046638481 -0.00046121413 -0.012764274 0.043572176
15840000000 -0.052126545 -0.04305315 0.0013572936 -0.00099477358 0.00074224162 -0.0009018681 -0.02507565 0.065141827
15850000000 -0.061290756 -0.051740661 -0.00010645133 -0.0021184902 -0.00037524867 -0.0019339676 -0.02305162 0.085027277
15860000000 -0.06617289 -0.049705815 -0.0022654592 -0.001945044 -0.0019538265 -0.0017175038 -0.0093167871 0.093150504
15870000000 -0.077271007 -0.04835039 -0.0022416054 0.0005304988 -0.0022592857 0.00049618911 0.0061379373 0.073509961
15880000000 -0.07544747 -0.034787592 -0.00057766779 0.00090258982 -0.00063793833 0.00094048475 -0.001152331 0.049914919
15890000000 -0.073564492 -0.029566286 -0.00051541254 0.00010524856 -0.00057037093 0.0002611267 -0.024613721 0.049322866
15900000000 -0.065930806 -0.02824232 -0.0018196302 0.00067017734 -0.0016657701 0.00082949083 -0.030753104 0.07785967
15910000000 -0.066515945 -0.033518694 -0.00065685646 0.0020562971 -0.0004345749 0.002119516 -0.01184414 0.094781965
15920000000 -0.064962804 -0.041137371 0.00072246918 0.0020515278 0.00080213771 0.0016131387 0.00273709 0.086964563
15930000000 -0.075785451 -0.052247927 0.00094286801 0.00056300912 0.0006674364 0.00083182135 0.0067376308 0.073303699
15940000000 -0.085955404 -0.055012867 0.00042980077 0.0013079415 0.00079011207 0.0011379758 0.00042651594 0.059115559
15950000000 -0.10148883 -0.055245042 0.0019837753 0.00030095284 0.0019682629 0.0003187705 -0.017721942 0.065892383
15960000000 -0.10388538 -0.045474332 0.0018110576 0.0002060578 0.0019153989 -0.00020885211 -0.018200999 0.083109766
15970000000 -0.10234252 -0.041138548 0.0015295781 -0.0010114734 0.0011338514 -0.00082258158 -0.011044849 0.094239593
15980000000 -0.091046557 -0.038725369 0.0010551756 -0.0015303363 0.0012082296 -0.0014085344 0.0016630329 0.094524696
15990000000 -0.087143354 -0.046030082 9.266159e-05 -0.0011853117 -5.0861563e-05 -0.0012032564 0.014893696 0.076999575
16000000000 -0.080957554 -0.052368056 8.2488114e-05 -0.0018210342 0.00032757415 -0.0018906096 0.0092846174 0.062011845
16010000000 -0.089363232 -0.067431062 -0.00047057605 -0.0013464144 -0.00069544872 -0.0013986919 -0.0047278218 0.059439451
16020000000 -0.10174621 -0.070395827 -0.001742197 -0.0011849417 -0.0016987884 -0.0011382672 -0.019474341 0.077400379
16030000000 -0.12052428 -0.068239838 -0.0013801331 -0.00031272077 -0.0015578131 -0.00021182571 -0.009788421 0.09989851
16040000000 -0.1269183 -0.054822057 -0.0017373164 0.00024964745 -0.0015638515 0.00033149333 0.017632747 0.095994487
16050000000 -0.13178243 -0.048410449 -0.0016247389 0.00084170577 -0.0013541654 0.00059865072 0.031703223 0.068399273
16060000000 -0.12499993 -0.043578122 -0.00074610987 0.0015088139 -0.00081464404 0.0013968867 0.022603188 0.048779141
16070000000 -0.12099562 -0.051552951 -0.0003244839 0.00095410831 -0.00069877983 0.0013222393 -0.00094156712 0.055725478
16080000000 -0.11862984 -0.063485838 -0.00027137168 0.00161884 5.2370597e-06 0.0017942489 -0.0053810365 0.085294902
16090000000 -0.12931508 -0.078131273 0.00039187225 0.0017529695 0.00061168382 0.0017531334 0.007899072 0.10087899
16100000000 -0.14024983 -0.085368715 0.0016549758 0.0014849666 0.001365819 0.0013009111 0.027249172 0.08686731
16110000000 -0.1591159 -0.083509125 0.0022340757 0.00041067484 0.0022264272 0.00040993711 0.027426956 0.062623166
16120000000 -0.16463357 -0.073311001 0.0013289128 -0.00097274681 0.0016392395 -0.00036871128 0.018444324 0.04718389
16130000000 -0.16981196 -0.06270618 0.0010017361 -0.0003066127 0.001516075 -0.00073895941 0.0058852192 0.051853381
16140000000 -0.16541627 -0.056917146 0.001455806 -0.00049394392 0.0014011532 -0.0010101713 0.0046827644 0.073395319
16150000000 -0.16495106 -0.056654673 0.0011001728 -0.0019750879 0.00061939191 -0.0017385482 0.015986854 0.083414182
16160000000 -0.16415559 -0.063334368 -0.00014664032 -0.0018845487 8.4904659e-06 -0.0019165016 0.026850963 0.074235454
16170000000 -0.17530446 -0.071774393 -0.00096611446 -0.0016702678 -0.00071747799 -0.0017577786 0.031465542 0.05401399
16180000000 -0.19071952 -0.07944639 -0.00089366629 -0.0009903165 -0.0011590637 -0.0013524777 0.022078015 0.036426611
16190000000 -0.20881662 -0.076863877 -0.0014959674 -0.00085225177 -0.0017687476 -0.00074576115 0.011424695 0.047258157
16200000000 -0.21945713 -0.073800623 -0.0025527643 -0.00067362969 -0.0024750051 0.00015478139 0.013300199 0.065365389
16210000000 -0.22839883 -0.065782905 -0.0019521657 0.001178581 -0.0015515676 0.00087571866 0.020169795 0.075542778
16220000000 -0.2307037 -0.06042137 -0.00073273748 0.0016498294 -0.00093696878 0.001493582 0.02372352 0.065997601
16230000000 -0.22799268 -0.05475793 -0.00092353957 0.00079621113 -0.001046767 0.0014081828 0.018521035 0.050221018
16240000000 -0.22765426 -0.057181381 -0.00063709321 0.0023241492 -0.00013862326 0.0024275417 0.010659559 0.040679865
16250000000 -0.23177433 -0.05841846 0.0010157586 0.0025436201 0.0010572209 0.0020508063 0.008638083 0.043628201
16260000000 -0.24105947 -0.060735755 0.0023717545 0.0014102659 0.0019024754 0.0011481303 0.011580227 0.05001463
16270000000 -0.25285155 -0.055934235 0.0014354461 -0.00046624482 0.0014411999 5.2332354e-05 0.0098480564 0.056212336
16280000000 -0.26779148 -0.051913787 0.00063439691 0.0005248278 0.0012183581 2.2259483e-06 0.01404123 0.05286026
16290000000 -0.28156134 -0.043901615 0.0026633197 0.00030645134 0.002305255 3.4668454e-05 0.0073755221 0.042444468
16300000000 -0.29369837 -0.03294244 0.0028762096 -0.0023035794 0.0023503185 -0.001923449 0.0067013148 0.042681601
16310000000 -0.29792771 -0.022581648 7.086806e-05 -0.0032690063 0.00050508359 -0.0027469618 0.010819438 0.043311696
16320000000 -0.30107754 -0.019287027 -0.0014204 -0.0012874859 -0.001289741 -0.0019116013 0.015743524 0.046011861
16330000000 -0.30131879 -0.016023919 -0.00059841858 -0.00085854391 -0.0010605789 -0.00065796089 0.007019477 0.044561289
16340000000 -0.30377409 -0.018132314 -0.00039109553 -0.0014999287 -0.00025034638 -0.0014386491 -0.0084030684 0.048355207
16350000000 -0.30688798 -0.021294847 -0.0021552539 -0.001685838 -0.0016848135 -0.0016254804 -0.011792846 0.05935413
16360000000 -0.32169849 -0.021935098 -0.0035523733 0.00017064769 -0.0035887365 -6.8933063e-05 0.0034469273 0.059167553
16370000000 -0.33423173 -0.010750183 -0.001957661 0.0022137586 -0.0020561037 0.0022300822 0.015320335 0.042332578
16380000000 -0.34530517 0.0029129311 9.8685967e-05 0.0025525291 -5.3134339e-05 0.0025088529 0.0011594552 0.026757058
16390000000 -0.35067773 0.019452512 -0.00046539778 0.00029238069 -0.00044781811 0.00063775782 -0.023546707 0.039675564
16400000000 -0.35483089 0.036486045 -0.00091499119 0.001825443 -0.00047145196 0.0016492323 -0.022619477 0.062158924
16410000000 -0.35017836 0.045328364 0.00040705001 0.0034728865 0.00013948046 0.0029527773 -0.0030146874 0.065385342
16420000000 -0.35507029 0.048392609 0.0033650729 0.0012046127 0.0027156116 0.0019419472 0.010343464 0.050584827
16430000000 -0.35581347 0.045316175 0.0017927049 -0.00053640018 0.002412522 -0.00029957463 0.0061865645 0.038146283
16440000000 -0.37144309 0.041609153 0.00072109967 -0.00034184803 0.00089124381 -0.0011717485 -0.0084815267 0.041966949
16450000000 -0.38503671 0.046318952 0.0023460079 -0.00015473978 0.0018153695 -1.4858611e-05 -0.023278601 0.058524217
16460000000 -0.39958116 0.058195084 0.0014926377 -0.0018418221 0.0014725907 -0.0013591945 -0.022573754 0.076669104
16470000000 -0.40317693 0.072743982 0.00052320759 -0.0028643543 0.001067335 -0.0030280403 -0.0034573153 0.073073052
16480000000 -0.40529773 0.09158276 -0.00033065333 -0.0017032293 -0.00079600245 -0.0021671145 0.0027448889 0.053210575
16490000000 -0.39717513 0.10395409 -0.0014779724 -0.0017872485 -0.0020128703 -0.001434552 -0.0066248802 0.045017716
16500000000 -0.39283437 0.11119507 -0.0016087285 -0.00071073254 -0.00111057 -0.000628112 -0.015352691 0.056574441
16510000000 -0.39255837 0.11159988 -0.0015261862 -0.00036344476 -0.0015842237 -0.00090094859 -0.017872231 0.068939343
16520000000 -0.40368435 0.11499372 -0.0020029268 -0.00044111646 -0.0028187211 -0.00030370796 -0.012654099 0.076796003
16530000000 -0.41721135 0.12089358 -0.0024941028 0.00090434658 -0.0022724923 0.0017562544 -0.0036220215 0.06499055
16540000000 -0.43283668 0.13531631 -0.0012774681 0.0026838661 -0.00077219505 0.0025696906 -0.0017107949 0.059262443
16550000000 -0.44062173 0.1512059 0.00048547494 0.0026593595 0.00032270967 0.0024090544 0.0039965753 0.057642482
16560000000 -0.44459915 0.16683619 0.00091938436 0.0012495867 0.00097176991 0.0013817577 -0.0012124274 0.064555719
16570000000 -0.44045717 0.17744321 0.00055408402 0.0010754518 0.00081532239 0.0013987063 -0.004189238 0.078736521
16580000000 -0.43879929 0.18466964 0.0013611121 0.0017000658 0.0015503569 0.001345573 -0.0042521302 0.083082229
16590000000 -0.436331 0.18719733 0.0027964332 0.00076749036 0.0026224288 0.00062727032 0.00099380687 0.078947023
16600000000 -0.44247961 0.19374451 0.0024321729 -0.0013315039 0.0023063908 -0.0012257458 0.0013589002 0.062156729
16610000000 -0.44781294 0.2034111 0.0012036989 -0.0019259891 0.0011701295 -0.0018584207 -0.0021225587 0.061155364
16620000000 -0.45603943 0.21886651 7.1198214e-05 -0.0014831077 0.00054549042 -0.0018305972 -0.0038640834 0.070311278
16630000000 -0.46074009 0.23565474 0.00023693714 -0.0012241461 -0.00036173197 -0.0014308278 0.0054806229 0.085261524
16640000000 -0.46704024 0.25603816 4.2856118e-05 -0.002436657 -0.00041575404 -0.0017929454 0.019286793 0.075802058
16650000000 -0.46644455 0.27203253 -0.0019442482 -0.0020317782 -0.0013608901 -0.0015976353 0.013663952 0.057720449
16660000000 -0.46991163 0.28607288 -0.0029660424 0.00026636542 -0.0025737896 -0.00034227577 -0.0022827098 0.052561257
16670000000 -0.47124502 0.29631981 -0.0012342377 0.00047962877 -0.0019713403 0.00032274149 -0.0041682869 0.069486909
16680000000 -0.4751097 0.30634865 -0.0012192924 0.00068300014 -0.0012118124 0.0013800397 0.014475189 0.086947918
16690000000 -0.47867286 0.31516966 -0.0015210944 0.0012043603 -0.00070923491 0.0012394299 0.035939578 0.077823661
16700000000 -0.48424953 0.32877433 -0.00016189279 0.0020487867 -0.00023625998 0.0012227471 0.027826516 0.056175359
16710000000 -0.4847849 0.34337145 0.00051446678 0.0016969417 -0.0002031019 0.0013869382 0.0039204494 0.051289663
16720000000 -0.48767546 0.36191493 0.00074551295 0.0010837351 0.00073243305 0.0015483745 -0.0081688249 0.064252652
16730000000 -0.48432964 0.38339511 0.0011831134 0.00094519614 0.0015980988 0.00083581428 0.00083051994 0.08296492
16740000000 -0.48000076 0.40414929 0.0013688901 0.00024184847 0.0015429003 -6.673421e-05 0.026715972 0.079086922
16750000000 -0.47632185 0.42080846 0.0016822397 -0.00044651481 0.0012305803 -0.00053148391 0.028815769 0.055881567
16760000000 -0.47422418 0.43952435 0.0010978491 -0.00076859683 0.0009262425 -0.0002451113 0.018276826 0.043223396
16770000000 -0.47237751 0.45473278 0.00077478768 -0.0015077431 0.0010712738 -0.0016053563 -0.00085371174 0.03344861
16780000000 -0.47319007 0.47200412 -1.9815925e-05 -0.00083541533 0.00029682723 -0.0010635731 -0.012904757 0.057223748
16790000000 -0.47281793 0.48798591 -0.00017129135 -0.0012496136 -0.00053284329 -0.0013765299 0.0078286212 0.076666862
16800000000 -0.47122252 0.50691187 -0.0006554072 -0.00084849901 -0.00082698726 -0.00072143867 0.028252421 0.069619305
16810000000 -0.46684915 0.52609324 -0.0012164101 -0.00077686261 -0.0010357483 -0.00049242598 0.02799869 0.051203217
16820000000 -0.4562473 0.54757673 -0.00083967065 0.00019452727 -0.00057315006 -0.00037347054 0.01137085 0.033686675
16830000000 -0.44521564 0.56609821 -0.00096013944 0.00041366069 -0.001419242 0.0001854095 -0.009351288 0.032479022
16840000000 -0.43239185 0.58529162 -0.00061010494 -4.3609325e-06 -0.00076570711 0.00039984216 -0.015322258 0.053350858
16850000000 -0.42170402 0.60383022 -0.00080823497 0.0011676605 -0.00049137627 0.0013079781 0.0045304727 0.0729011
16860000000 -0.41008756 0.62169749 -0.00045684949 0.00093771197 -0.00024185923 0.0007350932 0.023460399 0.070541963
16870000000 -0.40385732 0.64105451 0.00057128223 0.0012985126 0.00040224384 0.001219122 0.022610454 0.053117283
16880000000 -0.39520136 0.6628747 0.0006691555 0.00044824713 0.00052900315 0.00078123331 0.0021818252 0.037053593
16890000000 -0.38585865 0.68415427 0.00038437327 0.00024291396 0.00075539394 0.00026123598 -0.022596568 0.036502834
16900000000 -0.37347081 0.70218223 0.00059062394 0.00063009036 0.00060451421 0.00016897282 -0.027282743 0.058179997
16910000000 -0.35983682 0.71943164 0.0012337983 -5.5566779e-05 0.00092354231 -3.9441948e-05 -0.0036504976 0.073663548
16920000000 -0.34360865 0.73199761 0.00093382248 -0.00066466385 0.00093249977 -0.0003748468 0.016633859 0.071282879
16930000000 -0.32865429 0.74595261 0.0003320587 -0.00086710439 0.00050861249 -0.00088350801 0.018419748 0.055297907
16940000000 -0.31090972 0.75930876 0.00032360348 -0.00038749707 7.2923649e-05 -0.00060776051 -0.0029098201 0.039607491
16950000000 -0.29275215 0.77530962 6.9135887e-05 -0.00079424615 1.4674501e-05 -0.00068110845 -0.029840222 0.044789776
16960000000 -0.27319804 0.79183596 -0.00029966145 -0.00087871047 -0.00035412121 -0.00085242582 -0.031628318 0.066580333
16970000000 -0.25169358 0.81105286 -0.00060766644 -0.00010543998 -0.00054511358 -0.00014552126 -0.013566051 0.080278769
16980000000 -0.22860077 0.82689828 -0.00037434656 -0.00030110907 -0.0004828345 -0.00020910845 0.010998253 0.08444494
16990000000 -0.20688802 0.84230715 -0.00044896448 -0.000160868 -0.0004765609 -5.3371841e-05 0.021032143 0.062041622
17000000000 -0.18648821 0.85489357 -0.00099287415 2.4198293e-05 -0.00083135598 4.8295507e-05 -0.0048486399 0.042166978
