!Keysight Technologies,P9374A,MY57211807,A.19.30.04
!Date: Friday, May 01, 2026 14:29:02
!Correction: S11(C  2-Port  ) 
!S21(C  2-Port  ) 
!S12(C  2-Port  ) 
!S22(C  2-Port  ) 
!S2P File: Measurements: S11, S21, S12, S22:
# Hz S  RI   R 50
13000000000 0.047107838 0.098598666 -0.00067380734 0.0030168002 -4.4397078e-05 0.0028740275 -0.01077231 0.19554883
13010000000 0.051086351 0.10682166 0.0016570573 0.0015489713 0.0019530591 0.0010170217 -0.01061482 0.19008303
13020000000 0.050077513 0.098692462 0.0011944856 5.1586947e-05 0.00098846864 -0.00038331724 -0.0093049929 0.18381613
13030000000 0.050711829 0.10076907 0.00034640555 -0.00067182694 -2.7023343e-06 -0.00053993374 -0.011872031 0.17207915
13040000000 0.046410162 0.091133289 -0.00048362749 0.00062219944 -0.00013688573 0.00062989705 -0.025483092 0.1767168
13050000000 0.04454257 0.094328597 0.00063524308 0.0012805822 0.00044700369 0.00088260876 -0.021697585 0.18485294
13060000000 0.040171586 0.085917562 0.0025461761 0.00034604018 0.0019061841 0.00058292231 -0.017639946 0.19042598
13070000000 0.037195805 0.094467647 0.0018451498 -0.0017754782 0.0020614611 -0.00096949749 -0.016851254 0.18679444
13080000000 0.03707929 0.092917316 0.00030139158 -0.0023919954 0.00091402041 -0.0020478161 -0.0065328851 0.18814228
13090000000 0.040640753 0.10112512 -0.0016352155 -0.0020013382 -0.00072114053 -0.0025055232 -0.00031898171 0.18029657
13100000000 0.045716956 0.099399582 -0.0017407164 0.0004294712 -0.0021894863 -0.0010044762 -0.0084403753 0.17056644
13110000000 0.051536374 0.1034112 -0.00045387054 0.00076729653 -0.0014378631 0.00085055991 -0.013229292 0.1829678
13120000000 0.053152502 0.092896849 0.00039932528 -0.0001998417 0.00029820277 0.00056257623 -0.013327481 0.18676876
13130000000 0.050666217 0.094815679 -0.00079974486 -0.00078789872 -0.00019894337 -0.00056399131 -0.015145885 0.18833329
13140000000 0.047443379 0.088551529 -0.0018738242 -0.00011238735 -0.0019072618 -0.00036713423 -0.017368592 0.19486225
13150000000 0.043282717 0.094231427 -0.0016888332 0.0017110553 -0.0021851053 0.0016191313 0.0027501285 0.19273981
13160000000 0.040494423 0.092751935 0.00042585318 0.0028490815 0.0005392062 0.00321816 0.0063791722 0.17598727
13170000000 0.042983294 0.10262978 0.002074864 0.0013680321 0.0023843495 0.0014390764 0.0034310743 0.17755054
13180000000 0.05017186 0.10004664 0.0014740552 -0.00064032176 0.0019365605 -0.0009207768 0.00039394945 0.18120654
13190000000 0.057503782 0.10256791 0.00067730114 -0.00040092494 0.0003415838 -0.00087639503 -0.00073561957 0.17896077
13200000000 0.062960148 0.093274795 0.00028883357 -0.00064264575 9.1005757e-05 -0.00063729857 -0.0088258944 0.18255042
13210000000 0.065607302 0.09220273 0.00075566437 7.1180926e-05 2.1545457e-06 8.9489142e-05 0.0020395145 0.19904283
13220000000 0.062428046 0.084915884 0.0010108949 -0.00039054232 0.00097435678 9.7215438e-05 0.019763 0.19251007
13230000000 0.057894647 0.086366549 0.00066320732 -0.0015244371 0.0014490939 -0.0010936511 0.0230373 0.18017003
13240000000 0.056166165 0.08965838 -0.00063929649 -0.0018606087 -0.00024033285 -0.0020811243 0.025836498 0.17916824
13250000000 0.056989454 0.095006078 -0.0015719369 -0.00057211588 -0.0015688417 -0.0010674142 0.024407076 0.17200619
13260000000 0.061893392 0.09442585 -0.0015410796 -0.00022048305 -0.0018086908 -0.00044831849 0.017451443 0.16868848
13270000000 0.066446416 0.094474554 -0.0012736645 0.00075146195 -0.0014449263 0.00077061448 0.0036741085 0.18444148
13280000000 0.072055019 0.089221455 -0.00021279653 0.001068919 -0.00035795313 0.0010616315 0.018370256 0.19110955
13290000000 0.074459381 0.081827112 0.00028078907 0.00012895821 0.00037529596 0.00013138416 0.033556789 0.187549
13300000000 0.077416882 0.076346479 -0.00081535859 0.00052700716 -0.00072212529 0.00083946646 0.040352657 0.17609365
13310000000 0.072343707 0.071038045 -0.00048776541 0.00086097571 -0.00034423199 0.0011623689 0.053257793 0.16546182
13320000000 0.074072957 0.070280857 0.00027969532 0.0014269785 0.0010282523 0.0015084788 0.051717859 0.15156826
13330000000 0.07206513 0.071735471 0.0011811034 0.0012442606 0.0016217281 0.00053867721 0.037836105 0.14965913
13340000000 0.075969234 0.073024347 0.0022240118 -0.00032992638 0.001692742 -0.0011434805 0.028474621 0.17254925
13350000000 0.074881352 0.072705053 0.00084775436 -0.0015823549 4.3995562e-05 -0.0015116204 0.035334289 0.18024287
13360000000 0.083379775 0.073136598 -0.0001775822 -0.00066955923 -0.00036058799 -0.00016000555 0.045267068 0.18073899
13370000000 0.080779977 0.06545005 -4.0029787e-05 -0.00054794928 0.00026852099 -0.00025192948 0.053166781 0.17016569
13380000000 0.08561638 0.064120896 0.00023377544 -0.000439544 0.00057513046 -0.00063736842 0.071959607 0.14593138
13390000000 0.082160451 0.054003999 0.00045210999 -0.0012157136 0.0006102302 -0.00114166 0.064911835 0.12952061
13400000000 0.08238329 0.051328398 -0.00083177426 -0.0013989962 -0.00097774295 -0.0015288112 0.048275489 0.13054268
13410000000 0.073037565 0.042680018 -0.001673182 -0.00055801647 -0.0017667543 -0.00054208416 0.042333242 0.14832714
13420000000 0.077651404 0.046539381 -0.0012646265 0.0010305367 -0.001515146 0.0010509823 0.037556812 0.15548941
13430000000 0.069896981 0.042271748 -0.00047677045 0.00080688449 -0.00074987701 0.0010208304 0.047463588 0.15744464
13440000000 0.079231925 0.046180129 0.00010761654 0.00071666786 0.00042302665 0.0010909 0.068289056 0.15197217
13450000000 0.075486407 0.04191893 7.7952078e-05 0.00056067115 0.00028728609 0.00052394648 0.082177579 0.12440787
13460000000 0.083722837 0.042334359 0.00016513768 0.00018526835 0.00060768082 -0.00018647502 0.072136745 0.10759655
13470000000 0.079717845 0.031676132 -3.1534903e-05 0.00084066117 -5.3730368e-05 0.00021000511 0.058827899 0.11074476
13480000000 0.081685841 0.02893389 0.00075311144 0.00092042156 8.8617293e-05 0.000828319 0.044905655 0.1202363
13490000000 0.068980478 0.0233378 0.001221322 0.00012260827 0.00079497573 0.00075474061 0.036145728 0.1298068
13500000000 0.069349423 0.022609018 0.0013206336 -0.00041142933 0.0019385496 0.00019516813 0.046980463 0.13897456
13510000000 0.060035445 0.021318318 0.00081451784 -0.0011214998 0.0012670687 -0.0015815012 0.071948491 0.12812471
13520000000 0.062449377 0.025618589 -8.9481327e-06 -0.0015348098 -0.00011538481 -0.0021021264 0.080676906 0.10872276
13530000000 0.061440732 0.021227565 -0.001055597 -0.00052159745 -0.0015613006 -0.00042187638 0.070805751 0.091623813
13540000000 0.067530811 0.023381729 -0.00011596268 -7.1735114e-05 -0.00047569454 0.00051396119 0.058088519 0.091061331
13550000000 0.067043923 0.015249366 -0.00028425336 -0.00044854681 0.00024645112 -0.00018977228 0.034020767 0.092512824
13560000000 0.068265133 0.013529209 -0.00031605628 -0.00049887731 9.1909315e-06 -0.00061135349 0.030231196 0.10902068
13570000000 0.062320486 0.0081416294 -0.0010160548 -0.00051316811 -0.00090846495 -0.00068159751 0.046447996 0.12410996
13580000000 0.056657646 0.012430852 -0.0016933035 0.00030267567 -0.0016441634 -0.00019026865 0.067564636 0.11202632
13590000000 0.050819021 0.0088515813 -0.00037586506 0.00194678 -0.00076445343 0.0021641799 0.07582356 0.098730877
13600000000 0.046203922 0.018821027 0.00058386626 0.0010355415 0.0010534399 0.0010583842 0.065420136 0.083522409
13610000000 0.04418347 0.016229019 0.0010263341 0.00036920852 0.00099418592 0.00011782095 0.04954835 0.073842451
13620000000 0.047103293 0.01992956 0.0001564774 -3.4760858e-05 -8.6041146e-05 -0.00012794507 0.021583244 0.081124991
13630000000 0.044619597 0.01467119 -0.00011702449 -0.00019019948 -0.00030257553 0.00061226945 0.020730857 0.10111237
13640000000 0.047333226 0.01705594 0.00028373668 0.00073393655 0.0007878904 0.00099193596 0.038082857 0.1168083
13650000000 0.046263676 0.00344106 0.001554831 0.00079963997 0.0023261972 0.00030823943 0.059827968 0.1089602
13660000000 0.044319008 0.0096401908 0.0011762938 -0.00098956656 0.00081769063 -0.0018838812 0.069612391 0.094788164
13670000000 0.041924004 0.0037857872 0.00036996289 -0.0011612565 -0.00068362651 -0.0010692492 0.062125079 0.071004391
13680000000 0.042272329 0.010130458 -0.00043672434 -0.0015698601 -0.00086356752 -0.00047389863 0.044270854 0.055813678
13690000000 0.037432645 0.011555154 -0.0014006949 -0.00057415466 -0.00026782288 -0.00028367361 0.019753126 0.072818428
13700000000 0.041394129 0.019433927 -0.00042291183 0.00091642793 0.0003673294 0.0002829438 0.019044135 0.099047318
13710000000 0.041142475 0.017971551 0.00057449087 0.00023217696 0.00054064509 -0.00039474157 0.037726436 0.11737111
13720000000 0.041791581 0.022929441 -3.7928323e-05 -0.0011435224 -0.00055871811 -0.0011503329 0.05968982 0.11543538
13730000000 0.043103553 0.015682632 -0.0010966315 -0.00063749263 -0.0012092305 -0.0005838573 0.070858315 0.094183356
13740000000 0.040552504 0.016701579 -0.0016730262 0.00096131675 -0.0014319465 0.00085489417 0.068160161 0.06464009
13750000000 0.038215838 0.010112425 -0.00051719206 0.0017813742 -0.0006309583 0.0016247698 0.042668276 0.050315518
13760000000 0.036299787 0.011726242 0.0011621418 0.0014458019 0.00089618214 0.0016875844 0.020592377 0.066028312
13770000000 0.035142358 0.0050139325 0.0017599374 -0.00039818336 0.0019616797 -0.00013001409 0.019283939 0.098444298
13780000000 0.033111706 0.013180681 3.7684251e-05 -0.0013222579 0.00025840773 -0.0012088235 0.036549665 0.11672135
13790000000 0.039724879 0.010387465 -0.00080972508 0.00028913532 -0.00013061748 0.00010835515 0.06173211 0.11239734
13800000000 0.042237852 0.01467206 -0.00015346691 0.0010902048 -0.00017696203 0.00013041437 0.081945874 0.085996039
13810000000 0.04683562 0.010255743 0.0013561586 0.00057076919 0.00074873486 9.9091121e-06 0.078996837 0.052551016
13820000000 0.049130306 0.012438152 0.0018501253 -0.00073323632 0.0010505072 -0.00048399961 0.053183746 0.043780193
13830000000 0.050689168 0.0030948631 -3.707537e-05 -0.00231009 0.0001945548 -0.0011022352 0.028606365 0.056937978
13840000000 0.042616896 0.0042608473 -0.0015596041 -0.0010153836 -0.00083897117 -0.00067517062 0.026268082 0.086708456
13850000000 0.042387277 -0.0016774563 -0.0013926119 0.0010981014 -0.00058868295 -2.6195892e-05 0.039384492 0.10870543
13860000000 0.034434617 0.0020510063 0.0002534556 0.00053657504 -9.930988e-05 -4.0336672e-05 0.069882616 0.10182346
13870000000 0.035592709 -0.001614252 0.00078064366 -0.00030206516 0.00015569779 -0.00053494965 0.093705378 0.073688202
13880000000 0.034349352 0.0025755689 -0.00034559797 -0.00089444674 -0.00094535388 -0.00044349662 0.085048281 0.037073702
13890000000 0.042921599 -0.0027057771 -0.0016536163 -0.00068322278 -0.0014245252 3.7968508e-05 0.06153775 0.028241275
13900000000 0.041261546 -0.0049839858 -0.0011217545 0.0018227812 -0.00076830474 0.0016353563 0.035063554 0.04131712
13910000000 0.04790118 -0.010973342 0.00096914149 0.0017146762 0.00092975533 0.0016661095 0.026224095 0.063882783
13920000000 0.043322802 -0.013881896 0.0012988757 0.00011583779 0.0014926796 0.00017800299 0.042003587 0.082043648
13930000000 0.043860644 -0.019038159 0.00064139412 -0.0007823598 0.0009457359 -0.00088508561 0.077629797 0.081555784
13940000000 0.033299938 -0.019222179 -0.00022049931 -0.00042978793 -0.0001982289 -0.00089598523 0.098263241 0.053853251
13950000000 0.032088749 -0.017653113 -0.00052518537 0.00075273932 -0.00084300811 0.00048522995 0.089190319 0.021110946
13960000000 0.021507703 -0.016150404 0.00091649784 0.00087318284 0.00069300766 0.0012543775 0.062997729 0.011937585
13970000000 0.02515576 -0.013177504 0.0012969425 -0.00043578653 0.0014767197 -0.00015880953 0.034596194 0.020379649
13980000000 0.022374056 -0.016111884 0.000264 -0.0014802878 0.00072395435 -0.0015419297 0.025212511 0.040071461
13990000000 0.02714736 -0.0215354 -0.00079074322 -0.00091093185 -0.00047184181 -0.0016798191 0.039093364 0.064781979
14000000000 0.021272615 -0.030838242 -0.00098150887 -0.00021635866 -0.0013419655 -0.00057717075 0.068771876 0.061598454
14010000000 0.024250034 -0.03533113 -0.00011405203 0.00051569153 -0.00091477623 0.00070955418 0.084954783 0.036037337
14020000000 0.014804446 -0.043484479 0.00057344435 0.0001273653 0.0010320586 0.00063282542 0.076261193 0.0057846345
14030000000 0.014794698 -0.040126882 -0.00020830502 -0.00065947865 0.00041533032 -0.00067219941 0.050463542 -0.0079713184
14040000000 0.0064367242 -0.038407825 -0.00097480847 -0.00038690254 -0.0011064544 -0.00099048822 0.021815751 -0.0055993069
14050000000 0.0084882248 -0.030348318 -0.0011875252 0.00072024897 -0.001229239 0.00055934733 0.010477834 0.019179363
14060000000 0.0051159244 -0.026332073 0.00036002445 0.0015428334 6.2141567e-05 0.0014520048 0.023363307 0.043704405
14070000000 0.010103086 -0.022253133 0.00095544942 0.0005180203 0.00093763042 0.00068725389 0.051342558 0.044743109
14080000000 0.006206213 -0.027009252 0.00040546749 -0.00063524127 0.00059655379 -0.00032050087 0.064163342 0.022469323
14090000000 0.0051817959 -0.027826313 -0.00024819325 -3.4609802e-05 3.6146208e-05 -0.00019485326 0.055543553 -0.010067289
14100000000 -0.0038446812 -0.0359741 -4.0115614e-05 0.00039644027 -0.00010609859 7.0785733e-05 0.032255784 -0.030598398
14110000000 -0.01237146 -0.037591569 0.00075803971 0.00038512872 0.00056671526 -4.2397645e-05 0.0044206288 -0.02566414
14120000000 -0.0220812 -0.03922268 0.00080782804 -0.00040862177 0.00014108543 -0.00022243574 -0.006086716 0.00595468
14130000000 -0.024716679 -0.03266694 0.00031347992 -0.00083750469 -4.9713388e-05 -0.00041312946 0.0065794969 0.031798832
14140000000 -0.029331237 -0.032425769 -0.00062891468 -0.00094028655 -0.00034229291 -0.00050752866 0.031964228 0.034535304
14150000000 -0.025496885 -0.021057092 -0.00071873225 0.0001888088 -0.00022952557 -9.6985823e-06 0.046850454 0.015772281
14160000000 -0.019777223 -0.024704915 0.00023019346 0.00042211922 0.00023253862 -0.0001482763 0.043432035 -0.018615086
14170000000 -0.016786227 -0.021273239 0.00017720398 -0.00031638434 -0.0001735385 -0.00052640226 0.021825304 -0.039174788
14180000000 -0.017486742 -0.027617179 -1.0555726e-05 -0.00035807834 -0.0006575213 -3.4981611e-05 -0.0085960049 -0.0269664
14190000000 -0.020552527 -0.023651687 -0.00078584265 -0.00068517297 -0.00070799806 -0.00026907717 -0.021621233 0.0072047943
14200000000 -0.030878365 -0.030282103 -0.00095582323 0.00044739345 -0.00091071718 0.00067160768 -0.011400634 0.036730744
14210000000 -0.03836558 -0.018924423 -0.0002758303 0.0012579547 -0.00011995961 0.0011804946 0.010458808 0.042825371
14220000000 -0.044170823 -0.0219741 0.00088977063 0.00055462011 0.00096624374 0.00036098988 0.027029891 0.01718216
14230000000 -0.046658795 -0.009848495 0.00079580816 -0.00043313089 0.00065344502 -0.00048176438 0.028941736 -0.016356003
14240000000 -0.04351189 -0.011332897 -0.00035246735 -0.00076185085 -0.00046156388 -0.00062607217 0.0029269466 -0.032906562
14250000000 -0.037544332 -0.0021025613 -0.00078439532 0.00031302538 -0.00093660143 0.00040449589 -0.025893886 -0.024373353
14260000000 -0.034363542 -0.014857691 0.00036780638 0.0012050283 0.00042426708 0.0015836392 -0.039335288 0.0082215667
14270000000 -0.030662645 -0.0078080446 0.0013545363 0.00030818343 0.0015930661 0.00024559483 -0.028415557 0.037479524
14280000000 -0.033032715 -0.020410415 0.00087919098 -0.00095179398 0.00076765614 -0.0011276369 0.00036800187 0.04051666
14290000000 -0.035405058 -0.010729454 -0.00056087307 -0.00096069044 -0.00025930256 -0.00094643777 0.020553617 0.018503515
14300000000 -0.043557115 -0.013350111 -0.00074067048 2.245426e-05 -0.00066098513 -0.00030585419 0.022066357 -0.011982331
14310000000 -0.045348063 0.0037905499 0.00010460295 0.00069164322 -0.00043966022 0.00023758397 -0.00049797911 -0.028200902
14320000000 -0.046609823 -0.0020438042 0.00060975517 -9.2978211e-05 0.00022184265 0.00039956399 -0.028798731 -0.01763285
14330000000 -0.042363498 0.013613242 -0.00012444076 -0.00086247083 0.0001855935 -0.00034962592 -0.04517629 0.014405608
14340000000 -0.040972076 0.0049914401 -0.00081275142 -0.00040836289 -0.00019727781 -0.00042708364 -0.034312524 0.036524184
14350000000 -0.0351227 0.0087360218 -0.00081714161 0.00010048017 -0.00039581215 -0.00038339349 -0.0039383466 0.037661798
14360000000 -0.034630153 -0.0040121023 -0.00032388387 0.0006933714 -0.00087627856 3.336573e-05 0.017492028 0.021224184
14370000000 -0.035675392 -0.0027743848 0.00045998089 0.00051059888 -0.00025026719 0.00078743498 0.018324783 -0.0063076844
14380000000 -0.038396131 -0.012550876 -6.4617023e-05 -0.00013501772 0.00012811885 0.00093907071 -0.0034080846 -0.020368662
14390000000 -0.040234778 -0.0020683985 -0.00042461051 0.00016163889 0.00044226868 0.00021880688 -0.030772388 -0.015624
14400000000 -0.042484879 -0.0042483658 0.00013084104 0.00065255107 0.00048607207 2.1651489e-05 -0.042200223 0.008415211
14410000000 -0.040398363 0.0093817404 0.00042560039 0.00019122235 1.5450794e-05 -0.00023043167 -0.029702105 0.031132111
14420000000 -0.036933172 0.0091476254 0.00067998556 -0.00012360104 0.00022804692 -8.9718291e-05 -0.0052683423 0.035658263
14430000000 -0.033124585 0.014851825 0.00035002243 -0.0005817794 0.00014554027 -2.1257997e-06 0.013840591 0.021550776
14440000000 -0.030656409 0.0080170389 -0.00014159142 -0.00016108679 0.00032058262 -0.00018945175 0.012829566 -0.0025396363
14450000000 -0.033818752 0.0076335603 -0.00015424068 -6.8935668e-05 0.00017051405 -0.00037334167 -0.0065441625 -0.01817159
14460000000 -0.037204463 -0.00082628056 0.00034589501 0.00013916625 9.8054559e-05 -0.00056430243 -0.034101415 -0.01750063
14470000000 -0.042790741 -0.0035198871 6.4087246e-05 -0.00059855194 -0.00040602731 -0.00027476437 -0.042878278 -0.0044184923
14480000000 -0.048214212 -0.0060383957 -0.00011802508 -0.00076302851 -0.00029403577 -0.00031479759 -0.030624717 0.018550932
14490000000 -0.051609706 -0.0012179613 -0.00058579753 -5.6716839e-05 -9.2043883e-05 -0.00016100863 -0.012616923 0.026828516
14500000000 -0.04518627 0.00049063959 -0.00056571187 0.000126126 -0.00044410725 -0.00017760384 0.0075747184 0.014211018
14510000000 -0.044944137 0.0031265425 0.00014568037 0.0001004087 -0.00054131361 -0.0002743541 0.004209782 -0.0073525924
14520000000 -0.037535418 0.0028430531 -0.00047396697 1.6741687e-06 -0.00080305035 0.00049522694 -0.014930776 -0.027677225
14530000000 -0.036517404 0.00096636079 -0.00056785124 0.000186064 -0.00054845843 0.00066392421 -0.032003365 -0.027972313
14540000000 -0.036906414 -0.0020285789 -0.00026747625 0.00085210969 0.00036734832 0.00093144551 -0.04283962 -0.012161571
14550000000 -0.044917703 -0.0021867938 0.00056953356 0.00063325732 0.00096830603 -5.5998564e-05 -0.039942827 0.0075052371
14560000000 -0.049074799 -0.00019660499 0.00059857476 6.9665504e-05 -0.00028177025 -0.00044627974 -0.024020344 0.021157052
14570000000 -0.058674231 0.00049908063 0.00025121347 -0.00050461979 -0.00055901363 0.00017783311 -0.0092669791 0.010740444
14580000000 -0.060085345 0.0056438921 -0.00032139049 -2.9967392e-05 0.00019268091 0.0011553401 -0.012958568 -0.012398414
14590000000 -0.062345184 0.0061792433 0.00038033759 0.00030701677 0.0014646888 6.0339284e-05 -0.029526286 -0.033412237
14600000000 -0.058950067 0.0080772266 0.00071654364 -6.8464811e-05 0.00064573647 -0.00083711126 -0.04335393 -0.034830779
14610000000 -0.058504283 0.0025211796 0.0003477264 -0.00030661063 -0.00027878588 -0.00085466506 -0.056901027 -0.020197609
14620000000 -0.054561347 0.0031558368 0.00028968931 -0.0010144507 -0.00017979403 -0.00069059659 -0.055150732 0.0010905825
14630000000 -0.060131159 -0.0020709885 -0.00079008727 -0.00067313324 -0.00063152867 -0.0004348029 -0.042760544 0.016454235
14640000000 -0.058693435 0.0020254224 -0.00022698076 2.2381744e-05 -0.00012538131 0.00033555616 -0.031802904 0.0051506525
14650000000 -0.066751108 0.0022011045 -0.00030026634 5.7077123e-05 -0.00011851155 -0.00026039802 -0.031050891 -0.014998153
14660000000 -0.067601375 0.0099691199 -0.00030753974 9.1669717e-06 -0.00043993298 -9.2358474e-05 -0.041269526 -0.029878806
14670000000 -0.076527007 0.013638511 -0.00046507426 0.00014035926 -0.00069948228 0.00010615733 -0.062539592 -0.030014854
14680000000 -0.07324338 0.023533273 -0.00044172886 -3.6168567e-05 -0.00047502108 0.00034591532 -0.073509872 -0.016227704
14690000000 -0.07809867 0.023732362 -4.4368731e-05 0.00076311704 8.0031954e-05 0.00090279215 -0.077215426 0.004693957
14700000000 -0.071315676 0.027608959 3.8863494e-05 0.00084928493 0.0001575434 0.00086951675 -0.066608414 0.014549578
14710000000 -0.07603813 0.022215484 0.00040563932 0.00051315996 0.00057656912 0.00026765047 -0.053885031 0.0094025573
14720000000 -0.07196933 0.021765629 0.00082959031 0.00058824674 0.00052546436 0.00024753402 -0.049359962 -0.0071912603
14730000000 -0.079214267 0.015875021 0.0011041956 -0.00082168833 0.00072607084 -0.00023750309 -0.058246695 -0.02042052
14740000000 -0.079182148 0.022617538 2.4745095e-05 -0.00060750503 0.00035366323 -0.00048756463 -0.077338271 -0.016457234
14750000000 -0.084229499 0.025979165 -0.00036894483 -3.2507261e-05 -5.0208742e-05 -0.0002289871 -0.085655198 -0.0024574809
14760000000 -0.077079959 0.037802674 0.00058092893 0.00013890155 0.0003714156 -2.4917274e-05 -0.091584809 0.014488462
14770000000 -0.081365548 0.039899006 0.00016533516 -0.00068780233 -0.0001833538 -0.00060453761 -0.082215257 0.022328429
14780000000 -0.073139034 0.051263265 -0.00011632833 -0.0010414314 -0.00015500578 -0.00094503647 -0.06589447 0.022303406
14790000000 -0.074469678 0.048629366 -0.00086619699 -0.00050333503 -0.00069619023 -0.00066659402 -0.062445004 0.014616585
14800000000 -0.07088995 0.055152051 -0.00098445953 9.7229757e-05 -0.0010087984 0.00043362431 -0.070209503 0.0034115221
14810000000 -0.075498238 0.0508774 -0.00048814935 0.00099562772 -0.00027053276 0.00063267496 -0.086751074 0.0095173754
14820000000 -0.073540747 0.053690579 -0.00011995788 0.00052872451 -0.00020436384 0.00036878692 -0.096202329 0.014053874
14830000000 -0.081244275 0.048791632 0.00035968565 0.00035895887 0.00018031677 0.00031552356 -0.095358074 0.026268583
14840000000 -0.079214089 0.056419037 -5.1095387e-05 -0.00026148357 -0.00015480338 -0.00012431826 -0.086539827 0.033891913
14850000000 -0.078430615 0.055695474 -0.00079847866 0.00032885198 -0.00065339694 0.00086992449 -0.072904505 0.039747968
14860000000 -0.073296636 0.065181576 -0.00015290163 0.0016831541 0.00033193518 0.0010980458 -0.066683888 0.033891082
14870000000 -0.065857068 0.064802147 0.0020141753 0.00095580984 0.0015685321 0.0010333143 -0.070248775 0.03030362
14880000000 -0.054171748 0.070883021 0.0016089767 -0.00085559889 0.0013783105 -0.00085030112 -0.082867719 0.031709939
14890000000 -0.051459543 0.06444256 0.0001232691 -0.0015623658 0.00033534595 -0.0012555994 -0.088904783 0.03263082
14900000000 -0.047343902 0.070918471 -0.001060304 -0.00079619203 -0.00063828845 -0.00074103574 -0.086713567 0.037458934
14910000000 -0.046980374 0.066877678 -0.0005818872 6.581506e-05 -0.00046004928 -0.00020077259 -0.080871694 0.047688264
14920000000 -0.05325409 0.071255162 0.00011637092 2.5734633e-05 -4.7081972e-05 -0.00029530187 -0.068970695 0.054960314
14930000000 -0.053444933 0.071940958 0.00019745206 -0.00030735676 2.4603418e-05 -0.00022210194 -0.065229073 0.055111803
14940000000 -0.054990303 0.077880524 -0.00042899174 -0.00056866946 -0.00077176478 -0.00038369987 -0.067239605 0.050410878
14950000000 -0.052646298 0.076961584 -0.00086970534 -0.00015267421 -0.00067724742 -3.3340446e-05 -0.07158161 0.04358536
14960000000 -0.048594255 0.081653453 -0.0011280465 0.00039338088 -0.00080347108 0.00017733336 -0.069819085 0.038289547
14970000000 -0.036984175 0.072686024 -0.00037558426 0.0010469634 -0.00073902181 0.00080202159 -0.071538612 0.042346414
14980000000 -0.035720441 0.068696886 0.00065450493 0.0015646283 0.00032759839 0.0015803509 -0.069366544 0.051224053
14990000000 -0.028457005 0.059461828 0.0012505207 -0.00014769907 0.001454976 0.00022760444 -0.061715297 0.063357174
15000000000 -0.031710967 0.058734167 -9.2223869e-05 -0.00058880972 0.00047364546 -0.00052909018 -0.057920694 0.062628359
15010000000 -0.030990649 0.055252783 -0.00018067543 -0.00016127831 -0.00020168682 -0.00041730853 -0.056343578 0.058921371
15020000000 -0.034612659 0.06151953 0.00039613422 0.00084523979 -3.8520418e-05 0.00052080973 -0.054210216 0.048814703
15030000000 -0.029115442 0.063968502 0.00049194688 2.6707028e-05 0.00034765142 0.00034354441 -0.052968886 0.038669214
15040000000 -0.031171426 0.068597481 0.0013634638 -0.00096416008 0.0013184461 -0.00062638364 -0.059015721 0.039031666
15050000000 -0.02408367 0.067349151 -0.00023098673 -0.001204532 -0.00013530056 -0.0012516434 -0.062968716 0.049470741
15060000000 -0.026147176 0.066781744 -0.0010954584 -0.00074341823 -0.0010382866 -0.00092786696 -0.06157852 0.061281212
15070000000 -0.021622207 0.057376526 -0.00097249856 0.00033537269 -0.0010288762 0.00010068383 -0.060219795 0.059486005
15080000000 -0.028027287 0.054137181 -0.00040268328 0.00045885154 -0.00043318828 0.00036258509 -0.051108032 0.054000899
15090000000 -0.026495805 0.045320664 -1.6797538e-05 0.0010157372 -0.00048903679 0.0010035477 -0.044680379 0.042203695
15100000000 -0.035204925 0.044881001 0.00084048015 3.3745688e-05 0.00086735073 0.00070275983 -0.044055823 0.031148849
15110000000 -0.034300711 0.043370817 -0.00011001174 -0.00096124934 0.00062233064 -0.00077013904 -0.052802984 0.030524394
15120000000 -0.039011739 0.049287282 -0.00072479551 0.000216085 -0.00069062103 -0.00052825548 -0.060880207 0.040842637
15130000000 -0.030200804 0.050495476 -0.00010705873 0.00090531749 -0.00068475772 0.00073051988 -0.066644244 0.051961079
15140000000 -0.030143613 0.05473195 0.00087449246 0.00075202424 0.00065057201 0.0013364118 -0.06313879 0.05625435
15150000000 -0.022431917 0.050341219 0.0013144356 -0.00038593574 0.0019311652 5.4382952e-05 -0.054704498 0.05362916
15160000000 -0.027568793 0.049059168 0.00062400167 -0.0018548549 0.0012114998 -0.0023446288 -0.048789356 0.043304905
15170000000 -0.027390651 0.04392774 -0.0016141051 -0.00046368135 -0.0020634786 -0.0012039023 -0.04918877 0.033433754
15180000000 -0.038142469 0.046935152 -0.0011339254 0.00062405516 -0.0018527487 0.0010114755 -0.061981354 0.031897839
15190000000 -0.037848633 0.046594754 -0.0001304154 0.0012614744 0.0002007438 0.0019827189 -0.075098783 0.032574948
15200000000 -0.045977704 0.051259145 0.00079917745 0.00027304509 0.0014882332 0.00034470338 -0.079057954 0.047281235
15210000000 -0.042132437 0.051134638 0.00093609607 -0.00070206693 0.00099184609 -0.0012543013 -0.075331978 0.055101279
15220000000 -0.044710986 0.055154435 -0.00069121993 -0.0012074393 -0.0012656606 -0.0012423926 -0.061544869 0.058395542
15230000000 -0.038079794 0.055734571 -0.0015672282 0.00045460794 -0.0015937658 0.00084432116 -0.055300832 0.05096674
15240000000 -0.037237264 0.055638544 -0.00020898675 0.0019785201 9.8357035e-05 0.0016830357 -0.054573897 0.04499305
15250000000 -0.029861148 0.054553512 0.0017891712 0.00069618586 0.001621175 0.00078032201 -0.065359958 0.039724994
15260000000 -0.034426261 0.052003819 0.0016515803 -0.00085301802 0.0015153732 -0.00048013596 -0.081971951 0.042447064
15270000000 -0.031658947 0.052489877 -0.00017643388 -0.0017369722 0.00041598006 -0.0020156754 -0.088072143 0.057634011
15280000000 -0.039446089 0.054194763 -0.0016499511 -0.00045787817 -0.0018661319 -0.0010546363 -0.079972737 0.072730467
15290000000 -0.037617058 0.061448276 -0.00064778724 0.0008033273 -0.0013719467 0.0011626052 -0.067770958 0.080079392
15300000000 -0.041745946 0.064610906 0.00058276387 0.00084896781 0.00078406814 0.0014323001 -0.06190186 0.073898822
15310000000 -0.032083359 0.071252495 0.0010906868 -0.00069001282 0.0017424115 -0.00046090671 -0.060431946 0.062091518
15320000000 -0.033379234 0.06758409 -0.00025597875 -0.0010989668 -4.364553e-05 -0.0018310021 -0.06733565 0.05045924
15330000000 -0.024420995 0.069772907 -0.0012728233 -0.00056685897 -0.0020923764 -0.00098496652 -0.078312144 0.052016277
15340000000 -0.026834607 0.062357251 -0.0014645249 0.0011679522 -0.0021782343 0.0018397802 -0.084976137 0.070024811
15350000000 -0.020279724 0.062580176 0.0002862773 0.0017334395 0.00099048833 0.0025206101 -0.073122129 0.090358697
15360000000 -0.027114132 0.057575271 0.002034209 0.00057638722 0.002736781 0.00024911342 -0.05980064 0.10188141
15370000000 -0.019692879 0.062059779 0.0010167641 -0.0011444832 0.00076785998 -0.0019629323 -0.050917942 0.096057594
15380000000 -0.023662837 0.059987139 -0.00057235837 -0.0011723356 -0.0011538431 -0.0013374775 -0.046010952 0.081728883
15390000000 -0.016411141 0.066287562 -0.0012478527 3.6552694e-05 -0.0015548095 0.00065722811 -0.055114351 0.063878939
15400000000 -0.016389266 0.063702703 -0.00028758406 0.0015310348 0.00028660346 0.0019786197 -0.064792454 0.063957825
15410000000 -0.0080000656 0.06780196 0.0020362667 0.00087028183 0.0026746215 0.00061901863 -0.074890926 0.083463624
15420000000 -0.0069564991 0.061162315 0.0015315854 -0.001868624 0.0014577408 -0.0022430057 -0.065939002 0.1046049
15430000000 0.00092064217 0.060436249 -0.00078537432 -0.0023158316 -0.0014163778 -0.0023139906 -0.053781629 0.11370786
15440000000 -0.0034457464 0.051186524 -0.0021535424 4.7051348e-05 -0.0022861126 0.00010581058 -0.032956548 0.10367521
15450000000 -0.00036429428 0.050688054 -0.0012579921 0.001485304 -0.0011843914 0.0018538444 -0.022608522 0.083206862
15460000000 -0.0049169008 0.043936625 0.00115543 0.0015015375 0.0013423624 0.0017011006 -0.025900628 0.063666463
15470000000 -0.0030608529 0.04756381 0.0011014055 -0.00073981931 0.0015780262 -0.0010937095 -0.040384438 0.063896731
15480000000 -0.002812569 0.045364592 -0.00047745858 -0.0014652153 -0.00078595558 -0.0020376537 -0.054144327 0.086427376
15490000000 0.0050950162 0.047905371 -0.0015718376 9.1967522e-06 -0.002376056 0.00040104112 -0.048835516 0.1086293
15500000000 0.0071354546 0.043099698 -0.0012180712 0.0016794888 -0.0013320134 0.0025274702 -0.03235738 0.12294731
15510000000 0.013762041 0.038761318 0.0008204336 0.002523046 0.0016610741 0.0024247658 -0.011936307 0.11094046
15520000000 0.011303845 0.032134756 0.0024225225 0.00016961689 0.0028670274 -0.00049781066 0.0015534945 0.086938888
15530000000 0.010839316 0.026974643 0.0016129604 -0.0019921937 0.00080986071 -0.0026928275 -0.0066341008 0.062575333
15540000000 0.0049265013 0.021858027 -0.001271548 -0.0021786899 -0.001891759 -0.0015017207 -0.028484719 0.06144543
15550000000 0.0040715877 0.021172933 -0.001893195 0.00035045709 -0.0015216441 0.0010561135 -0.047213577 0.077229232
15560000000 -0.00024059135 0.02061305 -2.2988999e-05 0.0021110545 0.00070087687 0.0018369171 -0.043455847 0.097785711
15570000000 0.0043620109 0.018519387 0.0019643444 0.00056654151 0.0020556231 -0.00026197161 -0.021229751 0.10948789
15580000000 0.0022676941 0.014823605 0.0016727292 -0.0021815819 0.00081466959 -0.0025314623 0.0080071799 0.10021799
15590000000 0.0085134031 0.010139424 -0.001512093 -0.0025870821 -0.0017489842 -0.0018363611 0.020476295 0.0778111
15600000000 0.007267219 0.0053912289 -0.003073605 0.00010775001 -0.0026767489 0.00052034791 0.0088144355 0.05567424
15610000000 0.0081020687 -0.0031168233 -0.00092508615 0.002843973 -0.00033253833 0.0024520359 -0.017178014 0.049271341
15620000000 0.0011437916 -0.0046947994 0.0013931907 0.0012642216 0.0013234599 0.001000577 -0.037627444 0.063251756
15630000000 -0.00071519078 -0.0088181719 0.0014678871 -0.00088595471 0.0010902768 -0.00094199734 -0.035984106 0.086813867
15640000000 -0.0064416165 -0.0065208566 -0.00071619439 -0.0012726985 -0.00091416249 -0.0011417646 -0.016106471 0.099437438
15650000000 -0.007803862 -0.0088520134 -0.0015176337 0.00064793933 -0.0014867285 0.00091592781 0.011399593 0.092991978
15660000000 -0.0097527765 -0.0058211884 -0.00035435133 0.0019226023 -3.1736505e-05 0.0020156431 0.021045148 0.069860466
15670000000 -0.010485566 -0.011769589 0.0017578084 0.0010001566 0.0021059385 0.00084036693 0.0068976437 0.044527929
15680000000 -0.010546952 -0.013035958 0.0016179789 -9.1019203e-05 0.0014075424 -0.00062630977 -0.017620906 0.033407371
15690000000 -0.015109017 -0.024170006 0.0010357881 -0.0016695054 0.00052477454 -0.0017940633 -0.038013853 0.046062861
15700000000 -0.01784843 -0.023917019 -0.00053652166 -0.0016554152 -0.0008171497 -0.00092694571 -0.032162111 0.068758093
15710000000 -0.025361858 -0.030491825 -0.0016601011 0.00016319356 -0.0009431041 0.00050136156 -0.011402525 0.090090632
15720000000 -0.027065 -0.028158981 7.6136464e-05 0.000976715 0.00062949886 0.00051473983 0.012925215 0.089248762
15730000000 -0.032097075 -0.030570516 0.0013347443 -2.7695613e-05 0.00066442456 -0.0004174035 0.018443216 0.067003317
15740000000 -0.028119359 -0.025140116 0.00049096736 -0.0014466819 7.9144229e-06 -0.0013477569 0.0048936796 0.038698886
15750000000 -0.032599717 -0.030928275 -0.0012280702 -0.0014730238 -0.0013437072 -0.00084636256 -0.018368887 0.027490797
15760000000 -0.030200748 -0.02752411 -0.0019766754 0.00044273594 -0.0014005456 0.00061904651 -0.03781613 0.040316936
15770000000 -0.038803954 -0.034105796 -0.00077865104 0.001936414 -0.00043316081 0.0014186007 -0.03688664 0.069793954
15780000000 -0.036451429 -0.030233186 0.0012664045 0.0012047535 0.001021146 0.00070700294 -0.01907815 0.091306455
15790000000 -0.048200276 -0.036172125 0.0012247995 -0.00052631646 0.00065281778 -0.00024562739 0.0034276806 0.085581794
15800000000 -0.049102638 -0.033274122 -0.00017637026 -0.00064010662 -0.00041004992 -0.00048255472 0.0096106883 0.061541434
15810000000 -0.060691062 -0.037561238 -0.00090432854 0.00019572285 -0.0005142244 0.00056527555 0.0012895954 0.034493122
15820000000 -0.055337183 -0.032601755 0.00015898631 0.0013592158 0.00039032716 0.0011370485 -0.02119321 0.021623079
15830000000 -0.063658863 -0.039091319 0.0014665339 0.0009881634 0.0013063557 0.00042449762 -0.038962875 0.037247844
15840000000 -0.056890585 -0.034016658 0.0018104513 -0.00095052732 0.0013531356 -0.00092788052 -0.037234861 0.074453235
15850000000 -0.062451854 -0.042719178 0.00029630592 -0.0014312132 0.00024218255 -0.0010336533 -0.021096475 0.095323086
15860000000 -0.057777267 -0.040502846 -0.00097633776 -0.001564235 -0.00054070947 -0.0012360159 -0.00067754835 0.089192383
15870000000 -0.067862622 -0.047173008 -0.0015123531 3.4108351e-05 -0.0011212729 -0.00033182668 0.012234718 0.066960692
15880000000 -0.06449116 -0.04021062 -0.00037673322 0.001370806 -0.00055590941 0.00075348938 0.0070170611 0.038187601
15890000000 -0.073142596 -0.042953111 0.0015075175 0.00029957714 0.00063626032 0.00040303578 -0.015811784 0.028719638
15900000000 -0.06994129 -0.034810737 0.00040256654 -0.0015138972 0.00047674478 -0.00085716584 -0.040696472 0.048807982
15910000000 -0.077963226 -0.03875114 -0.0018644155 -0.0012211913 -0.0011012657 -0.00095822976 -0.038347404 0.078853145
15920000000 -0.073719032 -0.036601044 -0.0021049008 0.0012259583 -0.0018373122 0.00066838082 -0.018958371 0.096415266
15930000000 -0.083588213 -0.041849285 0.00015378732 0.0023098332 -0.00017070817 0.0018603784 0.0068532787 0.093985014
15940000000 -0.079543017 -0.041299637 0.0016942886 0.00086293829 0.0013974593 0.0012020112 0.022762336 0.073139146
15950000000 -0.090607844 -0.049881443 0.0011134795 -0.00095560501 0.0012807184 -0.00052597758 0.020034235 0.046549246
15960000000 -0.089543529 -0.048183292 -0.00082754018 -0.0007620157 -0.00039144806 -0.00088879623 -0.0082627563 0.038677778
15970000000 -0.0953089 -0.053213913 -0.00081842911 0.00070821116 -0.00068136887 0.00056029193 -0.033103548 0.055731401
15980000000 -0.093110532 -0.052205794 0.00070341869 0.00092820969 0.0004378272 0.0007904896 -0.03685838 0.080635913
15990000000 -0.099009156 -0.05458615 0.0010842404 -6.3493499e-06 0.00098620146 9.0315007e-06 -0.015936464 0.0963239
16000000000 -0.095121384 -0.051161751 0.0010575887 -0.00093774067 0.00070247613 -0.00063218747 0.014976744 0.09566161
16010000000 -0.1005623 -0.056539495 -0.00024916773 -0.0017266546 0.00028733251 -0.0015397224 0.03360083 0.074235827
16020000000 -0.09976691 -0.051649697 -0.0011015974 -0.00047757136 -0.00091982138 -0.00065426948 0.026804816 0.049581565
16030000000 -0.10551595 -0.05863731 -0.0010988667 0.00061751489 -0.001260372 5.1329356e-05 0.00052156555 0.039098166
16040000000 -0.11106296 -0.057005718 5.6932739e-05 0.00043387618 -0.00029341062 0.00062584749 -0.022587694 0.047235101
16050000000 -0.11982869 -0.061610267 0.00071541965 0.00034686871 0.00048231042 0.0007250284 -0.022264175 0.071428083
16060000000 -0.1262311 -0.059932951 0.0002053302 -0.0010031356 0.0007646014 -0.00064195762 -0.00033628196 0.090575926
16070000000 -0.13344549 -0.064768903 -0.0011675088 -0.0004191474 -0.0008571808 -0.00088144402 0.030611895 0.093455434
16080000000 -0.13690555 -0.060058989 -0.00086191879 0.0011181799 -0.0012521888 0.00079573668 0.046124384 0.073883317
16090000000 -0.1385899 -0.066470891 0.00060049992 0.0013566033 0.00019575004 0.001497387 0.035996728 0.051467795
16100000000 -0.14008729 -0.06683033 0.0014016426 0.00015746077 0.0015635442 0.00039808743 0.0073818667 0.03687501
16110000000 -0.14533204 -0.074773803 0.00033832784 -0.0007544508 0.00067896978 -0.00060191512 -0.011947905 0.040714521
16120000000 -0.14990476 -0.071184009 -0.00055255648 -0.00041078962 -0.00039765617 -0.00075806986 -0.014685571 0.061038092
16130000000 -0.15711671 -0.075347319 -0.00034354813 0.00048995274 -0.00069962861 0.00021263961 0.0078020208 0.080390111
16140000000 -0.16471893 -0.069576159 0.00046374887 0.00046714247 6.9020869e-05 0.00067507423 0.034861311 0.083183795
16150000000 -0.17227355 -0.070813946 0.00047982763 -0.00022796664 0.00087315839 0.00016097522 0.045102388 0.063187048
16160000000 -0.17927478 -0.065440655 0.00042086057 -0.00052350899 0.00070154731 -0.00070178119 0.034715641 0.035530742
16170000000 -0.18764384 -0.066078991 -0.00025970797 -0.00080537901 -0.00030699981 -0.0010255324 0.015622662 0.023020267
16180000000 -0.19636969 -0.063148752 -0.00090409355 -0.00061377388 -0.00086306944 -0.00057433196 -0.0011557685 0.027376464
16190000000 -0.20074193 -0.066233553 -0.00029773207 0.00080423127 -0.0005040461 0.00050850143 -0.0015053134 0.052371778
16200000000 -0.20782441 -0.065423228 0.00014309888 0.00042357633 7.7370758e-05 0.0006217612 0.014533143 0.074230313
16210000000 -0.2141964 -0.072525762 0.00044838191 -0.00046566734 0.00038835697 -0.00041606402 0.034517154 0.074916966
16220000000 -0.22237542 -0.069953784 -0.00043624168 -0.00049232855 -0.00019267785 -0.000580744 0.038571477 0.056538463
16230000000 -0.22960839 -0.072163224 -0.00083145179 -4.2823984e-05 -0.00071702775 1.8757566e-05 0.026466526 0.031152057
16240000000 -0.24102156 -0.063718393 -0.00021951964 0.0011979237 -0.00034800929 0.00097626541 0.011226589 0.01603381
16250000000 -0.24406487 -0.060716458 0.0010292293 0.00059296493 0.00081959518 0.00074070931 -0.0042059068 0.020640954
16260000000 -0.25179487 -0.048547812 0.00064770406 -0.00079929293 0.00066659192 -0.00053569552 -0.0070894491 0.045920677
16270000000 -0.25296429 -0.045139246 -0.00081932853 -0.00074747665 -0.00063981244 -0.00085563038 0.0043267366 0.063642688
16280000000 -0.26031518 -0.039015174 -0.00067817618 0.00063691341 -0.0003885738 0.00064134871 0.021462146 0.059477068
16290000000 -0.26764199 -0.042403344 0.00070005987 0.0010765727 0.00046458302 0.00058745447 0.028576866 0.038794771
16300000000 -0.28169683 -0.037399508 0.00090636697 1.3584568e-06 0.00067902636 8.7195753e-05 0.025472384 0.020974737
16310000000 -0.29164281 -0.038409453 0.00074737828 -0.00092716701 0.0005342096 -0.00063884025 0.012393378 0.012884066
16320000000 -0.30669466 -0.03045582 -0.0004630528 -0.0007618824 1.3545781e-05 -0.00068455213 -0.005542391 0.023983393
16330000000 -0.31258795 -0.025264442 -0.00068226183 6.7277258e-05 -0.00051943318 1.5685699e-05 -0.012156149 0.045742363
16340000000 -0.31818736 -0.01451382 -1.6910868e-05 0.00070576824 -0.00016190564 0.00024904247 -0.0061185397 0.062793642
16350000000 -0.31572625 -0.012508452 0.00061096821 -0.00026144757 -5.8470187e-06 -3.3440509e-05 0.0063316561 0.058145054
16360000000 -0.32247344 -0.004414022 0.00029346958 -0.00057119445 0.00036274196 -0.00028051197 0.015531608 0.041336965
16370000000 -0.32167217 -0.0024090055 -0.00086656777 -0.00094798009 -0.00049734331 -0.00074185198 0.012571173 0.024257546
16380000000 -0.33195686 0.0057261474 -0.00070987985 -0.00011936533 -0.00051670067 -0.00028577377 0.0016886754 0.019401098
16390000000 -0.3361004 0.0094460249 -0.00070737029 0.001273592 -0.00077207049 0.0010384475 -0.015001297 0.028145693
16400000000 -0.35104865 0.02199398 0.00094326085 0.0007770115 0.00065896404 0.00084452302 -0.026178818 0.043779984
16410000000 -0.35741383 0.028551981 0.00059249066 -0.00063129392 0.00050607958 -0.00041555517 -0.015025225 0.055164073
16420000000 -0.37120759 0.042785361 -0.00049266685 -0.00068358064 -0.00018947881 -0.0004846974 0.0031601489 0.056561407
16430000000 -0.37222379 0.049812287 -0.00072573416 0.00065850921 -0.00058266101 0.00024686655 0.015107843 0.045225516
16440000000 -0.38067663 0.059811737 0.00015186134 0.0013057326 -9.3535054e-06 0.001181912 0.010979326 0.04043531
16450000000 -0.37773916 0.06176047 0.0012297344 0.00017506494 0.00086310081 0.00022250289 -0.0042157881 0.0367149
16460000000 -0.38392922 0.067926913 0.00090863451 -0.0007226523 0.00098077359 -0.000546603 -0.017736603 0.040118627
16470000000 -0.38415468 0.066688135 -0.00038249142 -0.0010420653 -0.00020256308 -0.00073938892 -0.028420825 0.051730212
16480000000 -0.39465114 0.076009199 -0.00051731727 0.00045018649 -0.00010935673 0.00014020817 -0.017812144 0.062534295
16490000000 -0.40026993 0.082121506 0.0003105845 0.00035760048 2.2776103e-05 -4.6671594e-05 -0.0018160064 0.063926116
16500000000 -0.41015232 0.10072182 0.00061493821 -0.00053597084 0.00032579649 -0.00056300685 0.010524301 0.058465865
16510000000 -0.41193792 0.1130688 -9.6927361e-05 -0.00088226161 -0.0003342788 -0.0003927107 0.0039385548 0.048984312
16520000000 -0.41519102 0.13106234 -0.00067964091 -0.00049298833 -0.00020066979 -0.0003288679 -0.0055726599 0.044789236
16530000000 -0.41461283 0.13851863 -0.0011005516 0.00046458907 -0.00079058763 0.00024480993 -0.017620552 0.044354372
16540000000 -0.41777915 0.14679717 -4.5891589e-05 0.00079906709 -0.00036500924 0.00029814497 -0.016136425 0.050040934
16550000000 -0.42470843 0.14788434 0.00028842635 0.00030444888 -0.00024244675 0.00046466748 -0.0041853711 0.064526066
16560000000 -0.4332751 0.15458904 0.00015342981 -0.00019717314 0.00027102494 0.00039413114 0.012528749 0.075176053
16570000000 -0.44198322 0.15985146 -0.0003058908 -0.0001111724 0.0001934078 -6.4196451e-05 0.017699569 0.071273163
16580000000 -0.44953606 0.17357768 -0.00073174958 0.00065460423 -0.00045004982 0.00010217047 0.0084564853 0.061931469
16590000000 -0.45256066 0.18594082 0.00051844149 0.0010816123 1.848134e-05 0.00064420467 -0.0022493824 0.05624935
16600000000 -0.45234811 0.2028439 0.0011893215 0.00014855445 0.00089223124 0.00069984223 -0.0035187081 0.055956498
16610000000 -0.45058939 0.21515235 0.00084394799 -0.00083219359 0.0010536282 -0.00034070804 -0.00446436 0.058973525
16620000000 -0.44954765 0.22919028 -0.00041476285 -0.00058516429 0.00022190614 -0.00080997183 0.0018825382 0.070940815
16630000000 -0.44962847 0.23980242 3.2214124e-05 -3.3507589e-05 -7.9190722e-05 -0.00049452105 0.012882417 0.073782183
16640000000 -0.4552072 0.2501142 -0.00010844571 7.7514444e-05 -0.00053731492 -8.3080158e-06 0.021642895 0.06470418
16650000000 -0.4635725 0.26142389 0.00047300829 -0.00035723692 0.00041351005 0.0002084273 0.014067065 0.053590015
16660000000 -0.47193801 0.27496198 4.2591346e-05 -0.00069381006 0.00023780283 -0.00078450044 0.0097477883 0.050307125
16670000000 -0.48169211 0.28972685 -0.0010207519 -0.00060419372 -0.00075736584 -0.00075712462 0.012376135 0.053110398
16680000000 -0.4853999 0.30783892 -0.00092149153 0.00036705052 -0.00097708579 0.0002330305 0.01710847 0.057464816
16690000000 -0.48563883 0.32309315 -0.00031285384 0.0006453669 -0.00069510593 0.0005248657 0.016565217 0.071148701
16700000000 -0.48387372 0.33798084 9.7160228e-06 0.00062432757 9.5163879e-05 0.0008642248 0.021529198 0.0699564
16710000000 -0.47887838 0.35102022 0.00026867678 0.00023626987 0.00053415669 0.0004472929 0.024746265 0.05866801
16720000000 -0.47622427 0.36209124 9.6677104e-05 -6.7687732e-05 0.00021567836 -0.00018195153 0.019211253 0.048480902
16730000000 -0.47763687 0.37609726 -0.00029797154 0.00019603129 -0.00017548657 -3.2744058e-05 0.012516195 0.051697817
16740000000 -0.47915867 0.39373419 0.00017019454 0.00086864782 3.6811107e-06 0.00068576162 0.01423962 0.055798817
16750000000 -0.48268658 0.41368321 0.00091369904 0.00019006565 0.00069425843 0.00021009956 0.012707183 0.051048305
16760000000 -0.48320445 0.4367151 0.00089866424 -0.00044496515 0.0010248036 6.2609906e-05 0.015111029 0.050755166
16770000000 -0.48103458 0.45986253 -0.00010121852 -0.00085678877 0.00040642844 -0.0011923013 0.020061316 0.047905996
16780000000 -0.47469333 0.47898299 -0.0003945381 -0.00042515481 -0.00069166574 -0.00077688025 0.022013918 0.042597163
16790000000 -0.47096607 0.49517179 -0.00025322451 8.9638736e-05 -0.00074279454 0.00024069045 0.015976356 0.037570555
16800000000 -0.46387959 0.50936389 0.00038480808 -0.00011529841 0.00036881369 0.00028958658 0.014746824 0.045639101
16810000000 -0.46032271 0.52342105 0.00010343565 -0.0004597755 0.00042180013 -0.00044879408 0.012467738 0.052646078
16820000000 -0.45341226 0.53993171 -0.00068981078 -0.00056610117 -0.00051548297 -0.00088607566 0.011681508 0.046175539
16830000000 -0.4486919 0.55989248 -0.00096153212 0.00019281753 -0.0012758481 0.00015490374 0.012430418 0.042155556
16840000000 -0.43755281 0.58140337 -0.00030590393 0.00069875177 -0.00044413583 0.00084242981 0.013971835 0.034244198
16850000000 -0.42957374 0.60479647 0.00025260879 0.00079306529 0.00050135516 0.00095430075 0.016253356 0.039631702
16860000000 -0.41431686 0.62621689 0.00054887898 -4.1240848e-05 0.00068494084 -0.00025083544 0.0080844425 0.044418577
16870000000 -0.40408149 0.64825577 1.7615886e-05 -0.00030359233 -0.00020741332 -0.0003590812 0.0020037345 0.052233934
16880000000 -0.39011282 0.66591448 -0.00037248374 0.00030219997 -0.00029271329 0.0003312818 0.00072805677 0.051752809
16890000000 -0.38142723 0.68421972 0.00013269532 0.00054672349 0.00011563052 0.00055233057 0.0065332605 0.047955487
16900000000 -0.36890814 0.69748712 0.00083059783 0.00039351895 0.00086124538 0.00045851362 0.0078157997 0.038539246
16910000000 -0.36128044 0.71391124 0.00079272181 -0.00062949024 0.00076733867 -0.00062316051 0.0043141581 0.036634151
16920000000 -0.34700158 0.7280032 -8.4866682e-05 -0.00081365817 -0.000229606 -0.00089807902 0.0034689633 0.043337353
16930000000 -0.33456609 0.74591976 -0.00059529091 -0.00033371244 -0.00052318879 -0.00023702122 -0.0014417698 0.051943414
16940000000 -0.31427574 0.76168346 -0.00025552901 0.00042228607 -0.00026132772 0.00041297771 -0.0078372695 0.060147043
16950000000 -0.29461503 0.78001177 0.00037535184 0.0001316893 0.00028768298 0.00031480129 -0.006437866 0.063019805
16960000000 -0.27013204 0.79495013 0.00021000866 -0.00053023314 0.00021531443 -0.00049265847 0.0053574089 0.052980535
16970000000 -0.2487466 0.811441 -0.00054506975 -0.00058878178 -0.0004963408 -0.00054290175 0.0069854148 0.046532732
16980000000 -0.22595187 0.82448173 -0.00073589303 0.00011802628 -0.00076963182 0.00014248063 0.0011706017 0.047334779
16990000000 -0.20726527 0.83944488 -0.0003109074 0.00077444094 -0.00038300565 0.00073314901 -0.0041382965 0.056780972
17000000000 -0.18826991 0.8516736 0.00034170458 0.0004130218 0.00036489678 0.00047045748 -0.011951767 0.058237202
