!Keysight Technologies,P9374A,MY57211807,A.19.30.04
!Date: Friday, May 01, 2026 14:29:30
!Correction: S11(C  2-Port  ) 
!S21(C  2-Port  ) 
!S12(C  2-Port  ) 
!S22(C  2-Port  ) 
!S2P File: Measurements: S11, S21, S12, S22:
# Hz S  RI   R 50
13000000000 0.049860384 0.091865629 -0.0026068424 0.0011583539 -0.0026160378 0.0010926676 -0.025774628 0.2187525
13010000000 0.048443388 0.098075822 0.00010152557 0.002852994 4.3220236e-05 0.002515892 -0.0027264506 0.21549165
13020000000 0.042968161 0.09405978 0.0018879249 0.0010728632 0.0018976534 0.0010602416 0.01615072 0.1948474
13030000000 0.040706564 0.10173468 0.0015516346 -0.0015781628 0.0015858967 -0.0013604045 0.013494276 0.16027582
13040000000 0.040043719 0.098599821 -0.0011608866 -0.0014815633 -0.00091342442 -0.0016883973 -0.020683315 0.14939716
13050000000 0.043118179 0.10400306 -0.0020377655 0.00049284031 -0.0022197298 0.0003662415 -0.041874997 0.16582125
13060000000 0.046436265 0.095433749 7.8452053e-05 0.0027221139 -4.3604174e-05 0.0026689342 -0.043346316 0.19295006
13070000000 0.04883828 0.096214093 0.002284361 0.0011282224 0.0025056829 0.0011674038 -0.032703638 0.20816696
13080000000 0.046597499 0.086375818 0.0021126191 -0.0017525647 0.0022545939 -0.0018021077 -0.00033172965 0.21763742
13090000000 0.044139542 0.091112591 -0.00034368259 -0.002612086 -0.00020624313 -0.0027874862 0.023397192 0.19449809
13100000000 0.041331865 0.087842137 -0.0022007562 -0.00068498927 -0.0024080703 -0.00059868745 0.01751931 0.15707052
13110000000 0.040464446 0.098576821 -0.0015863059 0.0019541697 -0.0014803356 0.002162298 -0.007366607 0.15699962
13120000000 0.041199315 0.09687943 0.0015103352 0.0016900959 0.0018769514 0.0015980409 -0.030880947 0.16568002
13130000000 0.045462739 0.10606211 0.0018901693 -0.00081968901 0.0016690317 -0.00097027834 -0.040234502 0.18911898
13140000000 0.049289644 0.099826887 -0.00019863364 -0.0024787826 -0.00043840689 -0.0022010577 -0.03674677 0.21662867
13150000000 0.053335074 0.10205425 -0.0028051431 -0.0011405942 -0.0026347055 -0.00093983061 0.0071557909 0.2208899
13160000000 0.052515358 0.091143489 -0.0018044382 0.0024720919 -0.0016363375 0.0021946568 0.032515258 0.19186713
13170000000 0.0514879 0.094191186 0.0014236518 0.0027691708 0.0012429266 0.0026136814 0.028824557 0.16680582
13180000000 0.050174683 0.087914497 0.0026069868 -0.0008890077 0.0024279053 -0.00075750373 0.0061276443 0.15763617
13190000000 0.050943773 0.09378057 -6.9329006e-05 -0.0018167766 0.00017794373 -0.0016307161 -0.015810635 0.15781961
13200000000 0.050978616 0.090587378 -0.001485521 -0.00066101475 -0.0012171224 -0.00084330718 -0.033016313 0.17862353
13210000000 0.055866126 0.097931571 -0.0011469 0.00098652532 -0.0013157893 0.0009268889 -0.017319873 0.21965443
13220000000 0.057994943 0.095102504 0.00050566799 0.0016749203 0.00020978274 0.0018092825 0.021749444 0.21997312
13230000000 0.061315861 0.097830608 0.0017236508 -1.9089668e-05 0.0020057957 0.00028768805 0.046726465 0.19479501
13240000000 0.065701939 0.094930857 0.00081607024 -0.0013942096 0.00079820876 -0.0017122607 0.04939469 0.1695075
13250000000 0.068323039 0.094104208 -0.00079997216 -0.0011872491 -0.00087194669 -0.0015148402 0.032785676 0.1507141
13260000000 0.068302602 0.086048171 -0.0018195477 -0.000222281 -0.0019422667 4.7156151e-05 0.0065249954 0.15038089
13270000000 0.067228831 0.084142283 -0.00083253608 0.0016415326 -0.00073114847 0.0018552155 -0.021328188 0.18050465
13280000000 0.064996362 0.080427021 0.0014706822 0.00084810972 0.0016600967 0.00080772414 -0.00018692017 0.20519264
13290000000 0.063605934 0.080478869 0.0015748969 -0.00095385208 0.0013770148 -0.0011522563 0.036288336 0.21416557
13300000000 0.067009285 0.080803633 -0.00046155212 -0.0015008149 -0.0004887004 -0.0014256726 0.058989711 0.19034621
13310000000 0.069114611 0.08242815 -0.0018918527 -0.00038640155 -0.0017553061 -0.00023330428 0.074839249 0.15999253
13320000000 0.077258177 0.080372505 -0.00080608454 0.0013123213 -0.0007474806 0.0013048972 0.058633044 0.13140741
13330000000 0.081938349 0.077696599 0.00076207548 0.0010749387 0.00058035739 0.001105448 0.028719116 0.13041562
13340000000 0.087492779 0.070915088 0.0015851039 -0.00010381284 0.0014554944 2.5221438e-05 0.0080835968 0.16903757
13350000000 0.082298271 0.064215131 0.0005094948 -0.0016864142 0.00054285838 -0.001681912 0.018451579 0.1929853
13360000000 0.082848839 0.061269194 -0.0013853256 -0.00073447212 -0.001221724 -0.00080727384 0.043868363 0.20673338
13370000000 0.07351891 0.057407744 -0.0013298786 0.00077546784 -0.0015341209 0.00051726017 0.06958285 0.18170705
13380000000 0.074959412 0.062378008 0.00032742432 0.0010141666 0.00025214782 0.0013046846 0.09557981 0.1426779
13390000000 0.071855024 0.059880462 0.0012692396 0.00061272091 0.0014576858 0.00093658973 0.074705087 0.11120734
13400000000 0.078755312 0.062025633 0.0010377323 -0.00053410575 0.0011774193 -0.00097493449 0.038673885 0.11120223
13410000000 0.076918222 0.054692112 -0.00044440501 -0.0016387439 -0.00059587741 -0.0018011304 0.022319909 0.1445833
13420000000 0.087606698 0.0515237 -0.00099574553 0.00089402398 -0.001113447 0.00080377271 0.019345827 0.16564871
13430000000 0.081480898 0.040987067 -0.00017152945 0.00065352092 -0.00019417476 0.00095680408 0.046566419 0.17954212
13440000000 0.087129325 0.037487376 0.00050282956 0.0007160143 0.00093783479 0.00088400883 0.080922417 0.16865954
13450000000 0.075679049 0.030646678 0.0014048452 7.0669557e-05 0.0013266996 -0.00023856875 0.10412167 0.12168641
13460000000 0.077271238 0.031993598 0.00074387976 -0.0020637044 0.00053209381 -0.0022042487 0.08338704 0.088524871
13470000000 0.067079924 0.030558726 -0.0015128042 -0.0014202365 -0.0015945225 -0.0012122286 0.050164878 0.088269658
13480000000 0.071824536 0.03450539 -0.0021199263 0.00091246521 -0.0017734667 0.0010897362 0.023687635 0.11769253
13490000000 0.064283915 0.034992628 0.00039259906 0.0013267241 0.00054898497 0.00096900429 0.018415824 0.14034128
13500000000 0.073878288 0.035325058 0.0012737382 0.00038844915 0.0010881964 0.00031150441 0.042668093 0.15797822
13510000000 0.07209415 0.028406961 0.00067747151 -0.0012683144 0.00067448331 -0.0010788708 0.084976166 0.14697969
13520000000 0.075950347 0.020984698 -0.0010204087 -0.001405552 -0.001045647 -0.001233854 0.10168258 0.10905713
13530000000 0.068572499 0.010606703 -0.001885273 0.0010255468 -0.0018623716 0.00085160683 0.085385963 0.07448639
13540000000 0.066252746 0.0094280299 0.00023531396 0.0021263259 0.0003834322 0.00188834 0.051386889 0.070022963
13550000000 0.056333728 0.0060010757 0.0015432436 0.00035421341 0.0013941538 0.00047993177 0.015330844 0.085327074
13560000000 0.053821217 0.014595278 0.0015818516 -0.00041637139 0.0016334944 -0.00034342956 0.013254277 0.11793689
13570000000 0.052665219 0.018366341 0.00030399507 -0.0012411693 0.00028327084 -0.0013384795 0.037042648 0.14378178
13580000000 0.056075957 0.025223261 -0.001083983 -0.00034349121 -0.0010446827 -0.0004664248 0.078687117 0.12990446
13590000000 0.058441613 0.021299161 -0.00039057498 0.0011803625 -0.00054896285 0.0011590656 0.096572168 0.10146887
13600000000 0.061085168 0.021514606 0.0010217838 0.00058425812 0.00096917606 0.00047820719 0.079369143 0.06840121
13610000000 0.056327205 0.0099180508 0.0012403788 -0.00091269228 0.0012016282 -0.00082748535 0.046787877 0.057249095
13620000000 0.051868018 0.0077674259 -0.00049826736 -0.0014572052 -0.00057892373 -0.0014515559 0.0044446327 0.068539038
13630000000 0.040985484 0.0022811182 -0.0013131769 -0.00052340562 -0.0011049766 -0.00064187159 0.0024299286 0.10492682
13640000000 0.036968939 0.0084802546 -0.0012098353 0.00047876922 -0.0011816018 0.00027159794 0.029470216 0.13511248
13650000000 0.033089139 0.0075565139 0.00023190051 0.0011783893 8.6899498e-05 0.0014267061 0.067075163 0.12489345
13660000000 0.037448075 0.017889302 0.00029905658 0.00041463136 0.00035595117 0.00056204083 0.086413033 0.10265375
13670000000 0.041376922 0.015964393 0.00030152273 -0.00040970472 0.00044812367 -0.00049186341 0.073293194 0.061241999
13680000000 0.049430035 0.019755065 -0.0005066166 -0.00031660515 -0.0004698605 -0.00030239066 0.050368302 0.041034389
13690000000 0.049952924 0.014419075 -0.00057609117 0.00060995523 -0.00070545019 0.00052819907 0.0076367594 0.060859468
13700000000 0.052405536 0.01262165 0.0003453418 0.0012770317 0.0002986418 0.0013985619 8.4601343e-06 0.098835565
13710000000 0.044458773 0.008058019 0.0010831563 0.00058897823 0.0013700314 0.00080815295 0.029109728 0.13128556
13720000000 0.040349744 0.011301608 0.0012375115 -0.00060409284 0.0013770218 -0.0010771879 0.061357647 0.12925673
13730000000 0.03291877 0.0078251502 0.00028042239 -0.00081727147 -4.1199382e-06 -0.0010671597 0.083525129 0.1018106
13740000000 0.028396724 0.018122802 -0.0004087509 -0.00050085201 -0.00073813734 -0.00016990333 0.079317473 0.062808998
13750000000 0.029327771 0.019344429 -0.00068392942 -0.00012829324 -0.00028156122 0.0001109595 0.048861891 0.0376231
13760000000 0.036414549 0.024251375 0.00011789499 0.00069451291 0.00019154558 0.00039172312 0.017210325 0.052222714
13770000000 0.042564761 0.015737452 0.0010668685 -0.00051674037 0.00078318449 -0.00069754408 0.003986042 0.093201146
13780000000 0.047796719 0.014490462 -0.00040983877 -0.001306657 -0.00079791085 -0.0011276321 0.025003355 0.12551929
13790000000 0.049825482 0.0027154733 -0.0010927408 -0.0002197611 -0.00099144853 -0.00011918238 0.05952359 0.12589544
13800000000 0.047039844 0.0027395138 -0.0014541759 -1.1942335e-05 -0.001199537 -8.6820568e-05 0.088918507 0.095112413
13810000000 0.04190103 -0.0027129836 -0.0006154658 0.0014439598 -0.00070300506 0.001236498 0.092454687 0.054298405
13820000000 0.037439842 0.0048204008 0.0012129406 0.0014483965 0.0009861429 0.0016669242 0.061693437 0.035519272
13830000000 0.034809541 0.0073635522 0.001031168 -0.00059235282 0.001143361 -0.00035962404 0.02774315 0.042037759
13840000000 0.036527306 0.017196823 -0.00069796649 -0.00069514679 -0.00039955904 -0.00073496241 0.014733732 0.078654461
13850000000 0.043385141 0.011036733 -0.00093651557 0.00055486499 -0.00096390105 0.00053552492 0.023492964 0.11376268
13860000000 0.044990692 0.010900545 0.00044377166 0.0010729008 0.00021340535 0.0010860206 0.064299867 0.1146588
13870000000 0.048548218 -0.00074816821 0.0016076737 0.00075392419 0.0017929233 0.00086422282 0.097074434 0.087332658
13880000000 0.045950547 -0.0066189962 0.0016526526 -0.00093409594 0.0017841706 -0.0012096914 0.098855682 0.040436678
13890000000 0.043479182 -0.0165805 6.9116242e-05 -0.0019150559 -0.00019639463 -0.0019385519 0.074105464 0.021663681
13900000000 0.035756025 -0.015538578 -0.0012481897 -0.00084939657 -0.0011955337 -0.00079306221 0.036451243 0.026219454
13910000000 0.035528459 -0.016254583 -0.00071262434 0.00074651366 -0.00046351526 0.00067999249 0.015539628 0.051683798
13920000000 0.030297494 -0.010466003 0.0004105281 0.0005767906 0.00049958163 0.00041662628 0.023156134 0.082340278
13930000000 0.036087882 -0.0072433013 0.00088519783 -0.00058168411 0.00068785471 -0.0006752772 0.069007874 0.095106401
13940000000 0.035852794 -0.0059721153 -0.00043145911 -0.0017118029 -0.00063436985 -0.0014436292 0.099168971 0.071740136
13950000000 0.040876944 -0.0090515204 -0.0022791617 -7.4007025e-05 -0.0020200096 8.4907573e-05 0.10513118 0.028747365
13960000000 0.035752151 -0.014738076 -0.001155508 0.0021829624 -0.00096255128 0.001868553 0.078365073 0.0064531006
13970000000 0.036291398 -0.022892842 0.00095321494 0.0012879065 0.00057619321 0.0011884768 0.036480829 0.0020143501
13980000000 0.024248015 -0.029763129 0.0011540833 -6.0006336e-05 0.00090486201 4.340522e-05 0.017258354 0.025814261
13990000000 0.019924326 -0.033775516 -0.00019858938 -0.00045054097 0.00017511647 -0.00036331601 0.016431196 0.063507348
14000000000 0.0083726849 -0.035312377 -0.00037145874 0.00062786747 -0.0001683127 0.00057132577 0.055294178 0.073998831
14010000000 0.010493203 -0.03095977 0.00040947858 0.00090968417 0.00030407036 0.00066206325 0.083811596 0.056751981
14020000000 0.0078635952 -0.029938985 0.0017016924 8.4791565e-05 0.0013219982 0.00041830898 0.093706921 0.016084785
14030000000 0.017632235 -0.026769094 0.00059236237 -0.0011424155 0.00088080566 -0.00082304562 0.068873547 -0.011371493
14040000000 0.017458461 -0.028461048 4.5772642e-05 -0.00094810873 0.00018804992 -0.0013246586 0.028616136 -0.024313355
14050000000 0.02371051 -0.031242969 -0.0005278436 -0.00034213858 -0.00069716404 -0.00032371108 0.0024429713 0.0015831824
14060000000 0.017328937 -0.037057474 0.0004431259 -0.00029615551 0.00020986366 -5.0858998e-05 0.00096473843 0.036597013
14070000000 0.010588371 -0.039411478 -0.00021638826 -0.00070538302 -1.5289936e-05 -0.0005305743 0.033918425 0.057488121
14080000000 -0.003052481 -0.038195141 -0.001026246 -0.00081480877 -0.00063368317 -0.00087797421 0.059708569 0.046223164
14090000000 -0.00924851 -0.033179551 -0.00091530918 -0.0002049639 -0.0011899895 -0.0003086412 0.071236983 0.0051588323
14100000000 -0.019108273 -0.028887935 -0.00099337287 0.00084045762 -0.0010632381 0.0010578947 0.052718222 -0.032010589
14110000000 -0.019242495 -0.022452841 0.00012946324 0.0008360598 0.00025083969 0.001061213 0.016745057 -0.043061942
14120000000 -0.017143514 -0.023221571 0.00010303405 0.00032752886 0.00018868956 7.1822651e-06 -0.011958368 -0.017179266
14130000000 -0.012446277 -0.025425747 -0.00017967861 0.00043094662 -0.0003821594 0.00053397234 -0.016863089 0.020670889
14140000000 -0.013316223 -0.031714823 -0.00025715522 0.00086194678 -8.8809946e-05 0.0009145622 0.0085752867 0.04453047
14150000000 -0.013361914 -0.034415785 0.0005649926 0.0011026346 0.00064231444 0.0012585623 0.03927331 0.039288841
14160000000 -0.018680461 -0.039729055 0.0016038611 0.00047219498 0.0016059385 0.00017328159 0.055036355 0.001779424
14170000000 -0.026777435 -0.035084389 0.0013238383 -0.00052211463 0.0012539467 -0.00058652135 0.045444019 -0.034479562
14180000000 -0.03316351 -0.031291097 0.00025816838 -0.0011417558 0.00018659246 -0.0011002782 0.010150112 -0.044177458
14190000000 -0.036384381 -0.017789859 -2.3955334e-05 -0.0010573651 3.3660996e-05 -0.00091728114 -0.025013871 -0.019839447
14200000000 -0.037918389 -0.013141729 -0.00041184292 -0.0003140046 -0.00038906021 -0.00045475911 -0.034181826 0.020534245
14210000000 -0.034096904 -0.0045450721 8.9840905e-05 -0.00021801463 4.634021e-06 -0.00030596156 -0.01668407 0.052277334
14220000000 -0.03097536 -0.010959899 -0.00013932647 -0.00049720716 -0.0003336246 -0.00043491431 0.013130315 0.040412825
14230000000 -0.029509569 -0.011817448 -0.00061794033 -0.00091407506 -0.00043151571 -0.0009800191 0.039567407 0.0094518242
14240000000 -0.03053822 -0.023202624 -0.0013562974 -0.00020911981 -0.0012594893 -9.7289216e-05 0.028225649 -0.023890218
14250000000 -0.037546951 -0.021526575 -0.0014647602 0.00041519682 -0.001434444 0.00037112151 -0.0024458542 -0.041974656
14260000000 -0.045690835 -0.025796341 -0.00024192402 0.0016312423 -0.00017498829 0.0017247259 -0.038306322 -0.021168528
14270000000 -0.046893783 -0.012453442 0.00051111926 0.001124935 0.000466483 0.0010420198 -0.052966155 0.016304767
14280000000 -0.047809891 -0.011197311 0.00058917532 0.00032144206 0.00059706694 0.00039549512 -0.0311714 0.047114745
14290000000 -0.041880306 0.0052889562 0.00042625237 0.00011932198 0.00059907045 6.2674924e-05 0.0044713267 0.043953311
14300000000 -0.036400784 0.0031710765 -6.0142018e-05 -5.8423713e-05 3.4398941e-05 0.00010526628 0.02968506 0.015851561
14310000000 -0.030489858 0.0098832101 0.00034702243 0.001191062 0.00037560001 0.00087989034 0.028232645 -0.01451043
14320000000 -0.031608198 -0.0043059755 0.00163596 0.0002523326 0.0014249984 0.00033606839 0.00033429079 -0.034251653
14330000000 -0.032915298 0.00014729239 0.0013542406 -0.0011437114 0.0013972542 -0.0010375986 -0.042759016 -0.018497108
14340000000 -0.041404471 -0.010558011 -0.00010704744 -0.0018155908 0.00025562471 -0.0019191626 -0.06112637 0.012159277
14350000000 -0.046289846 -0.0031735767 -0.0013404503 -0.0010553085 -0.0014980953 -0.0012091055 -0.03650295 0.043266725
14360000000 -0.050714213 -0.0052618175 -0.0008803393 0.00044258602 -0.00099828769 0.0002895924 -0.0015791852 0.048186295
14370000000 -0.047636271 0.005327017 0.00012507867 0.00052410993 -0.00011551818 0.00096698431 0.025282394 0.024853311
14380000000 -0.044216972 0.0029213214 4.8627e-05 -0.00081971317 0.00052867085 -0.00063248101 0.026664747 -0.0041744136
14390000000 -0.033957966 0.011894535 -0.0012580343 -0.0012291875 -0.0010792674 -0.0014157651 0.0002762638 -0.033889662
14400000000 -0.028542049 0.003102948 -0.0016009347 0.00045684259 -0.0017607245 0.00022449723 -0.03885996 -0.026831757
14410000000 -0.026391245 0.0051477524 -0.00066523254 0.0017729278 -0.00098340504 0.0021717532 -0.057070889 0.0047775544
14420000000 -0.028089739 -0.0018685223 0.00070235675 0.001428499 0.00094815332 0.0017077348 -0.040974364 0.039673194
14430000000 -0.033189509 -0.00059867289 0.0013714177 0.00013758695 0.0017334548 -4.6383131e-05 -0.0087935524 0.048525259
14440000000 -0.041563187 -0.0021585058 0.00036129716 -0.00084908737 0.00047233392 -0.0011915368 0.021069184 0.030801112
14450000000 -0.047440343 0.0059967581 -0.00032579983 9.8388191e-06 -0.00084141287 0.00016020406 0.024468817 -0.0018699197
14460000000 -0.048635844 0.006568931 0.00035088143 0.0005780413 0.00016610936 0.00087020086 -0.001754446 -0.033394858
14470000000 -0.047722377 0.0092372764 0.001075548 0.00051326596 0.0014209492 0.00070655555 -0.036704198 -0.0406354
14480000000 -0.043367621 0.0082788952 0.0015136369 -0.000466912 0.0017544699 -0.001005433 -0.055663854 -0.0093834037
14490000000 -0.038079794 0.0051626395 0.0006671031 -0.0020426128 0.00017802831 -0.002161413 -0.050432958 0.027365796
14500000000 -0.033340529 -0.0027783716 -0.0011855345 -0.0014356159 -0.0014669114 -0.0011763767 -0.01690859 0.043249089
14510000000 -0.036946423 -0.0065970821 -0.0016546032 5.099515e-06 -0.0014272247 0.00035456492 0.010708746 0.028762287
14520000000 -0.037835352 -0.010204438 -0.00058525661 0.0011517081 -0.00028621277 0.0010682559 0.015382257 -0.01126972
14530000000 -0.046337575 -0.008763643 0.00043519249 0.00031028298 0.00040203577 -0.00026496412 0.0011254027 -0.040876664
14540000000 -0.04892464 -0.002309585 0.00014858419 -0.00076541788 -0.00037676335 -0.00046890383 -0.034329321 -0.048492324
14550000000 -0.054109856 0.0043322016 -0.0013802077 -0.00055067032 -0.0010937309 -0.00022275711 -0.06243477 -0.0248897
14560000000 -0.052972876 0.011427001 -0.0015285905 0.0010954635 -0.0011109496 0.00097065506 -0.063750893 0.018418428
14570000000 -0.053587899 0.012050078 0.00054355437 0.0017038905 0.00028602284 0.0013316658 -0.035380885 0.039285973
14580000000 -0.04815584 0.010149614 0.00086986832 0.00090693095 0.00092687254 0.0010427779 -0.0091406479 0.026080275
14590000000 -0.05146059 0.0026045777 0.0010631346 0.00017337684 0.001091374 0.00025960596 -0.00050774217 -0.016214885
14600000000 -0.051437747 -0.0018434394 0.00076644431 -0.00075517496 0.00081853644 -0.00052173709 -0.0080442792 -0.043855652
14610000000 -0.060069226 -0.010073878 -0.00020474142 -0.0004158768 -0.00013454648 -0.00062540348 -0.043122098 -0.05616907
14620000000 -0.064040095 -0.0056874659 -2.8776718e-05 0.00047997135 5.5062985e-05 0.00022790756 -0.073758669 -0.03330756
14630000000 -0.0734099 -0.0020735059 0.0011305427 -0.0002522158 0.00071216119 -0.00026761717 -0.08585158 0.010010719
14640000000 -0.06767413 0.0094058393 0.00085865095 -0.00076272868 0.00098478736 -0.00052615692 -0.06067539 0.03217271
14650000000 -0.070000477 0.014950011 -0.00020687282 -0.0017709893 -5.0281e-05 -0.0019090496 -0.02884968 0.023179792
14660000000 -0.062394496 0.020773742 -0.0013079168 -0.00075580727 -0.0013410712 -0.00074453169 -0.015941 -0.0070773377
14670000000 -0.064578786 0.020007154 -0.0012850146 0.0002895025 -0.001252383 0.00030765496 -0.024601754 -0.037198514
14680000000 -0.060249742 0.018393086 -0.00014186351 0.00068883819 -0.00019855198 0.00071522204 -0.056985404 -0.050678063
14690000000 -0.072110198 0.01284362 0.00027026993 -6.2877603e-05 8.5277017e-05 0.00037289583 -0.095024101 -0.035028365
14700000000 -0.072067119 0.013780836 -0.00049908157 0.0004017824 -0.00034744572 0.00013313576 -0.1079375 0.0071362499
14710000000 -0.086494565 0.014179114 -0.00054306892 0.00034957385 -0.00017803814 0.00020434092 -0.087179109 0.033591062
14720000000 -0.085103959 0.020642765 1.1717246e-05 0.0011176961 -0.00037649204 0.0010727204 -0.051913843 0.030485025
14730000000 -0.089369155 0.026252721 0.00064125168 0.00043876286 0.00063648785 0.00059688679 -0.03145355 0.0073769987
14740000000 -0.079930641 0.03416435 0.00065514713 0.000139462 0.00080049568 0.00026469943 -0.037158094 -0.021855231
14750000000 -0.078669205 0.036788911 0.00045470829 -0.00024084107 0.00047848938 -0.00018817709 -0.066158734 -0.037811913
14760000000 -0.066260681 0.041564636 0.0008695689 -0.00010830301 0.0007032518 -0.00038464449 -0.10876217 -0.023332862
14770000000 -0.069750875 0.037644994 -0.00023273179 -0.00045170842 -0.00018674679 -0.0007079913 -0.12272046 0.0087108072
14780000000 -0.065595113 0.039856937 0.00039564425 -0.00057971809 0.00021317408 -0.00015454133 -0.10135966 0.045931384
14790000000 -0.075762071 0.037010737 -0.00017392283 -0.00053452566 3.033354e-05 -0.00035154194 -0.069748983 0.054331861
14800000000 -0.079456918 0.045387879 2.3844877e-05 -0.00028786322 0.0002348191 -0.00056805206 -0.041339103 0.034099266
14810000000 -0.089566343 0.050391786 -0.00037511523 -0.00046944592 -0.00057911547 -0.00039390259 -0.047598597 0.0044261739
14820000000 -0.08502692 0.062652916 -0.00084984291 -0.00027977006 -0.0010428864 -0.00031966841 -0.075694919 -0.022760892
14830000000 -0.083489284 0.063156225 -0.0006686892 0.00056929002 -0.00063925376 0.00078116392 -0.10979082 -0.010571595
14840000000 -0.071567059 0.067380331 -0.00023486238 0.00062476465 -0.00019591076 0.00064250006 -0.12624738 0.017815033
14850000000 -0.065501921 0.061301269 0.00031309418 0.00050572108 0.00055518199 0.0005030199 -0.10964075 0.058476008
14860000000 -0.05853568 0.059567656 -0.00034522527 1.7021361e-05 -0.00050188549 -7.6140641e-05 -0.076388344 0.076295502
14870000000 -0.060137078 0.051611751 2.6557769e-05 0.00065047434 -9.9967379e-05 0.00071303768 -0.040738478 0.061035462
14880000000 -0.058163691 0.057054818 0.00057184935 0.0008458487 0.00064271031 0.0010129396 -0.044765081 0.028649876
14890000000 -0.062866859 0.057934638 0.0012395633 -6.9184869e-05 0.001244962 1.3767334e-05 -0.068674296 -0.0020820107
14900000000 -0.060053028 0.072172776 0.00028787286 -0.00072137796 0.00033291714 -0.00081292045 -0.09808097 0.0017375443
14910000000 -0.05753557 0.076766625 -0.00052248553 -0.00060906087 -0.00075303233 -0.00088660145 -0.11749905 0.029504705
14920000000 -0.053525146 0.084537171 -0.00061840721 0.00043405042 -0.00073396816 0.00057221577 -0.10603291 0.073065594
14930000000 -0.046453819 0.08224225 0.000560507 0.00050792081 0.00065357587 0.00059207599 -0.076967135 0.096319661
14940000000 -0.04142464 0.081851341 0.00039968843 -0.00060658215 0.00071370357 -0.000537146 -0.0398243 0.079458386
14950000000 -0.039989538 0.070654228 -8.2362996e-05 -0.00073307438 -0.00013606279 -0.00092218356 -0.034307182 0.041288301
14960000000 -0.042507097 0.067951135 -0.0010826796 -0.00046109181 -0.0013744725 -0.00063963758 -0.049242605 0.008490188
14970000000 -0.042242095 0.060313277 -0.00097416504 0.00066807208 -0.00071487454 0.00091541576 -0.0791701 0.0055848993
14980000000 -0.046236325 0.061332408 0.00047425795 0.0010863382 0.00053453213 0.001089575 -0.10454898 0.032407422
14990000000 -0.042504311 0.060981024 0.0010420871 -0.0001724391 0.0009126598 -0.000168086 -0.098300911 0.078310624
15000000000 -0.04165262 0.068987429 8.9018024e-05 -0.00078346883 -3.045128e-05 -0.00092282175 -0.068769097 0.10022676
15010000000 -0.031001911 0.070677429 -0.00076813257 -0.00030587113 -0.00087470078 -0.00030611019 -0.033270329 0.087731048
15020000000 -0.024342891 0.071166933 -0.00045252914 0.0011421602 -0.00046491661 0.0011632785 -0.021759463 0.049929723
15030000000 -0.016651187 0.066032812 0.00063935958 0.00096495135 0.00054827146 0.00096664217 -0.029108195 0.012708432
15040000000 -0.019168532 0.061745889 0.0011387409 -0.00048124121 0.0012015474 -0.00042761763 -0.064672485 0.0011116527
15050000000 -0.019138115 0.054288574 3.7541562e-05 -0.00096112106 9.6387113e-05 -0.0011272844 -0.095396571 0.03081117
15060000000 -0.030377522 0.053890646 -0.001248987 -0.00017887383 -0.0011255423 -0.00033122784 -0.098278426 0.07393384
15070000000 -0.033828795 0.050990965 -0.00041592386 0.000789051 -0.00061118929 0.00094293314 -0.070729032 0.09152294
15080000000 -0.041198008 0.056298811 0.00098559726 0.00026608366 0.00085913343 0.00034779735 -0.03467457 0.081316419
15090000000 -0.03580625 0.056730937 7.2426337e-05 -4.3495122e-05 0.00036875281 5.2369418e-05 -0.012289939 0.048195206
15100000000 -0.034330077 0.059816681 0.00042257024 -0.00072288804 0.00042037698 -0.00077686209 -0.018429911 0.007023517
15110000000 -0.02373375 0.053749476 -0.00068162725 -0.00052483386 -0.00090247433 -0.00084234902 -0.055697076 -0.0043153013
15120000000 -0.024107628 0.050083354 -0.00059599231 0.00021736552 -0.00068066013 0.00046452659 -0.091421612 0.019444907
15130000000 -0.019578706 0.042255998 5.3866657e-05 0.00060442829 0.00013796726 0.00065728975 -0.09752129 0.063917279
15140000000 -0.026141763 0.040389016 0.00055350194 -0.00032414525 0.00076645159 -0.00033632992 -0.077990972 0.082927346
15150000000 -0.030480254 0.037638836 0.00029418225 -0.00040475017 0.00036017969 -0.00072436966 -0.042544406 0.083280206
15160000000 -0.040769517 0.044914227 -0.00032414403 -0.00084616744 -0.0004497671 -0.00079811434 -0.017878894 0.051457919
15170000000 -0.03913065 0.048499178 -0.00084048143 0.000575735 -0.0011210706 0.00067567185 -0.02195514 0.013773803
15180000000 -0.044868842 0.058215737 -0.00060615386 0.00077411166 -0.00021281096 0.00073336042 -0.064936653 -0.0027444661
15190000000 -0.035816282 0.058883492 0.000348751 0.00046971539 0.00042859602 0.00060067879 -0.10008386 0.011483455
15200000000 -0.035602033 0.059764717 0.00059105735 0.0002050992 0.00033223044 1.1235607e-05 -0.10957809 0.05165457
15210000000 -0.029219795 0.05150374 0.00050949753 -0.00034506188 0.00033619278 -0.00040193615 -0.093100876 0.079847977
15220000000 -0.033928566 0.047746632 -0.00016498267 -0.0001878225 -0.00014157606 -3.2076496e-05 -0.053181008 0.087366544
15230000000 -0.034238689 0.041439138 -0.0006049074 0.00021727225 -0.00042670596 -4.6442103e-05 -0.027253699 0.063060068
15240000000 -0.044547122 0.044123739 0.00013476709 0.0010561571 0.00029371458 0.00078636711 -0.026360411 0.026441356
15250000000 -0.042825669 0.049105778 0.0010746387 0.00029493455 0.0010560389 0.00048523059 -0.065405555 0.010508046
15260000000 -0.047214814 0.057309695 0.00084964331 -0.0010443155 0.0007900286 -0.00092224148 -0.10239759 0.020056194
15270000000 -0.039300486 0.064183682 -0.00045740616 -0.0010421542 -0.00043305801 -0.0010820332 -0.11674394 0.057436161
15280000000 -0.036386162 0.0690732 -0.0012620073 -0.00031680538 -0.001034386 -0.00032534616 -0.10091406 0.095748477
15290000000 -0.025612619 0.069340773 -0.00054484321 0.00047717028 -0.00064477476 0.00050236908 -0.061351582 0.10939656
15300000000 -0.027597535 0.06370531 0.00032089074 0.00068802305 3.0539115e-05 0.00061667094 -0.037872348 0.08748167
15310000000 -0.022354309 0.060550556 0.00056762807 -0.00046108587 0.0010008927 -0.00036502164 -0.034812868 0.047853973
15320000000 -0.032332547 0.053684201 -0.00043745025 -0.00049488671 -0.00035040206 -0.00064027461 -0.062819384 0.025104634
15330000000 -0.033411924 0.057777833 -0.00059043808 -0.00023050531 -0.00076196075 -0.00023472984 -0.091750689 0.029163482
15340000000 -0.041080937 0.060084447 -0.00052007567 0.00066679606 -0.00063784269 0.00074916938 -0.1134228 0.064822771
15350000000 -0.032347701 0.068974741 0.00011472771 0.0008208775 0.00027834979 0.0010369403 -0.09373644 0.10844818
15360000000 -0.031969652 0.070784725 0.001255911 0.00031885845 0.0014176755 0.00047729968 -0.058043886 0.12970501
15370000000 -0.014340099 0.075524107 0.00037752534 -0.00034744144 0.00061282853 -0.00082344405 -0.029204939 0.10729355
15380000000 -0.011143271 0.067255415 -1.0913151e-05 -0.00071974378 -0.0003372361 -0.00062885031 -0.023997478 0.073943906
15390000000 -0.0025097504 0.062672459 -0.00057866628 8.6782755e-05 -0.0008592435 0.00012695644 -0.045815378 0.04300569
15400000000 -0.0082708988 0.052922036 -0.00050934742 0.00055478583 -6.5137501e-05 0.00099217158 -0.073041968 0.041121747
15410000000 -0.0086849071 0.053951211 0.0010668859 0.0011227145 0.0014813306 0.00065386953 -0.099738553 0.076276511
15420000000 -0.016828731 0.050700329 0.0014366646 -0.0010003356 0.00093020272 -0.0015014152 -0.086032785 0.11781924
15430000000 -0.013408013 0.059031673 -0.00053303072 -0.0017720675 -0.00091481116 -0.0014401025 -0.054966502 0.13624467
15440000000 -0.01588168 0.059937302 -0.0016327056 -2.5716145e-06 -0.0015537901 0.00034829124 -0.019923225 0.11437008
15450000000 -0.0026725959 0.063900277 -0.001052742 0.00095811178 -0.00062901282 0.0011513317 -0.002913408 0.082156949
15460000000 0.0019712895 0.057023451 0.00073940272 0.0018640783 0.0010599116 0.00094215479 -0.014091838 0.04613106
15470000000 0.010970447 0.052061114 0.0015312562 -0.00051595195 0.00083893747 -0.00052011176 -0.044946171 0.042059023
15480000000 0.010194676 0.039746713 -0.00041913631 -0.0018958155 -0.00071430753 -0.0012073688 -0.074549742 0.078562677
15490000000 0.011679035 0.035632491 -0.001712737 9.0806221e-05 -0.00098380994 0.00026833051 -0.065081254 0.11536331
15500000000 0.0029762154 0.029377511 -0.00069970544 0.0017116345 -0.00049353612 0.0011995037 -0.037636254 0.13915382
15510000000 0.0026466521 0.030420557 0.001124916 0.0013761781 0.00070697651 0.0011353206 -0.006079495 0.1241547
15520000000 -0.0025803354 0.034208983 0.0017132821 -0.00059157476 0.0012758512 -0.00026991704 0.019591093 0.090337619
15530000000 0.0021240301 0.0367775 0.00044888581 -0.0012021933 0.00068363023 -0.00074027537 0.0059629679 0.049280372
15540000000 0.0039702547 0.035251591 -0.0011283723 -0.00085514027 -0.0008383051 -0.00090585655 -0.0302242 0.042221051
15550000000 0.012697207 0.031191759 -0.00062557106 0.00052189041 -0.00091971428 3.8161466e-05 -0.061950218 0.067405537
15560000000 0.011402413 0.022861745 0.00033855293 0.0011622679 -6.9258211e-05 0.00099345448 -0.058159243 0.098970532
15570000000 0.016464707 0.012288952 0.00078029069 1.7413549e-05 0.0008740013 0.00046306607 -0.031381778 0.11958505
15580000000 0.0073986705 0.0025129057 0.00077019655 -0.00070483715 0.0011455028 -0.00073726691 0.0093792155 0.11647471
15590000000 0.004629815 -0.0027032257 -9.9574856e-05 -0.0015692583 -0.00032041525 -0.0018459483 0.036927074 0.085555382
15600000000 -0.0052954392 -0.0016280205 -0.0016366591 -0.00030291767 -0.0019724718 -0.00026183703 0.023622822 0.045825351
15610000000 -0.005063015 0.00083331804 -0.0011432812 0.0014792448 -0.0011394989 0.0016873262 -0.014876958 0.032822732
15620000000 -0.0068164626 0.006469171 0.00065457646 0.0015077346 0.00077135651 0.0013814474 -0.045967817 0.050781008
15630000000 0.0012896861 0.0042112279 0.0016428336 -0.00035191324 0.0016571478 -0.00025185483 -0.051220663 0.080293134
15640000000 0.0025422936 0.0027357067 0.00024888292 -0.0015567055 0.00016133883 -0.0015488178 -0.030680753 0.10845686
15650000000 0.0062276246 -0.0080622565 -0.0016886375 -0.00063401845 -0.0015587326 -0.00052253075 0.0084392652 0.10956851
15660000000 0.00040614232 -0.014844952 -0.001255699 0.001644371 -0.0014136278 0.0017430467 0.035362054 0.081325218
15670000000 -0.008631235 -0.025138073 0.0012076569 0.0016332936 0.0012781788 0.0015462339 0.02157633 0.039591275
15680000000 -0.018488064 -0.024163179 0.0018065047 -0.00032677775 0.0017603576 -0.00031660034 -0.0089888871 0.018430173
15690000000 -0.026870875 -0.027251367 0.00073958596 -0.0019572016 0.00073176168 -0.0018848008 -0.042879861 0.028507834
15700000000 -0.029835111 -0.018466046 -0.0014263764 -0.001245426 -0.0014549242 -0.0013727871 -0.049164187 0.058440596
15710000000 -0.02956224 -0.018857803 -0.0017706024 0.0010416014 -0.0019256086 0.0010856411 -0.029579539 0.096690081
15720000000 -0.023366868 -0.016892631 0.00098538026 0.001557732 0.0012443697 0.0018227617 0.0067701153 0.10477388
15730000000 -0.021958312 -0.024501206 0.0017970491 -0.00014928647 0.0016625951 -0.00036434387 0.027024016 0.08315286
15740000000 -0.017155239 -0.027358476 0.00023609026 -0.0016171287 0.00040138562 -0.0017992372 0.022353435 0.040002815
15750000000 -0.025017558 -0.039098423 -0.0012443238 -0.001481549 -0.0013601758 -0.0012693075 -0.0027995408 0.013836416
15760000000 -0.030320022 -0.038526703 -0.0015999798 0.0012592464 -0.0015318146 0.0012162346 -0.038405079 0.017800111
15770000000 -0.044901632 -0.042462286 0.0001043487 0.0016616373 0.00035060247 0.0017154447 -0.053390488 0.056863181
15780000000 -0.047654215 -0.033733785 0.0021082982 0.0004382988 0.002019559 0.00011816079 -0.038865123 0.093718216
15790000000 -0.059189487 -0.030987073 0.00069866981 -0.0014854826 0.0004958926 -0.0014439459 -0.0065917633 0.099825181
15800000000 -0.053486686 -0.021865934 -0.0011964544 -0.0012200593 -0.0012526993 -0.00090882101 0.014215877 0.081071213
15810000000 -0.055569179 -0.025935508 -0.0016551318 0.0006683073 -0.0012355365 0.00070483575 0.019296881 0.042353179
15820000000 -0.045701958 -0.027281342 0.00030741212 0.0017740979 0.00014238253 0.0015644734 0.00018776493 0.010696557
15830000000 -0.0512226 -0.040590838 0.0014922279 0.00056480151 0.0014998292 0.00059457053 -0.035748072 0.012853895
15840000000 -0.049117908 -0.045209996 0.0009638968 -0.0014353271 0.00090722367 -0.0012311653 -0.050584625 0.055147085
15850000000 -0.064383715 -0.055604544 -0.0007614583 -0.0010547759 -0.00083859911 -0.0010494911 -0.044524789 0.094207317
15860000000 -0.067867599 -0.049056318 -0.0012925818 -0.00015459483 -0.0010933306 -0.00028692596 -0.015124172 0.10054309
15870000000 -0.080202527 -0.046571072 -0.00057651429 0.001243916 -0.00069482106 0.0010996197 0.0099101216 0.088287286
15880000000 -0.073146097 -0.032399952 0.0012266072 0.0010430292 0.00086497533 0.0013742001 0.025623668 0.052887458
15890000000 -0.074441582 -0.030365579 0.0014008109 -0.00082090381 0.0016397784 -0.00073812751 0.0091622211 0.022261873
15900000000 -0.063019477 -0.025380746 -0.00021535084 -0.00139446 -0.00013165816 -0.00153231 -0.031920694 0.022224627
15910000000 -0.066301562 -0.035888746 -0.0011966882 -0.0002936958 -0.0013066444 -0.00031527996 -0.04824385 0.0576782
15920000000 -0.063950121 -0.042310171 -0.00074937509 0.00092134054 -0.00088997203 0.0009836948 -0.041142594 0.088245034
15930000000 -0.079146482 -0.052019719 0.00064910611 0.0012969347 0.00074846658 0.0013030944 -0.01360957 0.10300604
15940000000 -0.083970733 -0.052909058 0.0014938067 -0.0001109126 0.0016126181 -0.00015906722 0.016707685 0.097498573
15950000000 -0.10044307 -0.054406933 0.00014805661 -0.0016922364 0.00025976563 -0.0016695183 0.036838923 0.06746389
15960000000 -0.099679805 -0.046034396 -0.0015064487 -0.00065506314 -0.0019145096 -0.00081736693 0.019863268 0.035132401
15970000000 -0.10244392 -0.045167744 -0.0011061708 0.0013799686 -0.00092997198 0.0015766378 -0.019882651 0.033101231
15980000000 -0.092988968 -0.040874667 0.0005255579 0.001042006 0.00083243044 0.0011422144 -0.041478194 0.054083399
15990000000 -0.090466961 -0.046108373 0.0010574555 0.00027033291 0.0010949443 -5.9244921e-05 -0.03832617 0.081166521
16000000000 -0.084094919 -0.051224057 7.2738214e-05 -0.0011467831 1.3241312e-05 -0.0010308695 -0.012669966 0.10175477
16010000000 -0.091587707 -0.062837198 -0.00089125324 -0.00075313944 -0.00069071027 -0.000439714 0.024285555 0.10086741
16020000000 -0.097445585 -0.063298538 -0.00099135574 0.00087243837 -0.00084725791 0.00073840172 0.043656394 0.071309827
16030000000 -0.11193541 -0.068183295 0.00047932458 0.0012159973 0.00044671819 0.0010756631 0.028815655 0.038332544
16040000000 -0.12240733 -0.059477583 0.0011643091 -0.00010139996 0.0010430821 0.00011977801 -0.0037690476 0.02779343
16050000000 -0.12898329 -0.055823013 0.00088231132 -0.00095729338 0.00086363463 -0.00089084607 -0.021959757 0.041226029
16060000000 -0.12963897 -0.050856899 -0.00048404839 -0.00074354646 -0.00033290303 -0.0009172936 -0.026260974 0.071034417
16070000000 -0.13047712 -0.054215342 -0.00085009943 -0.00038439146 -0.0009660864 -0.00019905786 0.00095754489 0.099300444
16080000000 -0.12715802 -0.055885557 -0.00015880122 0.00080184545 -0.00020707608 0.00072551705 0.033818353 0.10187034
16090000000 -0.12925546 -0.069821775 0.00083492463 0.00030898483 0.00074272143 0.0003441411 0.051332489 0.076462969
16100000000 -0.1354727 -0.074946716 0.00065556215 -0.00074756029 0.00076825719 -0.00069793564 0.035504106 0.041959133
16110000000 -0.14659309 -0.08235538 -0.00071578874 -0.00072998495 -0.00081976748 -0.00092256418 0.014036221 0.021813707
16120000000 -0.15543634 -0.077501282 -0.0009560787 4.5603199e-05 -0.0013315614 0.00021082017 -0.012004204 0.025383886
16130000000 -0.16606948 -0.07574214 -0.00069189887 0.0012846089 -0.00047392613 0.0013090421 -0.018402159 0.056769304
16140000000 -0.1716298 -0.064835317 0.00056185015 0.0011421667 0.00072386907 0.0010377994 0.0021962039 0.088870898
16150000000 -0.17410213 -0.063191459 0.00099814567 -8.8923203e-05 0.00081596564 -0.00013388904 0.028544998 0.090600349
16160000000 -0.17644003 -0.057457469 0.0001683796 -0.00084450026 0.00027247623 -0.00082025718 0.049670592 0.063206859
16170000000 -0.17845732 -0.061499812 -0.0007325029 -0.00034965732 -0.00067538937 -0.00011752185 0.047601715 0.033203185
16180000000 -0.18693317 -0.067126229 -0.00038410234 0.00077172765 -0.00040371306 0.00090410665 0.028093781 0.0069697769
16190000000 -0.1974038 -0.074349001 0.00081708428 0.0011343418 0.00083350117 0.00081821671 0.0036903415 0.01312645
16200000000 -0.20931637 -0.073980086 0.0016281453 -0.00054419006 0.0014555233 -0.00059009518 -0.013220288 0.045975275
16210000000 -0.22120765 -0.078719966 0.00016738236 -0.0014486435 1.3609009e-05 -0.0013904567 0.0012288578 0.077727586
16220000000 -0.23304175 -0.068935312 -0.0014100377 -0.001109919 -0.0011116549 -0.0010609077 0.017206727 0.086234182
16230000000 -0.23496859 -0.063998498 -0.00053642236 0.00065031368 -0.00063016725 0.00057311391 0.036124479 0.063107967
16240000000 -0.23930119 -0.055166639 0.00021143918 0.00069830217 9.9403609e-05 0.00071577006 0.045416113 0.029477704
16250000000 -0.23839614 -0.054945484 0.00090300117 -0.00031138523 0.000978795 -0.00018053981 0.029434849 0.00080112368
16260000000 -0.24346119 -0.048063897 -0.00018245945 -0.0010624536 -0.00027132139 -0.0011699643 0.000547298 0.0058309194
16270000000 -0.24661142 -0.050799765 -0.0013481489 -0.0004343098 -0.0011938913 -0.00026506445 -0.022008523 0.032927275
16280000000 -0.26048464 -0.047007669 -0.00079206249 0.0011111001 -0.00078496052 0.00094172085 -0.01648994 0.058421131
16290000000 -0.27179343 -0.048527226 0.00035858795 0.0013120761 0.0002979188 0.0014599672 0.0066728005 0.066267982
16300000000 -0.28857982 -0.038901251 0.0011752505 0.00041862158 0.0011771671 0.00041224679 0.032662798 0.058447752
16310000000 -0.29762608 -0.035974838 0.00056888489 -0.00053701905 0.00069646351 -0.00072682893 0.048832543 0.029021438
16320000000 -0.30957767 -0.023650713 -0.00011389656 -0.00040071426 -0.00037477681 -0.00050606119 0.031160809 0.0049539329
16330000000 -0.31012225 -0.019437 -0.0004830824 0.00018752791 -0.00047662464 0.00029625683 -0.0020036262 0.0060328282
16340000000 -0.31371713 -0.010726571 0.00024617539 0.00071341894 0.00028237078 0.00068080943 -0.027846361 0.030955229
16350000000 -0.30960166 -0.012648731 0.00081432838 2.9066839e-05 0.00081218121 5.2609801e-05 -0.031760853 0.051127881
16360000000 -0.31763569 -0.0081137195 0.00082589407 -0.0010898961 0.00093241292 -0.00098243589 -0.014213642 0.067600355
16370000000 -0.3207798 -0.0090383235 -0.00067131658 -0.0012649936 -0.00069282862 -0.0014375548 0.01746696 0.063715875
16380000000 -0.33540082 0.00071094185 -0.00094101852 -0.00023649204 -0.0010282669 -0.00018229126 0.038319018 0.039055508
16390000000 -0.342181 0.0061969012 -0.00066951505 0.00035677952 -0.00072241889 0.00045950199 0.021183526 0.012508873
16400000000 -0.35809231 0.025050402 0.00046729841 0.00047236594 0.00052460772 0.00052186806 -0.013566393 0.0061482652
16410000000 -0.36001146 0.035144985 -8.7771914e-05 -0.00016141906 -0.00019172627 -0.00014843083 -0.03173789 0.019625805
16420000000 -0.36882809 0.049863935 -0.00032368285 -0.00054479804 -0.0004190029 -0.0005776473 -0.035271179 0.045380108
16430000000 -0.36558843 0.052986279 -0.000805886 0.00022959501 -0.00078990799 0.00038673769 -0.01866298 0.071756788
16440000000 -0.37351274 0.058592159 -0.00026273599 0.0010792497 -0.00025725394 0.0011640806 0.014194448 0.082088172
16450000000 -0.37364751 0.054950286 0.00063152023 0.00055938109 0.00074618153 0.00045587469 0.03031791 0.057042159
16460000000 -0.38543344 0.061564103 0.00071612734 0.00024985344 0.00069442071 2.1747546e-05 0.020107057 0.029226018
16470000000 -0.39003184 0.062474191 0.00072792533 -0.00015339989 0.00036469952 -0.00024994297 -0.011531742 0.01760673
16480000000 -0.4007901 0.077477157 0.00032566959 -0.00017730944 0.00042539195 6.6355409e-05 -0.031698845 0.023950521
16490000000 -0.40440753 0.086090535 -7.0715672e-05 -0.00058767054 0.00022954175 -0.0006555072 -0.040532514 0.048995674
16500000000 -0.41051188 0.10727193 -1.3199147e-05 8.0388949e-05 -0.00034984501 -7.6106691e-05 -0.025803316 0.083087452
16510000000 -0.40784779 0.11751606 6.9825466e-05 4.7126094e-05 0.00011405644 0.00015145763 0.0048411782 0.089638688
16520000000 -0.40910819 0.1316947 0.0005798139 -0.00032722257 0.00052291132 -0.00024903507 0.025154274 0.070148781
16530000000 -0.41082764 0.13462406 -0.00038545104 -0.00076916913 -0.0003204403 -0.00066988321 0.019750282 0.034306128
16540000000 -0.41635829 0.14287935 -0.00073938677 -0.00040519229 -0.00053310633 -0.00077644421 0.0070478902 0.015693661
16550000000 -0.42616811 0.1434139 -0.00076889247 0.00043181254 -0.00093282363 0.00051211182 -0.016170669 0.023759004
16560000000 -0.43751481 0.15229766 -0.00038191376 0.00043648772 -0.00044913116 0.0007257603 -0.025522575 0.058315795
16570000000 -0.44662005 0.16089332 0.00045496054 0.00045301398 0.00081993151 0.0004012229 -0.019548601 0.093868002
16580000000 -0.4523221 0.17765367 -7.1717062e-05 -0.0001782008 -0.00013294314 -0.0002716227 0.0063744904 0.10248808
16590000000 -0.45245105 0.19024661 -0.00029944899 0.00020835269 -0.00038717251 0.00026683038 0.029170608 0.081969403
16600000000 -0.44957489 0.20707238 0.00013621425 0.00034578759 2.5507034e-05 0.00052407722 0.035589669 0.052324533
16610000000 -0.44514605 0.21639602 0.00036568657 0.00026140999 0.00049014256 0.0003940051 0.021163747 0.025158085
16620000000 -0.4450922 0.22591321 0.00056358188 0.00055006612 0.00046733589 0.00044503863 -0.0090248715 0.028488183
16630000000 -0.44877195 0.23450677 0.0010799209 -0.00036566821 0.0010937335 -0.00051205896 -0.026103899 0.054147486
16640000000 -0.45764589 0.24612716 -0.00012061233 -0.00070912944 -0.00024594995 -0.00069649692 -0.014672014 0.084671855
16650000000 -0.46814412 0.25920683 -0.00014179986 -0.00052852562 -0.00031175432 -0.00040681087 0.0067874896 0.093738124
16660000000 -0.47750515 0.27752209 -0.00056481804 -0.00036534856 -0.00038722521 -0.00022381288 0.03915789 0.077678852
16670000000 -0.48283768 0.29507291 -8.31246e-05 0.00052918284 -4.8079055e-05 0.00028785461 0.053302821 0.050083939
16680000000 -0.48343301 0.31228885 0.00045952675 -0.00012391394 0.00025891361 -2.0309046e-05 0.04358203 0.023973396
16690000000 -0.48126629 0.32503575 -8.6735788e-05 -0.00077709788 -0.00014344811 -0.0005806688 0.0088563478 0.029659521
16700000000 -0.47946489 0.33662754 -0.00078217778 -0.00037858638 -0.00066007941 -0.00034380358 -0.015707098 0.049378406
16710000000 -0.47684261 0.34640563 -0.00095826609 0.00056774227 -0.00074143149 0.00050272106 -0.010058625 0.073127314
16720000000 -0.47780094 0.35877553 -6.7994188e-05 0.00098501309 -0.00026910735 0.00080630893 0.010853226 0.087633744
16730000000 -0.48003468 0.37378731 0.00066305127 0.00029103589 0.00060353172 0.00040271203 0.039971974 0.083620802
16740000000 -0.48311549 0.39377809 0.00059766031 -0.00021499576 0.00056979043 -8.8090208e-05 0.053565495 0.052133564
16750000000 -0.48505294 0.41652998 -0.00025795455 -0.00033942272 -2.0096748e-05 -0.00044541649 0.037990399 0.019354712
16760000000 -0.48308226 0.43976894 -0.00019121166 0.00029443746 -0.00012996435 0.00030193216 0.0094380789 0.011699703
16770000000 -0.47886056 0.46178639 0.0001623698 0.00039195223 -3.7194128e-05 0.00029044467 -0.013642528 0.026994105
16780000000 -0.47284499 0.4798497 0.00067928602 0.00025574217 0.00069946866 0.00044615543 -0.017013246 0.053973656
16790000000 -0.46788085 0.49409229 0.00092842255 -0.00053810142 0.00097211089 -0.00052974361 0.0051313411 0.07417959
16800000000 -0.46299815 0.50715375 -5.7068741e-05 -0.00087438774 1.0495714e-06 -0.0010144615 0.040939137 0.075937517
16810000000 -0.46072042 0.52100027 -0.00066250371 -0.00038317227 -0.00069259608 -0.00048892217 0.050288968 0.051918007
16820000000 -0.45534259 0.53809625 -0.0004059897 0.0001059901 -0.00055641617 0.00026408481 0.035234734 0.018808126
16830000000 -0.45107901 0.55975473 -0.00013782569 0.00060417672 -0.00011792351 0.00068979012 0.0093547823 0.0053255684
16840000000 -0.44004077 0.58319259 0.00046969979 -5.1332114e-05 0.00068049581 -0.00013627023 -0.011297286 0.012240769
16850000000 -0.42910254 0.60725367 -7.1054215e-05 -0.00044791648 -0.00015311391 -0.00057065615 -0.019693565 0.048772004
16860000000 -0.41315228 0.62812608 -0.00047073991 -0.00032248985 -0.00054655364 -0.00035686104 -0.0051993756 0.079491928
16870000000 -0.40142757 0.64893246 -0.00067822228 0.0002739701 -0.00077989575 0.00054079265 0.022496751 0.08109659
16880000000 -0.38799641 0.66498381 -0.0001235963 0.00079924165 8.7340013e-06 0.00089224253 0.037174005 0.051496539
16890000000 -0.38046592 0.6817112 0.00052867091 0.00058776239 0.00069754128 0.00047857387 0.030071836 0.024596002
16900000000 -0.37061948 0.69528449 0.00081300054 -0.00029458798 0.00073658879 -0.00041984441 0.0063158446 0.0068936185
16910000000 -0.36324462 0.7129724 1.3144221e-05 -0.00061678234 -0.00027861324 -0.00050458842 -0.017347615 0.013375049
16920000000 -0.34967625 0.72868603 -0.00063920021 -3.6732803e-05 -0.00054061523 1.2762699e-05 -0.030791353 0.045014255
16930000000 -0.33555692 0.74764699 5.9740145e-05 0.0005775672 0.00020727189 0.00051861192 -0.015229894 0.084262267
16940000000 -0.31403616 0.76349676 0.0006292332 0.00031445129 0.00059641735 0.00019379964 0.0094489837 0.090818599
16950000000 -0.2930755 0.78099716 0.00062565325 -0.0004120025 0.00055988907 -0.00041206431 0.025283171 0.064801894
16960000000 -0.26877689 0.79489022 -0.00023984601 -0.00094741746 -0.00024350552 -0.00081708067 0.028700981 0.032467343
16970000000 -0.24730402 0.8102572 -0.00066174654 -0.00022258128 -0.00067807408 -0.00022695327 0.012460576 0.019273879
16980000000 -0.22588047 0.82271916 -0.0004357514 0.00035355627 -0.00045089197 0.00030450721 -0.016548691 0.022251975
16990000000 -0.20833912 0.83803612 0.00017492252 0.0003895617 5.1606228e-05 0.00033240652 -0.03707999 0.05634756
17000000000 -0.18978104 0.8514576 0.00041859911 1.7102822e-05 0.000358605 5.4738586e-05 -0.028470676 0.084004708
