!Keysight Technologies,P9373A,MY57211790,A.19.30.04
!Date: Friday, April 24, 2026 16:42:06
!Correction: S11(C  2-Port  ) 
!S21(C  2-Port  ) 
!S12(C  2-Port  ) 
!S22(C  2-Port  ) 
!S2P File: Measurements: S11, S21, S12, S22:
# Hz S  dB   R 50
100000000 -40.860748 80.802048 -0.003043185 -2.0159171 -0.0083077587 -1.9449316 -38.958561 80.761276
150000000 -37.375309 81.701813 -0.01471363 -3.0321975 -0.024345785 -2.9191091 -36.609821 87.453148
200000000 -34.165222 81.667351 -0.019135846 -3.9860749 -0.025174446 -3.9903114 -33.86879 80.308655
250000000 -32.996105 78.080025 -0.026009776 -4.9901762 -0.026672581 -4.9223237 -32.244709 77.771851
300000000 -30.691998 81.162323 -0.035297755 -6.0175748 -0.026468391 -5.9684258 -31.041525 82.961067
350000000 -29.702337 78.370995 -0.037233815 -6.6895685 -0.036944017 -6.8960752 -29.901917 79.739273
400000000 -28.546392 82.060616 -0.036802519 -7.8017502 -0.043941397 -7.8344984 -28.723042 80.742294
450000000 -27.806541 79.088943 -0.043202482 -8.8667707 -0.048232511 -8.6984377 -27.743914 82.688225
500000000 -26.893585 82.481125 -0.067672722 -9.7430944 -0.066727608 -9.8489685 -26.849375 80.502449
550000000 -25.434864 79.758972 -0.071470223 -10.667821 -0.058573753 -10.71329 -25.933662 78.918045
600000000 -25.24741 79.690666 -0.069084853 -11.751807 -0.081352666 -11.754433 -25.166698 79.174286
650000000 -24.469114 77.579781 -0.097490087 -12.651868 -0.066043682 -12.565086 -24.986174 79.969818
700000000 -24.521786 77.294655 -0.094996721 -13.64664 -0.095644742 -13.590454 -23.822811 77.874474
750000000 -23.730392 79.110245 -0.10742217 -14.53845 -0.079915702 -14.720462 -23.765978 80.739044
800000000 -23.353935 76.930855 -0.1118923 -15.528231 -0.10009932 -15.533254 -23.186075 78.17688
850000000 -22.594 77.055214 -0.11273544 -16.520214 -0.11879289 -16.503242 -22.857342 77.195389
900000000 -22.443043 77.382378 -0.11927445 -17.489674 -0.11282737 -17.573195 -22.498426 76.500839
950000000 -21.991777 76.2407 -0.13936879 -18.367632 -0.14039749 -18.562481 -21.914307 76.099442
1000000000 -21.698645 74.872795 -0.14890695 -19.411337 -0.13791865 -19.502937 -21.62228 77.364098
1050000000 -21.457214 74.628441 -0.153405 -20.461369 -0.16163692 -20.568411 -21.173494 76.135658
1100000000 -21.128452 74.807861 -0.16835067 -21.396339 -0.15825185 -21.675171 -20.978636 74.791542
1150000000 -20.830029 74.669693 -0.16737102 -22.44939 -0.17827182 -22.307957 -20.756012 75.329079
1200000000 -20.25696 73.498848 -0.19666965 -23.376348 -0.19294569 -23.477463 -20.320642 74.834824
1250000000 -20.061861 73.603035 -0.19874568 -24.439037 -0.19553223 -24.398746 -19.841368 72.835693
1300000000 -19.710676 73.842796 -0.19654399 -25.364504 -0.20934449 -25.41617 -19.716564 74.053139
1350000000 -19.358458 73.423256 -0.21287864 -26.271873 -0.22232641 -26.431499 -19.413563 72.911263
1400000000 -18.995724 72.606522 -0.23984003 -27.437824 -0.23147014 -27.490595 -19.032982 72.074455
1450000000 -18.745014 72.316483 -0.25929105 -28.152767 -0.23988107 -28.541063 -18.811363 71.493469
1500000000 -18.415483 70.814873 -0.26490909 -29.408989 -0.2632913 -29.41782 -18.417944 71.839012
1550000000 -18.389385 70.437302 -0.28735495 -30.469526 -0.27580154 -30.461967 -18.175076 71.507622
1600000000 -17.967949 70.180237 -0.29504478 -31.396055 -0.28951934 -31.494553 -17.925547 68.939308
1650000000 -17.638653 69.941261 -0.30663595 -32.325336 -0.30533826 -32.540787 -17.674444 69.751198
1700000000 -17.464439 69.655479 -0.31933454 -33.370972 -0.3158291 -33.591331 -17.446104 69.076241
1750000000 -17.29174 68.327957 -0.35408053 -34.49435 -0.32697743 -34.696812 -17.239243 68.772758
1800000000 -17.018093 68.017792 -0.35243058 -35.541164 -0.33122799 -35.580532 -17.024961 68.110161
1850000000 -16.826216 67.603607 -0.3731961 -36.581348 -0.3609246 -36.658535 -16.861504 68.033661
1900000000 -16.59639 66.982819 -0.39685592 -37.510628 -0.38897198 -37.749275 -16.585526 67.040146
1950000000 -16.548988 66.741035 -0.39942467 -38.6427 -0.38850147 -38.671509 -16.496677 65.859901
2000000000 -16.323143 65.998154 -0.41085768 -39.599018 -0.40909529 -39.799351 -16.134428 65.900574
2050000000 -16.228498 65.293983 -0.42527583 -40.719246 -0.42700911 -40.755787 -16.114983 66.014023
2100000000 -16.077286 65.17495 -0.43802485 -41.729179 -0.42352128 -41.9636 -15.869081 64.732368
2150000000 -15.787575 64.59034 -0.48034233 -42.818096 -0.44952103 -42.951202 -15.670465 65.17527
2200000000 -15.6377 64.431366 -0.48362294 -43.909874 -0.46503657 -44.044998 -15.571342 63.844482
2250000000 -15.458351 62.911911 -0.49934697 -44.952286 -0.48691526 -45.13102 -15.43761 63.253967
2300000000 -15.303129 63.068993 -0.49822152 -45.966007 -0.51336026 -46.223026 -15.258657 62.684944
2350000000 -15.114229 62.521477 -0.52553171 -47.148655 -0.5196954 -47.112705 -15.199664 62.762787
2400000000 -14.912994 61.743858 -0.53411794 -48.21172 -0.55478853 -48.296673 -14.93115 62.258999
2450000000 -14.937069 61.085018 -0.55615413 -49.190544 -0.53513974 -49.477352 -14.727302 61.571289
2500000000 -14.764932 60.986691 -0.5721187 -50.283447 -0.57885545 -50.511765 -14.616991 60.856712
2550000000 -14.539014 60.81282 -0.60362607 -51.441376 -0.57886285 -51.702065 -14.413269 60.089355
2600000000 -14.49499 59.654434 -0.60109872 -52.616276 -0.60822636 -52.754581 -14.325527 59.868855
2650000000 -14.311106 58.79306 -0.63617885 -53.667904 -0.61139971 -53.806534 -14.143299 58.444721
2700000000 -13.987211 58.584557 -0.63757384 -54.900681 -0.63830119 -55.011341 -14.01245 58.849129
2750000000 -13.977481 57.71751 -0.6358971 -55.956341 -0.65310055 -56.077526 -13.819588 57.232407
2800000000 -13.742326 57.271801 -0.67218006 -57.072613 -0.65726447 -57.096706 -13.809512 56.676872
2850000000 -13.672516 56.457626 -0.70016932 -58.185261 -0.67822725 -58.380455 -13.579708 55.813015
2900000000 -13.439232 55.925549 -0.69751799 -59.403618 -0.71450543 -59.555492 -13.39264 55.891052
2950000000 -13.309896 54.976662 -0.73243278 -60.491928 -0.72959542 -60.612022 -13.342212 55.06144
3000000000 -13.238901 54.930717 -0.73949921 -61.605473 -0.75575823 -61.830063 -13.12379 54.018936
3050000000 -13.05009 53.547806 -0.76662147 -62.867104 -0.7613973 -62.90596 -13.022947 53.951584
3100000000 -13.02471 54.048046 -0.7814799 -63.920914 -0.76848757 -64.072701 -12.885277 52.738445
3150000000 -12.818547 52.473652 -0.82646877 -65.098724 -0.79975462 -65.353218 -12.774012 52.174664
3200000000 -12.745083 51.893356 -0.82355994 -66.338669 -0.81659043 -66.322937 -12.627265 52.215954
3250000000 -12.620704 51.2299 -0.83307689 -67.526772 -0.83193839 -67.616608 -12.510994 51.288429
3300000000 -12.440438 50.557983 -0.85265994 -68.69783 -0.84918296 -68.932144 -12.304955 50.999645
3350000000 -12.305119 50.461277 -0.87072641 -69.843262 -0.87693781 -70.072693 -12.248313 50.261833
3400000000 -12.22707 49.641495 -0.89202088 -71.001122 -0.87917995 -71.107895 -12.124525 49.146824
3450000000 -12.143144 48.391872 -0.89509714 -72.287041 -0.89132124 -72.36647 -11.993643 49.149467
3500000000 -11.985291 47.842865 -0.93601084 -73.405319 -0.90993357 -73.536064 -11.995808 47.936153
3550000000 -11.900991 47.236179 -0.93681788 -74.6045 -0.95813602 -74.787407 -11.825496 47.337799
3600000000 -11.776997 46.876183 -0.93861687 -75.816116 -0.94989443 -76.121323 -11.717078 46.791832
3650000000 -11.654661 46.278946 -0.97262555 -77.108185 -0.94098109 -77.310478 -11.587296 45.890926
3700000000 -11.600136 45.000252 -0.99302167 -78.291458 -0.97846341 -78.417107 -11.491729 45.38752
3750000000 -11.388112 44.88903 -1.0120736 -79.514397 -1.0017087 -79.664581 -11.368958 44.496723
3800000000 -11.343372 43.893242 -1.0320808 -80.694946 -1.0007213 -80.955696 -11.241324 43.957134
3850000000 -11.152954 43.211834 -1.0251585 -82.112312 -1.0285208 -82.215195 -11.135322 43.435925
3900000000 -11.05847 42.437672 -1.0391078 -83.197838 -1.0404997 -83.501808 -11.046 42.304768
3950000000 -10.976331 41.336678 -1.0639603 -84.465302 -1.0658621 -84.781715 -10.860501 41.804001
4000000000 -10.892408 41.025417 -1.0617534 -85.811646 -1.0789068 -85.92997 -10.799253 41.07655
4050000000 -10.689814 40.501083 -1.0602942 -87.035133 -1.0978647 -87.348808 -10.714355 40.103661
4100000000 -10.632836 39.506237 -1.0901884 -88.352013 -1.0905937 -88.410042 -10.569201 39.716866
4150000000 -10.5262 38.757225 -1.1184783 -89.674492 -1.1349711 -89.793701 -10.461562 38.721684
4200000000 -10.418508 37.780125 -1.1514348 -90.988991 -1.1307365 -91.080482 -10.373352 37.844185
4250000000 -10.320192 37.174023 -1.1435329 -92.181946 -1.133747 -92.346878 -10.199665 37.117645
4300000000 -10.162999 36.187485 -1.1532638 -93.523842 -1.1701345 -93.788208 -10.145863 36.61356
4350000000 -10.058317 35.358795 -1.1766362 -94.819717 -1.1855798 -95.174515 -9.9999981 35.602615
4400000000 -10.031421 35.085991 -1.1572948 -96.018211 -1.1725851 -96.347511 -9.9507828 34.829731
4450000000 -9.8820047 33.881966 -1.1877087 -97.537804 -1.177349 -97.68898 -9.7981062 34.098312
4500000000 -9.8584242 33.324074 -1.2045026 -98.760452 -1.2192799 -98.933014 -9.7242079 32.901104
4550000000 -9.6200838 32.575508 -1.2037183 -100.10707 -1.2053013 -100.37215 -9.6378956 32.805824
4600000000 -9.5628204 32.102421 -1.2003986 -101.37446 -1.2209526 -101.60818 -9.5321589 31.511215
4650000000 -9.4770803 31.354259 -1.2303189 -102.65133 -1.1938953 -102.95812 -9.3791046 31.313774
4700000000 -9.4003105 30.050291 -1.2347372 -104.1096 -1.2446121 -104.20705 -9.3202333 29.943611
4750000000 -9.2837515 29.381456 -1.2461336 -105.43969 -1.2243032 -105.65195 -9.2127066 29.777063
4800000000 -9.2321997 28.718353 -1.2507219 -106.76564 -1.2383184 -106.97376 -9.0948677 28.420244
4850000000 -9.0195217 27.813877 -1.2524399 -108.12341 -1.2309904 -108.26466 -9.0182514 27.733683
4900000000 -8.9841909 26.780312 -1.2627832 -109.47292 -1.248153 -109.69834 -8.9112492 26.942085
4950000000 -8.9145441 26.263247 -1.2661302 -110.81635 -1.2766683 -110.96167 -8.8511267 25.988943
5000000000 -8.7710371 25.14167 -1.2661316 -112.13105 -1.2557423 -112.4538 -8.7211552 25.270454
5050000000 -8.7062016 24.10877 -1.2964931 -113.65112 -1.2728009 -113.81227 -8.567173 24.270657
5100000000 -8.5631542 23.874561 -1.2662702 -114.83447 -1.2520741 -114.9669 -8.4944782 24.193798
5150000000 -8.4307823 22.775169 -1.2766711 -116.27193 -1.2686644 -116.54024 -8.3734407 22.55382
5200000000 -8.3769531 21.91213 -1.2827959 -117.61803 -1.2514905 -117.86366 -8.2900124 22.093252
5250000000 -8.2411642 21.304592 -1.2537169 -119.00251 -1.2776687 -119.22666 -8.144371 20.676989
5300000000 -8.1614809 20.329506 -1.2730546 -120.27099 -1.2448632 -120.59046 -8.0864258 20.203096
5350000000 -8.0265827 19.120716 -1.2542024 -121.86839 -1.2724597 -122.18028 -7.9374442 19.301435
5400000000 -7.9427614 18.516052 -1.2557718 -123.08979 -1.2538569 -123.32987 -7.8780422 18.487944
5450000000 -7.8133855 17.616493 -1.2486202 -124.5875 -1.2360768 -124.7765 -7.7265711 17.876028
5500000000 -7.802979 17.223003 -1.2417036 -125.84174 -1.243274 -126.04804 -7.6567454 17.146664
5550000000 -7.6074119 15.923775 -1.2277139 -127.33022 -1.2369179 -127.53338 -7.5237412 15.851596
5600000000 -7.5352221 14.82203 -1.231088 -128.77898 -1.2373557 -128.99695 -7.4307532 14.757418
5650000000 -7.4072504 14.153037 -1.2024016 -130.14366 -1.2196553 -130.36736 -7.3470645 14.187734
5700000000 -7.3090286 13.088583 -1.2210853 -131.63821 -1.2312773 -131.85078 -7.2435822 13.0665
5750000000 -7.1981969 12.160358 -1.2118829 -132.95381 -1.2163805 -133.33377 -7.1172638 12.177725
5800000000 -7.0658545 11.49818 -1.1735585 -134.39044 -1.1549169 -134.80994 -6.9754081 11.526606
5850000000 -6.9985671 10.514081 -1.1860526 -135.82025 -1.1649358 -136.09929 -6.8817291 10.399559
5900000000 -6.8725948 9.6571007 -1.1441975 -137.21152 -1.1446095 -137.39348 -6.7786126 9.6729517
5950000000 -6.7743359 8.6803646 -1.1437339 -138.56912 -1.1515785 -138.90163 -6.6776652 8.5941229
6000000000 -6.6603398 7.7875957 -1.1248752 -140.00328 -1.1092045 -140.24727 -6.5781894 7.7166324
6050000000 -6.5841537 6.6729808 -1.1332537 -141.50549 -1.1129714 -141.82751 -6.4851332 6.5833497
6100000000 -6.4442682 6.20123 -1.0855531 -142.8587 -1.0851638 -143.03587 -6.3988857 5.898211
6150000000 -6.320262 5.0573025 -1.0411202 -144.31258 -1.0410405 -144.5549 -6.2331891 5.4968715
6200000000 -6.2103734 4.5668263 -1.0248835 -145.70055 -1.020927 -146.02472 -6.1478419 4.1499739
6250000000 -6.0948377 3.4755723 -0.99484932 -147.09872 -0.9905259 -147.38113 -6.0293975 3.4682612
6300000000 -5.9733319 2.8296108 -0.9550525 -148.57481 -0.9585982 -148.75903 -5.9030533 2.3239307
6350000000 -5.8701406 1.8209423 -0.91840786 -149.80093 -0.91264629 -150.14911 -5.7560725 1.9530466
6400000000 -5.7373319 0.90600264 -0.87037373 -151.32402 -0.86324066 -151.6026 -5.605454 0.87285489
6450000000 -5.6464558 -0.10287656 -0.86596388 -152.65536 -0.8619414 -153.03583 -5.5683084 -0.10466852
6500000000 -5.5209546 -1.2653245 -0.81695849 -154.24437 -0.80597806 -154.46564 -5.3765512 -1.0433161
6550000000 -5.3822117 -1.8876058 -0.79848385 -155.52461 -0.76970196 -155.87979 -5.2905226 -2.0592363
6600000000 -5.2225623 -2.7529688 -0.72513002 -157.02615 -0.7126447 -157.29948 -5.137269 -2.6469893
6650000000 -5.147892 -3.5229807 -0.68169016 -158.39203 -0.69444269 -158.63637 -5.0247936 -3.7970409
6700000000 -4.9913697 -4.4770699 -0.63147676 -159.70415 -0.64407766 -159.87221 -4.939209 -4.2237601
6750000000 -4.8555799 -5.4565129 -0.59039652 -161.30316 -0.58217847 -161.54649 -4.7665257 -5.6560307
6800000000 -4.7568245 -6.0190086 -0.52936679 -162.36702 -0.53136593 -162.77129 -4.6249228 -6.1107092
6850000000 -4.6118631 -7.1680455 -0.48744524 -164.04855 -0.48810875 -164.23225 -4.5045915 -7.3962402
6900000000 -4.4807944 -8.0125952 -0.44620153 -165.2119 -0.44762781 -165.5824 -4.4241452 -7.9807525
6950000000 -4.3305297 -8.6029863 -0.35290843 -166.50447 -0.35279557 -166.92709 -4.2253165 -8.7775202
7000000000 -4.2689238 -9.575902 -0.33406737 -167.86612 -0.34834012 -168.1003 -4.1904492 -9.7506828
7050000000 -4.087297 -10.67923 -0.24627586 -169.32704 -0.24291372 -169.60799 -3.9821801 -10.305408
7100000000 -3.9213634 -11.633203 -0.18783237 -170.82849 -0.17407559 -171.0417 -3.8343849 -11.586543
7150000000 -3.8033757 -12.259997 -0.10175709 -171.95363 -0.11389551 -172.34457 -3.6938698 -12.279262
7200000000 -3.6712525 -13.010782 -0.036795992 -173.30647 -0.028417455 -173.78214 -3.5480037 -13.33947
7250000000 -3.5134561 -13.652517 0.046654399 -174.44987 0.036605444 -174.76982 -3.4313524 -13.65311
7300000000 -3.3971159 -14.459234 0.11357132 -175.783 0.11779325 -176.11592 -3.2593799 -14.455674
7350000000 -3.1945965 -15.280877 0.21272551 -177.03882 0.20314093 -177.43677 -3.1382201 -15.207639
7400000000 -3.0272527 -16.456568 0.2912491 -178.65002 0.30431038 -178.9158 -2.9453621 -16.246895
7450000000 -2.9106171 -16.934181 0.36394361 -179.71396 0.36225644 -179.92081 -2.832525 -16.97114
7500000000 -2.6880434 -17.771791 0.4921234 178.99037 0.49398819 178.56412 -2.6220231 -17.732569
7550000000 -2.5815535 -18.51862 0.56913382 177.67345 0.5684458 177.46867 -2.4877372 -18.489452
7600000000 -2.4259224 -18.991058 0.67770541 176.74008 0.64758193 176.42236 -2.3387394 -19.09547
7650000000 -2.2202778 -20.032841 0.77273643 175.28918 0.80132997 174.91187 -2.1401534 -20.058529
7700000000 -2.0797589 -20.459934 0.87841552 174.39819 0.87752688 173.92252 -2.0012295 -20.417049
7750000000 -1.8897642 -21.391779 0.98703533 173.04182 1.0051651 172.71918 -1.8116716 -21.090881
7800000000 -1.7279105 -21.905144 1.1008999 171.84264 1.1038541 171.5527 -1.6280841 -21.92033
7850000000 -1.4399387 -22.50531 1.2917157 170.82529 1.2888466 170.4509 -1.3799399 -22.287313
7900000000 -1.3539748 -22.949341 1.3566158 169.80634 1.3522648 169.52002 -1.2690257 -22.948788
7950000000 -1.1085485 -23.20546 1.5144085 169.00388 1.540736 168.68932 -1.0478317 -23.042749
8000000000 -0.95311677 -23.773026 1.638949 167.90323 1.6436332 167.66107 -0.87327075 -23.745184
8050000000 -0.79044664 -24.488527 1.7417895 166.87602 1.7698158 166.54489 -0.68608832 -24.354235
8100000000 -0.56217903 -25.010281 1.9207017 165.7912 1.9341596 165.5358 -0.46233317 -24.973179
8150000000 -0.33438775 -25.584263 2.0895708 164.91328 2.0609813 164.49886 -0.24604464 -25.3929
8200000000 -0.17382824 -25.877817 2.1952703 164.08241 2.2144403 163.6734 -0.065833949 -25.723564
8250000000 0.012749263 -25.971029 2.3471141 163.48233 2.3369339 163.11554 0.10329603 -25.824369
8300000000 0.31421247 -26.580095 2.560184 162.37868 2.5529075 162.13348 0.38876647 -26.44355
8350000000 0.46705797 -26.215237 2.6890543 162.11833 2.6924632 161.75627 0.55060673 -26.270565
8400000000 0.65936583 -26.900341 2.8263974 161.14906 2.8430724 160.78416 0.76466894 -26.834743
8450000000 0.93718106 -27.042208 3.050184 160.50053 3.0581393 160.21687 1.0521328 -26.855637
8500000000 1.1423922 -26.417612 3.211688 160.46628 3.2051589 160.12759 1.2228204 -26.426744
8550000000 1.3958651 -27.149717 3.40622 159.4805 3.3982351 159.12679 1.4892772 -27.179386
8600000000 1.6606463 -26.261551 3.6241751 159.71159 3.6192744 159.3683 1.7394991 -26.252916
8650000000 2.0067489 -26.00663 3.8914592 159.45113 3.9070809 158.97037 2.0871634 -26.145313
8700000000 2.0352266 -25.736296 3.9118161 159.37505 3.9301305 159.01208 2.1149831 -25.66116
8750000000 2.461853 -24.633081 4.2923865 159.75935 4.2869496 159.52596 2.5870392 -24.446354
8800000000 2.5900705 -24.637228 4.3921785 159.46777 4.3831472 159.10048 2.705148 -24.592768
8850000000 2.8891478 -23.184586 4.6386151 160.22977 4.6507053 159.78009 3.0290587 -23.242956
8900000000 3.2102258 -23.023754 4.9134173 160.13257 4.9118242 159.58472 3.3596098 -23.020905
8950000000 3.3689542 -21.222107 5.0101295 161.32924 5.0207653 160.82277 3.448101 -21.229963
9000000000 3.6716967 -20.934109 5.2678242 161.24728 5.2742329 160.7879 3.7724915 -20.995409
9050000000 3.7150686 -19.576578 5.3124475 162.05164 5.3238592 161.70985 3.8568923 -19.72076
9100000000 4.0366287 -17.5233 5.5746169 163.61839 5.575459 163.3306 4.1539774 -17.386295
9150000000 4.1000237 -16.636652 5.6066699 164.17574 5.6169004 163.76157 4.201694 -16.591003
9200000000 4.3810344 -14.500876 5.8428307 165.7869 5.8356447 165.28293 4.4818187 -14.539906
9250000000 4.5822606 -13.466525 5.9928813 166.53445 5.9982371 166.3192 4.6824222 -13.059845
9300000000 4.62883 -10.288123 5.9968019 168.91356 6.0226207 168.67323 4.7215199 -10.29068
9350000000 4.9393992 -7.8707738 6.2661428 170.90068 6.2729378 170.61142 5.0664248 -7.8005595
9400000000 4.9071417 -5.3011489 6.1938219 172.993 6.1841893 172.49284 4.9816227 -5.3806472
9450000000 5.1335125 -3.1254575 6.3545957 174.76038 6.3783288 174.39076 5.2202153 -3.1270032
9500000000 4.9186888 -1.4228855 6.1526666 176.06796 6.1462569 175.67419 5.0081511 -1.3814909
9550000000 4.8519988 1.9491819 6.0488868 178.80513 6.0414901 178.53754 4.9334884 2.0105519
9600000000 4.7611718 3.7955375 5.9364924 -179.64444 5.9526052 179.99355 4.8816781 3.9205799
9650000000 4.6761088 7.3429027 5.8091435 -176.69545 5.8014898 -177.09796 4.7755156 7.4364233
9700000000 4.7262688 8.8868942 5.8084316 -175.56194 5.8367944 -175.79102 4.8535089 8.7714233
9750000000 4.2943072 11.76406 5.3758669 -173.15814 5.3496957 -173.66699 4.3807769 11.804556
9800000000 4.2762923 14.155712 5.2975397 -171.29504 5.2965007 -171.66089 4.3715816 13.981834
9850000000 3.8149838 15.018066 4.8532829 -170.69342 4.8629417 -171.12694 3.949075 15.202555
9900000000 3.6376655 18.960234 4.6071057 -167.46628 4.5920501 -167.90341 3.7400243 18.921694
9950000000 3.5162795 18.848333 4.4562688 -167.64006 4.4571338 -168.07669 3.61379 18.976727
10000000000 3.0051041 22.12949 3.9217029 -165.1073 3.9140666 -165.53192 3.1230268 22.342777
