# Hz S MA R 50
100000000.000000	0.014065	-17.435244	0.998412	-2.537053	0.998412	-2.537053	0.011805	-158.254431
199000000.000000	0.015580	-34.648419	0.997742	-4.989204	0.997742	-4.989204	0.014785	-133.619128
298000000.000000	0.017393	-47.205991	0.997125	-7.438635	0.997125	-7.438635	0.019397	-121.741542
397000000.000000	0.019850	-60.004849	0.996544	-9.880715	0.996544	-9.880715	0.025682	-113.566394
496000000.000000	0.022527	-70.324970	0.995957	-12.321614	0.995957	-12.321614	0.032221	-109.591254
595000000.000000	0.025334	-79.899667	0.995408	-14.760070	0.995408	-14.760070	0.039012	-107.219643
694000000.000000	0.028530	-87.409377	0.994803	-17.197699	0.994803	-17.197699	0.046247	-106.339390
793000000.000000	0.031752	-94.841550	0.994166	-19.632222	0.994166	-19.632222	0.053387	-105.976866
892000000.000000	0.035038	-101.200022	0.993588	-22.070281	0.993588	-22.070281	0.060805	-106.082636
991000000.000000	0.038260	-107.254141	0.992904	-24.501257	0.992904	-24.501257	0.068142	-106.445202
1090000000.000000	0.041417	-112.969525	0.992238	-26.931587	0.992238	-26.931587	0.075378	-107.048136
1189000000.000000	0.044539	-118.485686	0.991550	-29.366753	0.991550	-29.366753	0.082842	-107.660325
1288000000.000000	0.047699	-123.619676	0.990845	-31.796562	0.990845	-31.796562	0.090018	-108.498872
1387000000.000000	0.050942	-128.718674	0.990081	-34.228612	0.990081	-34.228612	0.097342	-109.442319
1486000000.000000	0.053943	-133.544848	0.989360	-36.662142	0.989360	-36.662142	0.104215	-110.407242
1585000000.000000	0.056900	-138.268470	0.988592	-39.102665	0.988592	-39.102665	0.111385	-111.487311
1684000000.000000	0.059961	-142.915967	0.987811	-41.538812	0.987811	-41.538812	0.118257	-112.612319
1783000000.000000	0.062746	-147.605522	0.987046	-43.974251	0.987046	-43.974251	0.124685	-113.690188
1882000000.000000	0.065466	-151.986997	0.986331	-46.416806	0.986331	-46.416806	0.131444	-114.795820
1981000000.000000	0.068348	-156.400834	0.985527	-48.856990	0.985527	-48.856990	0.137902	-115.929246
2080000000.000000	0.071281	-160.688591	0.984776	-51.303235	0.984776	-51.303235	0.144452	-117.140791
2179000000.000000	0.073586	-165.033308	0.984082	-53.747571	0.984082	-53.747571	0.150322	-118.311145
2278000000.000000	0.076105	-168.997217	0.983309	-56.192687	0.983309	-56.192687	0.156148	-119.619891
2377000000.000000	0.078481	-173.218896	0.982599	-58.646931	0.982599	-58.646931	0.161815	-120.865523
2476000000.000000	0.080926	-177.248895	0.981887	-61.099979	0.981887	-61.099979	0.167076	-122.185678
2575000000.000000	0.082857	178.742007	0.981235	-63.557844	0.981235	-63.557844	0.172031	-123.457602
2674000000.000000	0.084862	174.845430	0.980579	-66.019703	0.980579	-66.019703	0.176738	-124.791065
2773000000.000000	0.086650	170.831010	0.979970	-68.486806	0.979970	-68.486806	0.181398	-125.991933
2872000000.000000	0.088435	166.903990	0.979380	-70.958753	0.979380	-70.958753	0.185569	-127.333551
2971000000.000000	0.090277	163.077254	0.978764	-73.426965	0.978764	-73.426965	0.189720	-128.618088
3070000000.000000	0.091562	159.331714	0.978292	-75.905576	0.978292	-75.905576	0.193136	-129.908851
3169000000.000000	0.092971	155.637561	0.977779	-78.388625	0.977779	-78.388625	0.196549	-131.164112
3268000000.000000	0.094068	152.003766	0.977361	-80.875654	0.977361	-80.875654	0.199402	-132.519795
3367000000.000000	0.095263	148.417131	0.976890	-83.366097	0.976890	-83.366097	0.202011	-133.853846
3466000000.000000	0.096146	144.830779	0.976562	-85.862494	0.976562	-85.862494	0.204099	-135.158054
3565000000.000000	0.096726	141.298329	0.976209	-88.361740	0.976209	-88.361740	0.205899	-136.448873
3664000000.000000	0.097055	137.903138	0.975996	-90.871221	0.975996	-90.871221	0.207066	-137.807900
3763000000.000000	0.097535	134.486562	0.975733	-93.376915	0.975733	-93.376915	0.208215	-139.141328
3862000000.000000	0.097698	131.036671	0.975498	-95.893822	0.975498	-95.893822	0.208850	-140.432779
3961000000.000000	0.097811	127.779036	0.975306	-98.414976	0.975306	-98.414976	0.209233	-141.715001
4060000000.000000	0.097556	124.551737	0.975217	-100.942881	0.975217	-100.942881	0.209206	-143.018865
4159000000.000000	0.097426	121.540317	0.975167	-103.477815	0.975167	-103.477815	0.208710	-144.368328
4258000000.000000	0.097136	118.433807	0.975016	-106.007404	0.975016	-106.007404	0.207948	-145.668527
4357000000.000000	0.096279	115.381123	0.975190	-108.555762	0.975190	-108.555762	0.206229	-146.922329
4456000000.000000	0.095510	112.633567	0.975207	-111.106168	0.975207	-111.106168	0.204683	-148.251389
4555000000.000000	0.094842	109.931334	0.975283	-113.654396	0.975283	-113.654396	0.202417	-149.570251
4654000000.000000	0.093951	107.251449	0.975348	-116.210766	0.975348	-116.210766	0.199966	-150.796280
4753000000.000000	0.092525	104.763887	0.975530	-118.781554	0.975530	-118.781554	0.196885	-152.061539
4852000000.000000	0.091117	102.444294	0.975737	-121.346272	0.975737	-121.346272	0.193187	-153.314220
4951000000.000000	0.089603	100.219274	0.975819	-123.919800	0.975819	-123.919800	0.189237	-154.593876
5050000000.000000	0.088189	98.032877	0.976262	-126.500718	0.976262	-126.500718	0.184833	-155.829175
5149000000.000000	0.086753	96.141412	0.976487	-129.083236	0.976487	-129.083236	0.180135	-157.038702
5248000000.000000	0.085415	94.537929	0.976622	-131.663586	0.976622	-131.663586	0.174860	-158.174282
5347000000.000000	0.083987	92.721252	0.976919	-134.248081	0.976919	-134.248081	0.169507	-159.265188
5446000000.000000	0.082679	91.683532	0.977109	-136.853052	0.977109	-136.853052	0.163629	-160.454484
5545000000.000000	0.081269	90.740875	0.977293	-139.448028	0.977293	-139.448028	0.157251	-161.486148
5644000000.000000	0.080279	90.156845	0.977575	-142.050266	0.977575	-142.050266	0.150235	-162.635228
5743000000.000000	0.079049	89.469312	0.977890	-144.651820	0.977890	-144.651820	0.142960	-163.680391
5842000000.000000	0.078081	89.128458	0.978131	-147.251087	0.978131	-147.251087	0.135207	-164.477042
5941000000.000000	0.077417	89.170716	0.978344	-149.846100	0.978344	-149.846100	0.126899	-165.017306
6040000000.000000	0.077407	89.047255	0.978436	-152.457939	0.978436	-152.457939	0.118700	-166.044869
6139000000.000000	0.077379	89.111059	0.978477	-155.062012	0.978477	-155.062012	0.110656	-166.548311
6238000000.000000	0.077909	89.361544	0.978599	-157.665293	0.978599	-157.665293	0.101535	-166.839060
6337000000.000000	0.078695	89.550612	0.978912	-160.275171	0.978912	-160.275171	0.092204	-167.080941
6436000000.000000	0.080206	89.700616	0.978892	-162.885532	0.978892	-162.885532	0.082720	-166.908917
6535000000.000000	0.081906	89.411485	0.979008	-165.476635	0.979008	-165.476635	0.073238	-166.016914
6634000000.000000	0.083821	89.282879	0.979048	-168.069052	0.979048	-168.069052	0.063658	-164.915007
6733000000.000000	0.085702	89.003488	0.978866	-170.678614	0.978866	-170.678614	0.054183	-163.373540
6832000000.000000	0.087549	88.355886	0.978690	-173.267224	0.978690	-173.267224	0.044214	-160.131702
6931000000.000000	0.088899	88.348526	0.978731	-175.856624	0.978731	-175.856624	0.033547	-155.222153
7030000000.000000	0.090546	88.692351	0.978830	-178.458130	0.978830	-178.458130	0.022798	-142.403575
7129000000.000000	0.094127	89.672088	0.978617	178.974634	0.978617	178.974634	0.016401	-106.154950
7228000000.000000	0.098979	89.340046	0.978549	176.402587	0.978549	176.402587	0.020874	-68.419957
7327000000.000000	0.103600	88.829774	0.978305	173.834672	0.978305	173.834672	0.029589	-48.442463
7426000000.000000	0.108812	88.298033	0.977827	171.251167	0.977827	171.251167	0.041497	-39.416535
7525000000.000000	0.115255	87.232104	0.977331	168.689141	0.977331	168.689141	0.054276	-35.533836
7624000000.000000	0.122077	85.510210	0.977320	166.131395	0.977320	166.131395	0.067443	-33.840171
7723000000.000000	0.128711	83.541332	0.977216	163.571053	0.977216	163.571053	0.080946	-33.331182
7822000000.000000	0.135352	81.278191	0.976885	161.049951	0.976885	161.049951	0.093876	-33.191404
7921000000.000000	0.141321	78.951442	0.976521	158.531683	0.976521	158.531683	0.107273	-33.461162
8020000000.000000	0.147703	76.463951	0.976079	156.001843	0.976079	156.001843	0.120185	-33.613653
8119000000.000000	0.153824	73.856565	0.975463	153.464777	0.975463	153.464777	0.132686	-34.026142
8218000000.000000	0.160236	71.119003	0.975116	150.954229	0.975116	150.954229	0.145190	-34.622582
8317000000.000000	0.166169	68.259093	0.974984	148.428712	0.974984	148.428712	0.158339	-35.284135
8416000000.000000	0.172368	65.457933	0.974770	145.937179	0.974770	145.937179	0.171347	-35.986145
8515000000.000000	0.178550	62.471261	0.974713	143.461526	0.974713	143.461526	0.184549	-36.903931
8614000000.000000	0.184538	59.416323	0.974295	140.993116	0.974295	140.993116	0.197781	-37.690745
8713000000.000000	0.190376	56.429951	0.973806	138.513025	0.973806	138.513025	0.210469	-38.375643
8812000000.000000	0.196276	53.266941	0.973333	136.041646	0.973333	136.041646	0.223165	-39.188616
8911000000.000000	0.201493	50.029304	0.973196	133.569542	0.973196	133.569542	0.235816	-40.187468
9010000000.000000	0.206848	46.886229	0.972943	131.096895	0.972943	131.096895	0.248597	-40.962316
9109000000.000000	0.212274	43.460003	0.973488	128.634941	0.973488	128.634941	0.260361	-41.917494
9208000000.000000	0.217317	40.042004	0.973777	126.189180	0.973777	126.189180	0.272715	-42.948567
9307000000.000000	0.222140	36.600735	0.973800	123.774773	0.973800	123.774773	0.285477	-43.799623
9406000000.000000	0.227381	33.192475	0.973716	121.357179	0.973716	121.357179	0.297454	-44.552592
9505000000.000000	0.232017	29.613254	0.973831	118.926531	0.973831	118.926531	0.309593	-45.582207
9604000000.000000	0.236194	26.060402	0.973713	116.488167	0.973713	116.488167	0.321400	-46.399398
9703000000.000000	0.240512	22.538502	0.973936	114.033102	0.973936	114.033102	0.332225	-47.058041
9802000000.000000	0.244416	18.839568	0.974999	111.581318	0.974999	111.581318	0.343155	-48.076258
9901000000.000000	0.247791	15.104327	0.975852	109.169310	0.975852	109.169310	0.355082	-48.994913
10000000000.000000	0.251458	11.352999	0.976681	106.781045	0.976681	106.781045	0.366541	-49.652257
