!Keysight Technologies,P9374A,MY57211807,A.19.30.04
!Date: Friday, May 01, 2026 14:46:43
!Correction: S11(C  2-Port  ) 
!S21(C  2-Port  ) 
!S12(C  2-Port  ) 
!S22(C  2-Port  ) 
!S2P File: Measurements: S11, S21, S12, S22:
# Hz S  RI   R 50
13000000000 0.040907636 0.1357796 -0.32165045 -0.061684012 -0.32284474 -0.059464142 -0.021967143 0.20756707
13010000000 0.05475482 0.13840967 -0.32675338 0.0048542619 -0.32737088 0.0074653625 -0.0085072964 0.195087
13020000000 0.064543039 0.13378516 -0.31959459 0.071524516 -0.31958702 0.073946849 -0.0065844506 0.18029356
13030000000 0.075264521 0.12456594 -0.29672915 0.13468757 -0.29626623 0.13693589 -0.011541877 0.17520967
13040000000 0.079951264 0.11154741 -0.26359439 0.19047037 -0.26260599 0.19294962 -0.014245767 0.17842446
13050000000 0.081635468 0.09618172 -0.22102159 0.23933636 -0.21946765 0.24142125 -0.01131336 0.18519677
13060000000 0.076949991 0.083570607 -0.16917405 0.27982056 -0.16737878 0.28135639 -0.00086415559 0.18884468
13070000000 0.073674783 0.073314019 -0.10971693 0.30853552 -0.10775719 0.30990297 0.012556367 0.1816825
13080000000 0.064856008 0.063964359 -0.046357602 0.32648307 -0.044119775 0.32744759 0.02357249 0.16607516
13090000000 0.057332709 0.059910607 0.020031154 0.3305741 0.022616223 0.33115435 0.0315433 0.14606224
13100000000 0.043715701 0.059885181 0.087992191 0.32321212 0.090522557 0.32290959 0.024929658 0.12341549
13110000000 0.03535578 0.065235056 0.15439168 0.30016693 0.15653947 0.29960608 0.0063158032 0.11020474
13120000000 0.02585721 0.073881492 0.21675995 0.26242816 0.21873473 0.2614336 -0.024133498 0.10920268
13130000000 0.02313628 0.083567992 0.26855624 0.21031471 0.27023935 0.20886724 -0.051002577 0.12208168
13140000000 0.022105366 0.092436619 0.30696678 0.14831057 0.30835259 0.14696002 -0.064665362 0.14788392
13150000000 0.025440069 0.10183692 0.33026236 0.079763368 0.33139226 0.077902675 -0.060765315 0.17318952
13160000000 0.030718032 0.10558715 0.33780223 0.0095835179 0.33860201 0.0075898319 -0.042003244 0.1948196
13170000000 0.037888028 0.1078788 0.330549 -0.059514895 0.33107296 -0.061742529 -0.018783808 0.2039403
13180000000 0.044920765 0.10825977 0.31091538 -0.12469369 0.31097856 -0.12735333 0.002101697 0.20092544
13190000000 0.052610666 0.10747773 0.27829316 -0.18546182 0.27749699 -0.18786424 0.014830243 0.18670289
13200000000 0.059633672 0.10540684 0.23622538 -0.23902319 0.23483407 -0.24114785 0.011684448 0.17279452
13210000000 0.065262407 0.10059091 0.18148278 -0.28182954 0.17977242 -0.28351408 0.0096702576 0.16675645
13220000000 0.066712603 0.099114925 0.11965848 -0.31329903 0.11782548 -0.31463575 0.003358461 0.16708502
13230000000 0.069071546 0.096082874 0.052023001 -0.32896191 0.050039992 -0.32986718 0.0045258924 0.17946474
13240000000 0.071406849 0.095869072 -0.015715875 -0.33060378 -0.017934151 -0.33112031 0.020766221 0.19026947
13250000000 0.071974941 0.090743624 -0.080789596 -0.31909654 -0.082920156 -0.31915301 0.036491305 0.19063449
13260000000 0.073075734 0.089805976 -0.14138527 -0.29675156 -0.14338556 -0.29669783 0.053399272 0.18417451
13270000000 0.073866948 0.084863469 -0.19688043 -0.26324162 -0.19890586 -0.26257038 0.061069053 0.16607419
13280000000 0.074965224 0.081256129 -0.24578655 -0.2210194 -0.24761799 -0.21982667 0.054258782 0.14870256
13290000000 0.076649688 0.077093132 -0.28697357 -0.16920027 -0.28819793 -0.167586 0.043168277 0.13398719
13300000000 0.079474889 0.071699947 -0.31954977 -0.10841918 -0.32045245 -0.10702309 0.027976632 0.12699027
13310000000 0.080088079 0.068045765 -0.33709019 -0.040734723 -0.33798668 -0.039398056 0.021232445 0.13411848
13320000000 0.082133137 0.063645549 -0.33969212 0.030207595 -0.34056696 0.03193742 0.023550265 0.14492619
13330000000 0.083890095 0.060045522 -0.32623884 0.099803671 -0.32685608 0.10191192 0.03100791 0.15893967
13340000000 0.084079921 0.054199595 -0.29962051 0.16573609 -0.29957289 0.16802992 0.04219589 0.16621228
13350000000 0.079325974 0.048869476 -0.26021397 0.22420345 -0.25941059 0.22649959 0.047427002 0.16034009
13360000000 0.073572122 0.046189863 -0.20961383 0.27424669 -0.2081638 0.2763088 0.047870949 0.14914916
13370000000 0.068002194 0.044657208 -0.15104678 0.31357884 -0.14896363 0.31503153 0.048722625 0.1320878
13380000000 0.060714819 0.044078723 -0.082676306 0.33900321 -0.080349311 0.33960098 0.046126202 0.1231757
13390000000 0.053867944 0.045732029 -0.0099573229 0.34915373 -0.0079303551 0.34939158 0.046552725 0.12529518
13400000000 0.049101748 0.050283194 0.062934414 0.34242633 0.064826354 0.34213138 0.04677457 0.13436967
13410000000 0.04643267 0.055960797 0.13221352 0.32176906 0.13424124 0.32140183 0.044755518 0.14607969
13420000000 0.051892158 0.06270887 0.19607574 0.2866202 0.19805224 0.28599119 0.045765214 0.15118821
13430000000 0.057408426 0.068317525 0.25050727 0.24087465 0.25258401 0.23979625 0.048942637 0.14660761
13440000000 0.068793915 0.071078971 0.29412821 0.18496051 0.29613253 0.18344527 0.055681217 0.14157577
13450000000 0.078318015 0.072562605 0.32555914 0.1213484 0.32724953 0.11931689 0.067345686 0.13634683
13460000000 0.09124203 0.066458918 0.34309679 0.053041756 0.34447452 0.050543532 0.076683626 0.13541129
13470000000 0.099519812 0.061212942 0.34569842 -0.017886095 0.34683415 -0.020980798 0.082688019 0.13551491
13480000000 0.10921901 0.047277797 0.33652258 -0.087611847 0.33676243 -0.091074981 0.083576769 0.13280514
13490000000 0.11123159 0.033461682 0.31301299 -0.15468611 0.31241861 -0.1583356 0.088065356 0.1231498
13500000000 0.11127638 0.012829322 0.27667534 -0.21636569 0.27493584 -0.21980891 0.091474473 0.10487662
13510000000 0.10084101 -0.0035668276 0.22805724 -0.26885682 0.22559747 -0.27167508 0.093513466 0.087519802
13520000000 0.08823552 -0.020154137 0.16812654 -0.31121099 0.16500856 -0.31338954 0.091196746 0.071861692
13530000000 0.071410559 -0.025825929 0.1000597 -0.33977515 0.096678585 -0.34106642 0.076674804 0.068672575
13540000000 0.056646936 -0.031709712 0.026226558 -0.35304293 0.022817902 -0.35366148 0.062357254 0.071746938
13550000000 0.039257362 -0.029331692 -0.046798319 -0.35195756 -0.050435968 -0.35202867 0.044993374 0.075601771
13560000000 0.021402864 -0.021370746 -0.11944381 -0.33551326 -0.12308274 -0.33481011 0.038790025 0.084349595
13570000000 0.01138198 -0.0047697509 -0.18630444 -0.30250806 -0.18971327 -0.30117774 0.041263655 0.085761011
13580000000 0.0031425266 0.012640823 -0.24314308 -0.2577801 -0.24631171 -0.25570044 0.04563614 0.09060581
13590000000 0.0045041754 0.032153204 -0.29115748 -0.20165971 -0.29378062 -0.19894576 0.054376576 0.091606081
13600000000 0.0097945267 0.047662593 -0.32598215 -0.13802573 -0.32828063 -0.13460983 0.052596271 0.086629562
13610000000 0.022002717 0.056470789 -0.34794807 -0.067825198 -0.34947079 -0.063740619 0.043847319 0.087811872
13620000000 0.033705719 0.062616684 -0.35455912 0.0046916753 -0.3551946 0.0090374798 0.037977844 0.088101894
13630000000 0.048668925 0.05881387 -0.34614891 0.077904776 -0.3454569 0.082512081 0.033020906 0.094555706
13640000000 0.061388306 0.053932805 -0.32135463 0.14696755 -0.31989384 0.15123284 0.036621764 0.10994926
13650000000 0.073814973 0.04054058 -0.28297663 0.20792121 -0.28058356 0.21202725 0.052672848 0.11763017
13660000000 0.082537435 0.028300975 -0.23457263 0.26070368 -0.23136134 0.26437366 0.067265078 0.11952913
13670000000 0.08497788 0.0099047292 -0.17697716 0.30100062 -0.17283115 0.3039242 0.084604003 0.11260393
13680000000 0.080985777 -0.0017808452 -0.11360579 0.3305653 -0.1087447 0.33271769 0.094507292 0.092638537
13690000000 0.07102403 -0.012004301 -0.045624971 0.34715545 -0.040313095 0.3481701 0.096802145 0.075490125
13700000000 0.061657637 -0.015820052 0.027269721 0.35015428 0.032858536 0.35018629 0.091096811 0.058819428
13710000000 0.047257807 -0.018031001 0.097512536 0.33808216 0.10322512 0.33694893 0.072128832 0.051868688
13720000000 0.035938408 -0.016619617 0.16712777 0.30988503 0.1725754 0.3075287 0.057413537 0.053801775
13730000000 0.021909822 -0.013470706 0.22592685 0.26991928 0.2311493 0.26649663 0.044637222 0.058567423
13740000000 0.012044208 -0.0052551297 0.27542901 0.21726629 0.27996892 0.21245654 0.044652432 0.068903677
13750000000 0.0065222485 0.0035418724 0.31419107 0.1573 0.31755871 0.15158424 0.053206265 0.07083223
13760000000 0.006639177 0.012061512 0.33718097 0.089779735 0.3392567 0.083491847 0.058055177 0.071032628
13770000000 0.010163158 0.017738011 0.34888929 0.020250976 0.3495546 0.013503477 0.060442988 0.070426032
13780000000 0.016373463 0.023408398 0.34517524 -0.050644323 0.34469372 -0.057315402 0.053995572 0.064874895
13790000000 0.022306331 0.028012414 0.32913071 -0.11951806 0.32718149 -0.12622781 0.043325849 0.064457715
13800000000 0.032075126 0.031238396 0.29891255 -0.18349701 0.29564086 -0.18970989 0.038445137 0.066305049
13810000000 0.039220512 0.030972071 0.25467247 -0.24073325 0.25017041 -0.24629846 0.036430202 0.074128084
13820000000 0.046573587 0.029521395 0.20076129 -0.28662169 0.19511011 -0.29125145 0.044215873 0.089550994
13830000000 0.04931809 0.027508367 0.13772893 -0.32053757 0.13118359 -0.32385775 0.058085211 0.10126474
13840000000 0.05433495 0.022804676 0.071008772 -0.34322053 0.063998997 -0.34490564 0.072419144 0.10535075
13850000000 0.053439807 0.015654542 -0.00087263435 -0.35057545 -0.007928662 -0.35089576 0.087296166 0.094359815
13860000000 0.054414216 0.0089359963 -0.071416602 -0.34523836 -0.078421846 -0.34406671 0.092328541 0.075701237
13870000000 0.051180206 0.00098508969 -0.14036417 -0.32430038 -0.1469426 -0.32204121 0.096226461 0.057871766
13880000000 0.05036189 -0.004341227 -0.20544723 -0.28995803 -0.21197598 -0.28643885 0.090223514 0.043968655
13890000000 0.047924627 -0.009950025 -0.26093382 -0.24026775 -0.26626509 -0.23543043 0.081055574 0.043899521
13900000000 0.04857675 -0.013768796 -0.30572942 -0.18009457 -0.30992091 -0.1740692 0.073429301 0.04766513
13910000000 0.045425404 -0.016315361 -0.33366063 -0.11213768 -0.33623636 -0.1054069 0.069564104 0.055616193
13920000000 0.044963282 -0.01920436 -0.3472085 -0.041164204 -0.34847593 -0.034313634 0.077556431 0.058187637
13930000000 0.040405508 -0.018655654 -0.34584993 0.028473578 -0.34573394 0.035261057 0.091608405 0.053072639
13940000000 0.037080895 -0.02103145 -0.33114225 0.095967621 -0.32978293 0.10260551 0.10251075 0.042665288
13950000000 0.032481097 -0.019787584 -0.30463466 0.15921253 -0.30193847 0.16545364 0.1042899 0.029314933
13960000000 0.02721755 -0.021909613 -0.2663182 0.21628651 -0.26252437 0.22190835 0.095123589 0.018128514
13970000000 0.022044409 -0.022303389 -0.21885487 0.26502243 -0.21389583 0.26965487 0.078377485 0.012711681
13980000000 0.018005524 -0.025530364 -0.16143346 0.304387 -0.15556167 0.30779883 0.063545957 0.013470238
13990000000 0.014558306 -0.028263776 -0.097069427 0.3310717 -0.090941399 0.33289182 0.054703698 0.019638695
14000000000 0.011026857 -0.031805873 -0.029282866 0.34275222 -0.023144484 0.34356606 0.053982109 0.030461159
14010000000 0.010258283 -0.033623159 0.038967863 0.3424055 0.045358289 0.34222624 0.059847139 0.035706624
14020000000 0.0074364906 -0.036293101 0.10573903 0.32936162 0.11204843 0.32781357 0.067337953 0.036944132
14030000000 0.0057213437 -0.034716807 0.16944221 0.3035278 0.17550042 0.30102941 0.073657647 0.028670345
14040000000 0.0024724267 -0.031596094 0.22928987 0.26578325 0.2347945 0.26212206 0.075490363 0.0157414
14050000000 0.00094763748 -0.025181752 0.27892622 0.21437357 0.28363109 0.20958039 0.071364053 0.0045543052
14060000000 -0.00096542574 -0.018471325 0.31818336 0.15540352 0.32182673 0.14908168 0.060215566 0.00069606863
14070000000 -0.00024661177 -0.011642181 0.34536025 0.087084778 0.34719583 0.080716006 0.047673687 0.0049042525
14080000000 0.0008817229 -0.0076218653 0.35938272 0.012908518 0.36007214 0.0063622817 0.037917085 0.013052412
14090000000 0.0030733191 -0.0071881223 0.35402274 -0.062546402 0.35309887 -0.069074266 0.036406647 0.02374519
14100000000 0.0045516146 -0.0096307741 0.33451843 -0.13468304 0.33257782 -0.14076045 0.047343586 0.025275953
14110000000 0.0062497738 -0.015485909 0.29863614 -0.19976141 0.29551369 -0.20520246 0.059347332 0.024833897
14120000000 0.0069084344 -0.024539007 0.25090235 -0.25610018 0.24712598 -0.26088065 0.073753484 0.019480679
14130000000 0.0065410146 -0.032609459 0.19275042 -0.30015171 0.18777519 -0.30439916 0.078459233 0.0079031195
14140000000 0.0033583862 -0.042811234 0.12826033 -0.33349112 0.12228149 -0.33647457 0.071581081 -0.0025262926
14150000000 -0.0014898838 -0.048167739 0.059015557 -0.35194972 0.052757878 -0.3533538 0.061583355 -0.015782671
14160000000 -0.0090997638 -0.052594271 -0.012634732 -0.3579655 -0.019032344 -0.358246 0.048808478 -0.025156144
14170000000 -0.017128507 -0.053406198 -0.083878383 -0.34922853 -0.090095222 -0.34824872 0.041984148 -0.022600748
14180000000 -0.028258804 -0.051123295 -0.15406874 -0.32474124 -0.1600019 -0.32250381 0.041538656 -0.018975159
14190000000 -0.039470483 -0.046466216 -0.21638207 -0.28704432 -0.22158636 -0.28366244 0.038523473 -0.0085334918
14200000000 -0.052419018 -0.038003027 -0.27146477 -0.23541896 -0.27597886 -0.23133828 0.037523437 -0.0032130834
14210000000 -0.05981015 -0.027528843 -0.31200197 -0.17638217 -0.31612056 -0.17140636 0.031009147 -0.0097737247
14220000000 -0.066813007 -0.018218979 -0.34267646 -0.10965355 -0.34576121 -0.10334465 0.023156364 -0.014766105
14230000000 -0.067512915 -0.0067094415 -0.35830975 -0.039349891 -0.35960972 -0.032486513 0.017351344 -0.024317499
14240000000 -0.065035611 0.0019800998 -0.36014146 0.033788696 -0.35957199 0.040844664 0.0064825295 -0.025727656
14250000000 -0.059629831 0.0098329093 -0.34738818 0.10667061 -0.34543166 0.11285495 -0.0023104758 -0.012401834
14260000000 -0.048779987 0.017283784 -0.31863612 0.17529808 -0.31578994 0.18092692 -0.010355454 0.0016847933
14270000000 -0.038117222 0.019064389 -0.27720413 0.23772657 -0.27331334 0.24271442 -0.013920192 0.019254895
14280000000 -0.025930835 0.019725747 -0.22332986 0.29103604 -0.21870214 0.29527509 -0.0086326031 0.030940853
14290000000 -0.017935755 0.017845673 -0.15870298 0.33109224 -0.1531674 0.33453867 0.004523431 0.033153079
14300000000 -0.011659065 0.012863665 -0.086704694 0.35649368 -0.080400415 0.35854161 0.01990094 0.034367129
14310000000 -0.0095416149 0.0091531286 -0.013144657 0.36527508 -0.0066596866 0.36603442 0.036096856 0.031986423
14320000000 -0.0087078176 -0.00017864816 0.060989723 0.35971904 0.067182288 0.35916877 0.042375851 0.024906889
14330000000 -0.013199815 -0.0071987277 0.13226125 0.34016275 0.13806768 0.33839065 0.043008149 0.021420304
14340000000 -0.018487012 -0.014863006 0.19939254 0.30617249 0.20500958 0.30354732 0.042862684 0.012183916
14350000000 -0.026034186 -0.021266282 0.2583409 0.26038724 0.26365015 0.25650311 0.038546015 0.0043035164
14360000000 -0.032983601 -0.025787733 0.30633938 0.20084573 0.31066474 0.19606417 0.038309511 -5.0812145e-05
14370000000 -0.0394575 -0.02718693 0.34067518 0.13445972 0.34366876 0.12849751 0.038750146 -0.0044816961
14380000000 -0.046211213 -0.025746161 0.36024624 0.061478853 0.36169761 0.055142 0.035079557 -0.0085845254
14390000000 -0.049687274 -0.019992329 0.36519909 -0.013102472 0.36530334 -0.019288108 0.031193698 -0.015316801
14400000000 -0.054020315 -0.014904808 0.35346383 -0.087050304 0.35239032 -0.092976391 0.022015635 -0.025409209
14410000000 -0.055568539 -0.0054586958 0.32881883 -0.15628354 0.32678211 -0.16159637 0.010528816 -0.030360287
14420000000 -0.058291245 0.0022844337 0.29012415 -0.21895832 0.28708732 -0.22380503 -0.0011232751 -0.031020617
14430000000 -0.058637485 0.012122206 0.23992147 -0.27285498 0.23599347 -0.27684039 -0.015350953 -0.022737436
14440000000 -0.058906786 0.019815013 0.18014929 -0.31495032 0.17565763 -0.31817329 -0.025286652 -0.0074915113
14450000000 -0.055302229 0.025891921 0.11255587 -0.34525675 0.10751537 -0.34754792 -0.027072951 0.0072162063
14460000000 -0.051975146 0.028217383 0.040193781 -0.36092758 0.034877673 -0.36227661 -0.024041353 0.01811032
14470000000 -0.044210993 0.028309811 -0.032763466 -0.36064065 -0.038630918 -0.36082143 -0.011690095 0.028709313
14480000000 -0.039267778 0.026514402 -0.10436769 -0.34664622 -0.11007472 -0.34564826 0.0048957244 0.032304239
14490000000 -0.029509151 0.021875229 -0.17106801 -0.31824279 -0.17659631 -0.31612813 0.013029445 0.031992704
14500000000 -0.023232806 0.016118562 -0.23171449 -0.27836627 -0.23665166 -0.27490798 0.020376505 0.032456152
14510000000 -0.015796492 0.010765406 -0.28420231 -0.22647306 -0.28783834 -0.22240768 0.021901023 0.023705823
14520000000 -0.012430224 0.0014893115 -0.32508454 -0.16398679 -0.32822561 -0.15927625 0.021717181 0.017881066
14530000000 -0.011542537 -0.0066457428 -0.35260466 -0.095675543 -0.35503811 -0.090323836 0.029762495 0.0089640981
14540000000 -0.019206762 -0.014710619 -0.36492014 -0.022044152 -0.36620176 -0.015836179 0.03245233 -0.00014456734
14550000000 -0.027521074 -0.018396361 -0.36320454 0.052527249 -0.36286697 0.058993816 0.035828747 -0.0015552426
14560000000 -0.039862856 -0.02103721 -0.34448931 0.1264737 -0.34273848 0.13245434 0.036783237 -0.010215303
14570000000 -0.051530227 -0.021667754 -0.31132695 0.1950662 -0.30834779 0.20040318 0.027825862 -0.0208742
14580000000 -0.062941745 -0.018726163 -0.26406044 0.25508639 -0.26014665 0.25950018 0.019242479 -0.033611313
14590000000 -0.070799656 -0.016679566 -0.20504597 0.30398726 -0.20062591 0.30760098 0.0081438487 -0.048988756
14600000000 -0.078059413 -0.011016931 -0.13901702 0.33726901 -0.13406336 0.34014732 -0.0048945211 -0.053843625
14610000000 -0.079991207 -0.0056054965 -0.066919595 0.35742375 -0.061647698 0.359707 -0.017038574 -0.04923857
14620000000 -0.080478311 0.0013428815 0.0064565241 0.36181092 0.012388662 0.36264139 -0.032493606 -0.039901718
14630000000 -0.079915732 0.0082128569 0.079860583 0.35033083 0.085564926 0.34998399 -0.048001524 -0.022932636
14640000000 -0.076852351 0.017261231 0.14822537 0.32586682 0.15369596 0.32428804 -0.053524897 -0.0081123337
14650000000 -0.073205948 0.022850513 0.20994732 0.28765723 0.21457949 0.28497371 -0.053024475 -0.00075453892
14660000000 -0.070254013 0.029042261 0.26177868 0.23990798 0.26568481 0.2366197 -0.047260817 0.0078975568
14670000000 -0.069728345 0.032388821 0.30291569 0.18310371 0.30584437 0.17919052 -0.036539052 0.012113422
14680000000 -0.064357884 0.035554051 0.33251697 0.11895312 0.33453149 0.11491007 -0.032166138 0.015301018
14690000000 -0.06482929 0.032068692 0.34829038 0.051631436 0.34951812 0.047373295 -0.028108224 0.018392988
14700000000 -0.061546337 0.030978402 0.35265523 -0.018497407 0.35311046 -0.022839695 -0.025538113 0.013778665
14710000000 -0.063362941 0.024570791 0.34183642 -0.08814463 0.34150627 -0.092195764 -0.025897928 0.010982932
14720000000 -0.063296013 0.020880464 0.31902352 -0.15312335 0.31784663 -0.15731435 -0.019517498 0.0073316172
14730000000 -0.066710889 0.018216249 0.28368413 -0.21453053 0.28178471 -0.21815225 -0.017869627 0.0014287774
14740000000 -0.06589102 0.017098878 0.23564865 -0.26779458 0.23296711 -0.27083117 -0.020049112 0.001881361
14750000000 -0.071059793 0.017575154 0.17733768 -0.31085983 0.17417462 -0.31351191 -0.022454947 -0.0027957624
14760000000 -0.071951829 0.022002757 0.11154713 -0.34177145 0.1080014 -0.34355867 -0.032136798 -0.0074833818
14770000000 -0.077415705 0.027648928 0.039150029 -0.35858369 0.035209902 -0.35987157 -0.039312501 -0.0075484943
14780000000 -0.077787265 0.034950193 -0.034809414 -0.35920224 -0.039178345 -0.35958055 -0.044251285 -0.008820029
14790000000 -0.082449347 0.042799465 -0.10612158 -0.34435791 -0.11041833 -0.3439768 -0.05426541 -0.003496198
14800000000 -0.081156626 0.047706053 -0.1742696 -0.31600907 -0.17848304 -0.31464481 -0.059398554 0.007085098
14810000000 -0.083501831 0.052711103 -0.23411475 -0.27381817 -0.2379666 -0.27145976 -0.064901814 0.011929512
14820000000 -0.082268409 0.054502212 -0.28542465 -0.22165594 -0.28877369 -0.21843673 -0.069182366 0.018823948
14830000000 -0.082014978 0.057317652 -0.32454544 -0.15966815 -0.32697076 -0.15593006 -0.063197747 0.02126113
14840000000 -0.078799047 0.056585982 -0.35005358 -0.091240436 -0.35159406 -0.087128751 -0.060008753 0.02081627
14850000000 -0.075459138 0.059803061 -0.36116147 -0.019355869 -0.36192799 -0.014974942 -0.056463581 0.028196512
14860000000 -0.069386095 0.059997361 -0.35674247 0.053818602 -0.35675433 0.058009326 -0.052752841 0.032838244
14870000000 -0.065330185 0.063525394 -0.33891338 0.12398455 -0.33844024 0.12811807 -0.059623934 0.036270387
14880000000 -0.058139443 0.065099083 -0.30634862 0.19007026 -0.30497906 0.19441655 -0.061418962 0.042692818
14890000000 -0.054733623 0.067730613 -0.26293907 0.24728057 -0.26047876 0.2513358 -0.059379708 0.041148197
14900000000 -0.052169476 0.069733799 -0.20854716 0.29595089 -0.20533946 0.29917431 -0.057376638 0.04260762
14910000000 -0.050674148 0.073760055 -0.14506876 0.33225986 -0.14119117 0.33477977 -0.049621541 0.049237773
14920000000 -0.050631821 0.075028159 -0.075939618 0.3545613 -0.07161133 0.35605153 -0.047030076 0.052151673
14930000000 -0.050617907 0.077052347 -0.0023881942 0.36361834 0.0019373745 0.36400533 -0.050808854 0.059202094
14940000000 -0.050927393 0.076215759 0.071810924 0.35657144 0.075850338 0.35613137 -0.051029317 0.062029772
14950000000 -0.049610306 0.078326195 0.14374223 0.33483994 0.14762902 0.33383828 -0.053131118 0.057401352
14960000000 -0.04669188 0.075499699 0.20820372 0.2994405 0.2120752 0.29777986 -0.048808724 0.059118189
14970000000 -0.042388923 0.075816259 0.26354349 0.25218642 0.26712722 0.24984562 -0.03744407 0.059265766
14980000000 -0.036037944 0.072678283 0.30938679 0.19558631 0.31274542 0.19233811 -0.03238545 0.06203007
14990000000 -0.027080549 0.070210621 0.34277406 0.12862907 0.34503594 0.12461193 -0.026727343 0.069685012
15000000000 -0.021193493 0.06541454 0.3617577 0.056729153 0.36325413 0.052377984 -0.022912774 0.065067641
15010000000 -0.014940267 0.06080747 0.36712557 -0.018143654 0.36750755 -0.022954687 -0.02637912 0.059647277
15020000000 -0.01469806 0.054477908 0.35725468 -0.093685225 0.35675794 -0.098504275 -0.020035218 0.053323407
15030000000 -0.015406351 0.05102621 0.33063421 -0.16439997 0.32912835 -0.16881955 -0.01662923 0.041007578
15040000000 -0.020307379 0.046683986 0.29099169 -0.22838314 0.28894505 -0.23260401 -0.019914355 0.040196396
15050000000 -0.0265135 0.043753143 0.23716629 -0.28233597 0.23406978 -0.2863597 -0.021100543 0.041752413
15060000000 -0.035927359 0.044735096 0.17362969 -0.3246066 0.16941252 -0.32796335 -0.034842379 0.038763709
15070000000 -0.040547632 0.043662325 0.10264217 -0.35153627 0.097640976 -0.35375753 -0.046921771 0.042026334
15080000000 -0.047708116 0.047642384 0.029082596 -0.3639279 0.023593545 -0.36500052 -0.051702417 0.039340749
15090000000 -0.047534991 0.049088705 -0.043788776 -0.36164963 -0.049203321 -0.36139095 -0.057321884 0.039756212
15100000000 -0.048438318 0.053587601 -0.11499601 -0.34644988 -0.1201369 -0.34507895 -0.050911263 0.049292553
15110000000 -0.044375088 0.054816991 -0.18233489 -0.31586933 -0.18696341 -0.31368703 -0.047345936 0.053277977
15120000000 -0.041098479 0.058818966 -0.24090682 -0.27178919 -0.24556443 -0.26898378 -0.047761384 0.065787189
15130000000 -0.035269443 0.060936984 -0.29023078 -0.21736839 -0.29439092 -0.21333036 -0.043217015 0.071328931
15140000000 -0.030281428 0.06394884 -0.32786649 -0.15322328 -0.33138007 -0.14844498 -0.041924275 0.070493937
15150000000 -0.024683423 0.063200817 -0.35039592 -0.084491193 -0.35310695 -0.078736603 -0.037371054 0.074295327
15160000000 -0.021518599 0.063094266 -0.36028552 -0.014026418 -0.36153561 -0.007636711 -0.026518699 0.070607215
15170000000 -0.017933816 0.059141565 -0.35602534 0.058216214 -0.35572338 0.064830005 -0.02429745 0.068227887
15180000000 -0.017839123 0.055562507 -0.33661249 0.12767819 -0.33479407 0.13404755 -0.021063762 0.069169171
15190000000 -0.017981626 0.047695413 -0.30469915 0.19184181 -0.30171162 0.19775194 -0.019935243 0.059919927
15200000000 -0.022623993 0.042221144 -0.26103237 0.25010154 -0.25688353 0.25516266 -0.027216859 0.052979235
15210000000 -0.026636323 0.035753094 -0.20540027 0.29800087 -0.20045631 0.30208665 -0.028754797 0.049349446
15220000000 -0.032778192 0.033244822 -0.14250396 0.33435276 -0.13688813 0.33766675 -0.031811059 0.041514874
15230000000 -0.038809702 0.031900834 -0.071325116 0.35778737 -0.064941615 0.35980904 -0.039403785 0.043185469
15240000000 -0.043037578 0.035173871 0.0029647648 0.36471334 0.0094511658 0.36537391 -0.041590326 0.044266768
15250000000 -0.046274617 0.038549893 0.077583395 0.35663873 0.084123217 0.35611081 -0.049585272 0.043128688
15260000000 -0.04877805 0.045749068 0.1493004 0.3335779 0.15561664 0.33163929 -0.055290304 0.050230958
15270000000 -0.048407391 0.051553916 0.21474577 0.29523921 0.22059494 0.29194656 -0.054817446 0.053031012
15280000000 -0.047695644 0.058935199 0.27022624 0.24382076 0.27509037 0.23937733 -0.061204668 0.058954194
15290000000 -0.045107175 0.063677974 0.31237632 0.18151483 0.31606463 0.17636888 -0.063232169 0.070647746
15300000000 -0.042447645 0.067330711 0.34094077 0.11339438 0.34360105 0.10756098 -0.066405475 0.073569916
15310000000 -0.039626621 0.068545036 0.35379994 0.04021059 0.35519442 0.034084566 -0.072567403 0.081108339
15320000000 -0.037863672 0.069692038 0.35151494 -0.030874725 0.35166931 -0.037059207 -0.069475994 0.087621979
15330000000 -0.035258483 0.071263291 0.33597314 -0.09863726 0.3351807 -0.10470992 -0.063536577 0.089928284
15340000000 -0.030447815 0.070912413 0.30832869 -0.16101298 0.30630413 -0.16721576 -0.059445005 0.099950314
15350000000 -0.026382687 0.06999176 0.26983395 -0.2155782 0.26650909 -0.22118282 -0.047884256 0.10711292
15360000000 -0.021397268 0.068763867 0.22347465 -0.26355833 0.21905914 -0.26867571 -0.045893967 0.10757569
15370000000 -0.017023262 0.066625126 0.16717976 -0.30197611 0.16149083 -0.30583084 -0.043892108 0.10976262
15380000000 -0.014020046 0.064882591 0.10575928 -0.32923546 0.099446848 -0.33181709 -0.037138723 0.10255285
15390000000 -0.011030643 0.062701888 0.039219659 -0.34544569 0.032365248 -0.34687424 -0.035671785 0.097485915
15400000000 -0.01002937 0.061345872 -0.029293738 -0.34745127 -0.0360955 -0.34723788 -0.029112417 0.10019453
15410000000 -0.0093283132 0.061298147 -0.097347558 -0.33650997 -0.10385222 -0.33517861 -0.02513968 0.10053368
15420000000 -0.0067942347 0.061126743 -0.16324563 -0.31089318 -0.1692903 -0.308139 -0.028647777 0.10706092
15430000000 -0.0037174951 0.059024315 -0.22266857 -0.27196181 -0.22808282 -0.26824901 -0.025250133 0.11108679
15440000000 -0.00108869 0.057986174 -0.27340031 -0.22157311 -0.27773839 -0.21706927 -0.025961239 0.10394164
15450000000 0.0044023301 0.053907566 -0.31314495 -0.16248344 -0.31660998 -0.15742521 -0.023990465 0.10212374
15460000000 0.0072624087 0.047711458 -0.34024701 -0.096744262 -0.34279904 -0.09114214 -0.014812564 0.096166156
15470000000 0.0098906551 0.041172162 -0.35358498 -0.027156999 -0.35524738 -0.021019861 -0.014412049 0.09360683
15480000000 0.010140056 0.033117216 -0.35258329 0.04423514 -0.3527301 0.050555289 -0.014719781 0.097291872
15490000000 0.0081335343 0.027280118 -0.33657378 0.1147721 -0.33532819 0.1213688 -0.017731175 0.095555112
15500000000 0.004541791 0.022610761 -0.3067961 0.18077996 -0.30378366 0.18644759 -0.027077924 0.095916912
15510000000 0.00063644163 0.019164709 -0.26386258 0.24037893 -0.25978515 0.24513203 -0.026970126 0.09891022
15520000000 -0.0057528657 0.017381156 -0.2088246 0.28875995 -0.20404428 0.29193717 -0.026833938 0.099616967
15530000000 -0.013149066 0.018567141 -0.14692542 0.32360241 -0.14226124 0.32572323 -0.025777802 0.10792058
15540000000 -0.018339189 0.022933856 -0.079566464 0.34557286 -0.075027496 0.34693319 -0.019281996 0.11676876
15550000000 -0.019047553 0.02805317 -0.0094415098 0.3537069 -0.0046628192 0.3544682 -0.017491503 0.11795564
15560000000 -0.018729404 0.033196226 0.060373262 0.34877935 0.065354489 0.34868854 -0.014393561 0.12214874
15570000000 -0.01292634 0.036513407 0.12878883 0.3311193 0.13392542 0.33009106 -0.0049068592 0.1195063
15580000000 -0.0072477292 0.037531201 0.19353318 0.30016395 0.19826022 0.29783601 -0.00090643391 0.1145216
15590000000 0.0032531973 0.037168868 0.24997568 0.25607648 0.2542232 0.25286445 0.0036679879 0.11773289
15600000000 0.01156217 0.032431781 0.29713115 0.20114779 0.3003346 0.1969669 0.009395346 0.11363813
15610000000 0.021122184 0.025185637 0.33239973 0.1371593 0.3345755 0.13247845 0.0059680361 0.11039053
15620000000 0.027292036 0.01462334 0.35431713 0.066505529 0.35540211 0.061820656 0.010402412 0.10789944
15630000000 0.030683054 0.0010461388 0.36118805 -0.007062465 0.3617385 -0.011853233 0.013872635 0.098438255
15640000000 0.026735449 -0.012265876 0.35315621 -0.080177993 0.35261831 -0.085299991 0.015666027 0.095304199
15650000000 0.020098964 -0.023970107 0.32950097 -0.14939857 0.32795179 -0.15444152 0.020142481 0.091639638
15660000000 0.010948397 -0.033425801 0.29292688 -0.21322636 0.29032725 -0.21789095 0.015310816 0.08557941
15670000000 -0.0010860278 -0.043179002 0.24343556 -0.2682786 0.23960428 -0.27246958 0.0098943869 0.083750628
15680000000 -0.015725229 -0.04754737 0.18353924 -0.31265789 0.17882825 -0.31576332 0.0082061999 0.075705752
15690000000 -0.029677302 -0.049733952 0.11649448 -0.34278417 0.11134608 -0.3449254 0.0036771987 0.069663256
15700000000 -0.04187277 -0.046665486 0.046202943 -0.35938841 0.04054971 -0.3600691 0.0044899341 0.071737021
15710000000 -0.051314961 -0.042596541 -0.026264161 -0.36115992 -0.031715646 -0.36100191 0.0024354607 0.072943389
15720000000 -0.057806171 -0.03520751 -0.098157406 -0.34845203 -0.10389774 -0.34733158 -0.0068737231 0.079256311
15730000000 -0.062539689 -0.026426326 -0.16668016 -0.32076502 -0.1720922 -0.31847906 -0.013878882 0.084057182
15740000000 -0.062778115 -0.015613482 -0.228338 -0.28093228 -0.2334121 -0.27751926 -0.019709019 0.082271621
15750000000 -0.05913166 -0.0047078086 -0.28119531 -0.22930908 -0.28569576 -0.22478287 -0.022159429 0.084173568
15760000000 -0.051577963 0.002471718 -0.32234031 -0.16886163 -0.32584876 -0.16319248 -0.014668763 0.089552
15770000000 -0.043250866 0.0063215476 -0.35084978 -0.10013123 -0.35288978 -0.09390258 -0.0076925196 0.094556786
15780000000 -0.03417401 0.0046136528 -0.36351746 -0.026930094 -0.36426944 -0.020460144 -0.0056266449 0.10278027
15790000000 -0.028051443 -0.00045539811 -0.36070707 0.047344655 -0.36019975 0.053907588 -0.00066743419 0.10423037
15800000000 -0.022988789 -0.010306267 -0.34304059 0.12038189 -0.3411341 0.12690985 -0.0035996418 0.096313238
15810000000 -0.021731831 -0.022572003 -0.3104879 0.18696959 -0.30738807 0.19279504 1.444295e-05 0.090236008
15820000000 -0.024803765 -0.036895622 -0.26747805 0.2459126 -0.26296943 0.25112036 0.0053825001 0.080349296
15830000000 -0.029880065 -0.049157873 -0.21196765 0.29481125 -0.20665587 0.2990354 0.003037693 0.079678081
15840000000 -0.038511515 -0.060142837 -0.14904931 0.32993281 -0.14300489 0.33298317 0.0037210286 0.08903484
15850000000 -0.048772972 -0.067729808 -0.07977131 0.35235047 -0.073305681 0.35422352 -0.00018425658 0.08999081
15860000000 -0.061911978 -0.070256546 -0.0068537742 0.3600347 -0.00019231439 0.36059862 -0.0075440295 0.094716057
15870000000 -0.073367566 -0.068439156 0.065870754 0.35355315 0.072506391 0.35278437 -0.0041835569 0.093227223
15880000000 -0.084814042 -0.06137874 0.1358804 0.33343238 0.14251024 0.33131185 -0.0030525755 0.087084711
15890000000 -0.091890313 -0.051187668 0.19967861 0.29926381 0.20558795 0.29582319 0.00086810789 0.089176692
15900000000 -0.096924029 -0.040713411 0.2553317 0.25516915 0.26058456 0.25057894 0.0055921702 0.086286701
15910000000 -0.097998403 -0.030932739 0.30207697 0.19868919 0.30625665 0.19296396 -0.00092303753 0.086730495
15920000000 -0.098026797 -0.023031738 0.33628047 0.13415688 0.33912104 0.12774834 -0.0027222224 0.089770406
15930000000 -0.092641175 -0.018561404 0.35795665 0.062870741 0.35948601 0.05622898 -0.0047343187 0.086997062
15940000000 -0.086640708 -0.018090652 0.36456907 -0.010976166 0.36458954 -0.017841026 -0.0078788418 0.090692267
15950000000 -0.079066202 -0.023569673 0.35614827 -0.085207082 0.35486153 -0.091991231 -0.0029045157 0.09399347
15960000000 -0.074043982 -0.034005526 0.33185512 -0.15758103 0.32921758 -0.16351587 -0.0037112474 0.093451515
15970000000 -0.073658168 -0.045686059 0.2913571 -0.22232646 0.28766951 -0.22762331 -0.0051315147 0.096328706
15980000000 -0.076842479 -0.055624127 0.23927546 -0.27812648 0.23461637 -0.28275299 -0.0045869835 0.091805972
15990000000 -0.082336701 -0.063458808 0.17485788 -0.32128593 0.16923234 -0.32491064 -0.010512393 0.090583391
16000000000 -0.091424897 -0.067463949 0.10379171 -0.34892258 0.097505257 -0.35125083 -0.011056148 0.097233757
16010000000 -0.10087013 -0.06782452 0.029462509 -0.35932675 0.022754237 -0.3603687 -0.012077894 0.10204554
16020000000 -0.11129443 -0.063399263 -0.043860823 -0.35414338 -0.050717279 -0.35372433 -0.016744539 0.11417339
16030000000 -0.11865655 -0.057421066 -0.11239 -0.3345812 -0.11867042 -0.33284578 -0.011754869 0.12388216
16040000000 -0.12426077 -0.04947288 -0.17638162 -0.30370086 -0.18218331 -0.30088845 -0.0026779175 0.12405985
16050000000 -0.1247901 -0.046468787 -0.23212916 -0.26097164 -0.23720983 -0.25703061 0.009182997 0.12319657
16060000000 -0.12440604 -0.043616436 -0.27871025 -0.21010649 -0.28293619 -0.20521303 0.028636757 0.11910028
16070000000 -0.12178177 -0.048956156 -0.31356475 -0.15074757 -0.31692898 -0.14511506 0.038898718 0.11097486
16080000000 -0.1215942 -0.054291736 -0.33657905 -0.086167917 -0.33869305 -0.079717226 0.042411454 0.10553999
16090000000 -0.12296955 -0.063826442 -0.34617069 -0.018556755 -0.34697789 -0.011894062 0.040048666 0.094226576
16100000000 -0.12520741 -0.070173457 -0.34287262 0.051163495 -0.34236345 0.058096703 0.030773584 0.081308916
16110000000 -0.13000786 -0.078611955 -0.3267231 0.11829455 -0.32451984 0.12493903 0.026861919 0.074761026
16120000000 -0.13618989 -0.083465979 -0.29796252 0.18188575 -0.29451495 0.18780769 0.02623596 0.068056494
16130000000 -0.14670336 -0.088896982 -0.25645143 0.23845467 -0.25208443 0.24366874 0.02251604 0.071616828
16140000000 -0.15869555 -0.089092433 -0.20481752 0.28448042 -0.19942823 0.28854239 0.021300834 0.078819714
16150000000 -0.1722049 -0.088193223 -0.14373112 0.32207751 -0.1376152 0.32497376 0.012594923 0.07631278
16160000000 -0.18649577 -0.08602874 -0.073686957 0.34533063 -0.067206644 0.3468169 -0.0001333828 0.076025307
16170000000 -0.20195247 -0.081359625 -2.7805567e-05 0.35425714 0.0064135939 0.35467196 -0.003796 0.071162298
16180000000 -0.21507269 -0.075826563 0.075266771 0.34725732 0.081766464 0.3462857 -0.0087055918 0.068506911
16190000000 -0.22700515 -0.068209685 0.14482002 0.32292074 0.15114425 0.32083219 -0.0069322921 0.07974562
16200000000 -0.23306599 -0.059712529 0.20688333 0.2855258 0.21280541 0.28231335 -0.0019308999 0.091215417
16210000000 -0.23656772 -0.051710565 0.25894776 0.23580813 0.26405829 0.23146732 -0.0030427016 0.10319939
16220000000 -0.23465912 -0.044597909 0.2990312 0.17776743 0.30313259 0.17230129 0.0042333379 0.11215021
16230000000 -0.23078126 -0.040507048 0.32729554 0.11383525 0.33009049 0.10780133 0.015968673 0.10746279
16240000000 -0.22765642 -0.037188739 0.34284791 0.046120901 0.34423438 0.039459508 0.028397193 0.10066231
16250000000 -0.22456521 -0.037278622 0.34475952 -0.02190619 0.3446084 -0.02860789 0.044028949 0.092054218
16260000000 -0.22442098 -0.03688667 0.33537728 -0.089776091 0.3339622 -0.096116662 0.04658429 0.079249471
16270000000 -0.22723198 -0.039412603 0.31021971 -0.15649186 0.30752921 -0.16199565 0.037166178 0.070925772
16280000000 -0.23220102 -0.043031838 0.27100161 -0.21748705 0.26771137 -0.22226238 0.022411121 0.057902969
16290000000 -0.24289209 -0.049669728 0.21884003 -0.26860613 0.21508402 -0.27273533 0.0015287343 0.049250372
16300000000 -0.25635275 -0.055052787 0.15788436 -0.30749902 0.15323839 -0.31105748 -0.0087398402 0.051409319
16310000000 -0.273826 -0.060448006 0.091054894 -0.33226126 0.085645944 -0.3345136 -0.010674205 0.056783769
16320000000 -0.2915608 -0.063165538 0.021519348 -0.34283501 0.015776396 -0.34399858 -0.011682907 0.07181032
16330000000 -0.31222659 -0.060856178 -0.047154777 -0.33797866 -0.052658856 -0.33782935 -0.0054290965 0.08462441
16340000000 -0.32890847 -0.053610459 -0.11343315 -0.32176393 -0.11898413 -0.32050571 -0.0030157752 0.08641243
16350000000 -0.34486356 -0.041528806 -0.17591107 -0.29097572 -0.18075436 -0.28870177 -0.0004382506 0.084424824
16360000000 -0.3569769 -0.024980038 -0.23108073 -0.25022626 -0.2353739 -0.24681738 0.0068008136 0.078054518
16370000000 -0.36494949 -0.003259683 -0.276972 -0.19868173 -0.28046709 -0.19481979 0.0094810342 0.070736974
16380000000 -0.36779413 0.017457128 -0.31245011 -0.13884434 -0.31511098 -0.13417959 0.0092300661 0.071263522
16390000000 -0.36833677 0.038399175 -0.33354703 -0.073262833 -0.33535045 -0.068279445 0.0063871704 0.069411911
16400000000 -0.36478192 0.056116134 -0.34207308 -0.0030896366 -0.3427583 0.0021470636 -0.0033963993 0.064980276
16410000000 -0.36079872 0.067483842 -0.33408099 0.067221999 -0.33356488 0.072497606 -0.0085472949 0.061071686
16420000000 -0.35752201 0.075216025 -0.31389993 0.13457128 -0.31223565 0.13979819 -0.01186514 0.052110486
16430000000 -0.35240152 0.076916255 -0.28017217 0.19760793 -0.27747104 0.20235023 -0.01877133 0.050189063
16440000000 -0.34988961 0.074040547 -0.23320423 0.2516304 -0.22941889 0.25591314 -0.026015164 0.053069953
16450000000 -0.35015509 0.067391813 -0.17580669 0.29464853 -0.1713708 0.29793212 -0.041377384 0.058442965
16460000000 -0.35463935 0.060605414 -0.10956493 0.32493359 -0.10426015 0.32743308 -0.056610048 0.070727617
16470000000 -0.36349601 0.056341901 -0.037940651 0.3394987 -0.031985447 0.34083223 -0.062330134 0.083647616
16480000000 -0.37330538 0.057561353 0.034541279 0.33906165 0.040786371 0.33931774 -0.06036498 0.10143577
16490000000 -0.38713047 0.060788199 0.10439928 0.32173008 0.11049042 0.3204492 -0.045273826 0.12522316
16500000000 -0.40200731 0.071320899 0.16689268 0.29184619 0.17278019 0.28925899 -0.024020122 0.14322044
16510000000 -0.41769493 0.085574009 0.22172943 0.24816167 0.22667184 0.24434397 -0.0035294238 0.15316305
16520000000 -0.43018684 0.10426319 0.26530516 0.19489542 0.26941067 0.19023381 0.017664906 0.1480376
16530000000 -0.440622 0.12341496 0.29649431 0.13385208 0.29949802 0.12855923 0.035996862 0.12553053
16540000000 -0.44605401 0.14135611 0.3151044 0.06933482 0.31708568 0.063366577 0.048588 0.098866232
16550000000 -0.45030856 0.15670259 0.31983861 0.0037531555 0.32045978 -0.0025021583 0.055731863 0.072268479
16560000000 -0.44977957 0.16944945 0.31222516 -0.06028948 0.31160721 -0.066762939 0.047382403 0.050628327
16570000000 -0.45103338 0.17934355 0.29076445 -0.12091365 0.28890431 -0.12699085 0.026714336 0.038700182
16580000000 -0.44888434 0.1895127 0.25975245 -0.17507927 0.25665316 -0.18051238 0.0034994604 0.027553285
16590000000 -0.44805166 0.19910249 0.21822083 -0.2236172 0.21421987 -0.22843172 -0.025628451 0.020071667
16600000000 -0.44634864 0.20942327 0.16940016 -0.2618722 0.16116506 -0.2686277 -0.04731445 0.025291197
16610000000 -0.44583008 0.22033316 0.11371414 -0.29129049 0.10387404 -0.29632163 -0.061598197 0.037591033
16620000000 -0.44550955 0.23243749 0.052206449 -0.31029731 0.041220993 -0.31291145 -0.076184966 0.062037848
16630000000 -0.44624853 0.24510843 -0.012941152 -0.315575 -0.024293661 -0.31540033 -0.08446148 0.096216843
16640000000 -0.44876361 0.25431815 -0.080219209 -0.30696362 -0.090777718 -0.30412036 -0.085592538 0.12668613
16650000000 -0.45486799 0.264456 -0.14519697 -0.28162247 -0.15471224 -0.27653921 -0.075722381 0.15519537
16660000000 -0.46268475 0.2735258 -0.20246918 -0.24170411 -0.21035032 -0.23481585 -0.04710345 0.17503341
16670000000 -0.47151479 0.28505874 -0.24947146 -0.1908659 -0.25573295 -0.18260254 -0.01104081 0.18324989
16680000000 -0.48011053 0.29682222 -0.28318769 -0.1292024 -0.28739887 -0.11997125 0.028363377 0.18357833
16690000000 -0.48615763 0.31218088 -0.3000848 -0.063493058 -0.30234873 -0.053682588 0.064023055 0.16596125
16700000000 -0.48914337 0.32880229 -0.30194315 0.003489539 -0.30208364 0.013331935 0.082642317 0.13507923
16710000000 -0.4881691 0.34768054 -0.28848693 0.067745849 -0.28651991 0.077501014 0.092699304 0.097847536
16720000000 -0.484725 0.3649689 -0.26190764 0.12641232 -0.2578463 0.13514802 0.086223863 0.054783124
16730000000 -0.48042512 0.38236946 -0.22412464 0.17619942 -0.21830413 0.18366697 0.065533809 0.023857491
16740000000 -0.47787657 0.39878041 -0.17713252 0.21521047 -0.17006442 0.22105817 0.039285604 0.0041415095
16750000000 -0.47675499 0.41606331 -0.12582584 0.24069674 -0.1179411 0.24489558 0.0033760837 -0.0048695789
16760000000 -0.47755539 0.43414456 -0.071982943 0.25528443 -0.063083783 0.25794497 -0.031465482 0.0024775676
16770000000 -0.47718731 0.45222616 -0.019348331 0.25805423 -0.010201998 0.25852901 -0.054535739 0.018047433
16780000000 -0.47834826 0.47062999 0.031997941 0.25193495 0.040656984 0.25041687 -0.073676929 0.040731914
16790000000 -0.4771463 0.48891664 0.079770133 0.23619302 0.087735035 0.23351645 -0.080209956 0.07177078
16800000000 -0.47455797 0.50770736 0.1222014 0.21219887 0.12957375 0.20812854 -0.080366828 0.098700806
16810000000 -0.46836489 0.52677381 0.1598078 0.18224305 0.16626298 0.17682186 -0.075213939 0.12565705
16820000000 -0.46013874 0.54662561 0.19134554 0.14417137 0.19654189 0.13755967 -0.053412043 0.14411283
16830000000 -0.44937333 0.56658053 0.21542826 0.10093403 0.21897522 0.093572028 -0.024847381 0.1479679
16840000000 -0.43808082 0.58765262 0.22980174 0.053029567 0.23187317 0.045253646 0.010530639 0.14718159
16850000000 -0.42543691 0.60808384 0.2335314 0.0037743896 0.23412125 -0.0043796338 0.043980502 0.13439775
16860000000 -0.41352662 0.62944204 0.22689793 -0.04387084 0.22580892 -0.052036181 0.063281119 0.11405846
16870000000 -0.40121496 0.64943457 0.21096475 -0.08977893 0.20793162 -0.097448356 0.070268139 0.086492285
16880000000 -0.38953274 0.66854674 0.18419664 -0.13079973 0.17977434 -0.13745691 0.061310347 0.05008902
16890000000 -0.37848294 0.68524706 0.14938492 -0.16522147 0.14372879 -0.1708869 0.040520668 0.014120669
16900000000 -0.36668277 0.70116162 0.10853495 -0.19083306 0.1016503 -0.19490574 0.010225494 -0.0079457872
16910000000 -0.35491338 0.71417856 0.062812887 -0.20630768 0.055421557 -0.20864862 -0.022999782 -0.012734398
16920000000 -0.34177008 0.72714347 0.016363245 -0.21035412 0.0088736862 -0.21098392 -0.061069068 0.001286855
16930000000 -0.32849243 0.74024558 -0.029843638 -0.20287223 -0.037115604 -0.20184118 -0.093503885 0.03099052
16940000000 -0.31185982 0.75561291 -0.070477776 -0.18533018 -0.076942205 -0.18283632 -0.11437154 0.059784364
16950000000 -0.29415435 0.77148819 -0.10580968 -0.15968718 -0.1113199 -0.15588041 -0.12170073 0.095052674
16960000000 -0.27408081 0.78869897 -0.13266039 -0.12843451 -0.13712393 -0.12388066 -0.10471692 0.12711775
16970000000 -0.25395241 0.80605185 -0.15078816 -0.094029747 -0.15404344 -0.088859156 -0.077060908 0.15247364
16980000000 -0.23317683 0.8232466 -0.16146044 -0.058833171 -0.16359217 -0.053361598 -0.042369042 0.17653781
16990000000 -0.21301396 0.83984607 -0.16335753 -0.023699056 -0.16427785 -0.018175434 -0.0022455305 0.18221863
17000000000 -0.19310053 0.85537958 -0.15914743 0.0091334246 -0.15906666 0.014602084 0.02864432 0.17105137
