!Keysight Technologies,P9374A,MY57211807,A.19.30.04
!Date: Friday, May 01, 2026 14:48:38
!Correction: S11(C  2-Port  ) 
!S21(C  2-Port  ) 
!S12(C  2-Port  ) 
!S22(C  2-Port  ) 
!S2P File: Measurements: S11, S21, S12, S22:
# Hz S  RI   R 50
13000000000 0.040485729 0.06287913 -0.088533998 0.061931092 -0.087633282 0.063484348 0.002328977 0.16716842
13010000000 0.029441975 0.074008703 -0.071980216 0.075112045 -0.071050525 0.076706707 -0.0029360056 0.15467805
13020000000 0.021537274 0.08005026 -0.057267487 0.085748889 -0.056009084 0.087399013 -0.014688589 0.14583749
13030000000 0.01521441 0.09009634 -0.040457569 0.095361061 -0.03851125 0.096526787 -0.024880297 0.15051578
13040000000 0.012208331 0.10046412 -0.02201339 0.10276178 -0.019782325 0.10347138 -0.032106057 0.1543324
13050000000 0.016663902 0.11110151 -0.0011745628 0.10577045 0.0011163737 0.10577784 -0.032768257 0.17043625
13060000000 0.022784572 0.11865572 0.020628795 0.10686643 0.022887986 0.10643579 -0.024143007 0.17537586
13070000000 0.036211811 0.12431699 0.045374334 0.1003373 0.047105424 0.099291801 -0.019143466 0.17431138
13080000000 0.048015967 0.12279281 0.066444926 0.086256772 0.068114243 0.085182995 -0.010812543 0.16898596
13090000000 0.060677011 0.11981293 0.080607831 0.068750441 0.081788197 0.067568243 -0.0045732483 0.16106404
13100000000 0.0684679 0.11303817 0.090166025 0.050611813 0.091429628 0.049368758 -0.011236217 0.15440008
13110000000 0.076112792 0.10548291 0.097481079 0.03353399 0.098395444 0.031876765 -0.013896711 0.15774889
13120000000 0.0784541 0.093615338 0.10224291 0.015028161 0.10286296 0.013255518 -0.025893696 0.1598814
13130000000 0.075599581 0.082910977 0.10586941 -0.0053164186 0.10590262 -0.0073066391 -0.031668551 0.17507474
13140000000 0.068024084 0.073419675 0.10497102 -0.026874458 0.10457489 -0.028689459 -0.026470061 0.1808372
13150000000 0.059566163 0.068504363 0.098071806 -0.051288661 0.097498238 -0.052756071 -0.014946572 0.19145113
13160000000 0.049029354 0.063923396 0.084946238 -0.0714304 0.08402165 -0.072939262 0.0043207929 0.19098656
13170000000 0.036565579 0.068219647 0.066849865 -0.088698924 0.065614134 -0.089888617 0.018157937 0.18267561
13180000000 0.031674802 0.074255802 0.04510441 -0.099979475 0.04372498 -0.10084436 0.024461716 0.17141955
13190000000 0.030168608 0.083639383 0.022600861 -0.10546126 0.021163492 -0.10593491 0.022111999 0.15626463
13200000000 0.031894416 0.092923135 0.00039622374 -0.10656586 -0.001314668 -0.10690442 0.0081954189 0.14940716
13210000000 0.038503822 0.1010441 -0.019112583 -0.1022379 -0.020406306 -0.10208586 0.001970809 0.15188545
13220000000 0.044494219 0.10562996 -0.037718516 -0.098899044 -0.039073788 -0.098590404 -0.0026115328 0.15679622
13230000000 0.051237062 0.11228366 -0.058310974 -0.089067623 -0.059366785 -0.088654995 0.0018458217 0.17021357
13240000000 0.064444222 0.11477447 -0.074741133 -0.074952051 -0.075918444 -0.074370086 0.011743732 0.17549296
13250000000 0.074412689 0.10978469 -0.089213364 -0.059751719 -0.090189345 -0.058835074 0.024346206 0.17892605
13260000000 0.081509084 0.10332939 -0.1012622 -0.037873447 -0.10186625 -0.036853053 0.034199148 0.1723551
13270000000 0.088410221 0.09427125 -0.10476676 -0.015563475 -0.10535485 -0.014302263 0.033415571 0.16369796
13280000000 0.091215797 0.080216549 -0.10383525 0.0055504106 -0.10411298 0.006859161 0.029082347 0.15500072
13290000000 0.089093365 0.068739086 -0.10020269 0.024224579 -0.10013337 0.025644593 0.020361744 0.1494184
13300000000 0.08612591 0.059228648 -0.095213227 0.043767922 -0.094690114 0.04493314 0.011034429 0.1518722
13310000000 0.081950203 0.051560421 -0.085143737 0.062640466 -0.08452601 0.063529626 0.016129464 0.16056363
13320000000 0.073603183 0.045313343 -0.071418509 0.078605734 -0.070739187 0.079348855 0.028042441 0.17156069
13330000000 0.065042801 0.047852919 -0.054267734 0.093016371 -0.053531714 0.093538567 0.046358183 0.18151855
13340000000 0.058322459 0.051886149 -0.033145543 0.1028428 -0.032422177 0.10355139 0.059042189 0.17722324
13350000000 0.05372249 0.059065126 -0.010335401 0.10826549 -0.0091653354 0.10884768 0.065706074 0.16776423
13360000000 0.053010795 0.067532189 0.013680656 0.10718949 0.014904853 0.10733243 0.065195948 0.14756019
13370000000 0.056696519 0.073680311 0.033266958 0.10053294 0.034501389 0.10041316 0.056710482 0.1283821
13380000000 0.061029017 0.077040531 0.053032324 0.093055509 0.054125264 0.092514873 0.0505784 0.12019032
13390000000 0.066668741 0.080068074 0.070594825 0.079045206 0.071487427 0.078500971 0.047958322 0.12540977
13400000000 0.077761754 0.080182157 0.08339528 0.062844537 0.084225036 0.062186874 0.050272692 0.14052875
13410000000 0.087724544 0.071945071 0.095096782 0.047511235 0.095850855 0.046426408 0.055262953 0.14802955
13420000000 0.095530048 0.063176513 0.10492061 0.026403744 0.10539689 0.025366601 0.057818506 0.1494264
13430000000 0.10185175 0.052211471 0.10869126 0.0023344122 0.10910562 0.0010464415 0.064770602 0.14122608
13440000000 0.10419954 0.039054811 0.10531146 -0.019800041 0.10531811 -0.021049522 0.069810152 0.12283084
13450000000 0.10146898 0.027479537 0.0999391 -0.040260017 0.099659517 -0.041581243 0.074327491 0.11157906
13460000000 0.097343981 0.017256025 0.08912921 -0.06079058 0.088511944 -0.062088147 0.072016105 0.10762744
13470000000 0.088902816 0.007873632 0.07299576 -0.076799162 0.072160587 -0.077825293 0.065485746 0.11252482
13480000000 0.077256218 0.001354821 0.056847587 -0.088893309 0.055915289 -0.089983456 0.058636539 0.11564763
13490000000 0.064304158 0.00050859898 0.037674323 -0.098488137 0.03640699 -0.099085972 0.056571603 0.11809732
13500000000 0.054481365 -0.00062948093 0.018639199 -0.1047394 0.017275639 -0.10537538 0.0579971 0.11157762
13510000000 0.042355224 0.00038377009 -0.0037697293 -0.10717632 -0.0054489002 -0.10756131 0.063579358 0.10667123
13520000000 0.032183163 0.0077903513 -0.026166035 -0.10311349 -0.027752377 -0.10288715 0.071909174 0.10346003
13530000000 0.029192662 0.018754452 -0.044640824 -0.096216194 -0.046443764 -0.095858738 0.074615851 0.10041636
13540000000 0.032301098 0.026818119 -0.066014275 -0.085412346 -0.067619786 -0.084166348 0.06751962 0.095831811
13550000000 0.034926947 0.033522598 -0.080795988 -0.068175986 -0.081917517 -0.067030527 0.058823865 0.097118147
13560000000 0.041102946 0.042390257 -0.092075661 -0.051297724 -0.093211055 -0.049805887 0.054640397 0.092905879
13570000000 0.050631508 0.046703242 -0.10075927 -0.032993682 -0.10152619 -0.031233435 0.053690478 0.092354693
13580000000 0.059737202 0.050209537 -0.10641409 -0.012250042 -0.10671865 -0.010429474 0.056898519 0.09199281
13590000000 0.07175754 0.04468267 -0.10738509 0.011399601 -0.10749566 0.013260315 0.059798073 0.095112644
13600000000 0.075945027 0.034556329 -0.10171486 0.033139031 -0.10124321 0.035125233 0.061298665 0.096576318
13610000000 0.075915791 0.022736797 -0.092650175 0.052562423 -0.091897011 0.054410286 0.06251625 0.095600672
13620000000 0.073704749 0.015720956 -0.080545694 0.070002988 -0.079349376 0.071884729 0.062268335 0.088412121
13630000000 0.072972007 0.0019126981 -0.065058865 0.085373849 -0.063518204 0.086649381 0.061068386 0.083935663
13640000000 0.064673528 -0.010070616 -0.04611396 0.096353643 -0.044565026 0.097560048 0.059071876 0.081575394
13650000000 0.05384668 -0.019643757 -0.025481785 0.10280449 -0.023426313 0.1034948 0.060513049 0.082810454
13660000000 0.043068316 -0.019058991 -0.0059329853 0.10702274 -0.0038679605 0.10718782 0.059076462 0.07901334
13670000000 0.033323236 -0.020114295 0.01655389 0.10802342 0.018739887 0.10799651 0.054208852 0.079887293
13680000000 0.023525961 -0.011457434 0.040777486 0.10218309 0.043035194 0.10133675 0.056109 0.076982744
13690000000 0.017221021 -0.003811786 0.059525639 0.090055153 0.0614102 0.088928618 0.056536201 0.076126523
13700000000 0.014237046 0.0085267862 0.07747972 0.077076487 0.079305544 0.075465649 0.056612253 0.077202238
13710000000 0.011118489 0.019886389 0.091258124 0.057443392 0.092300586 0.05545304 0.05461318 0.077070422
13720000000 0.015381327 0.03033898 0.10121386 0.037503775 0.10199465 0.035661913 0.051438086 0.078573212
13730000000 0.01930749 0.036130268 0.10548885 0.016115153 0.1061889 0.01406964 0.050093729 0.077707693
13740000000 0.026601534 0.039584536 0.10547189 -0.0045340508 0.10567816 -0.0068095308 0.048229083 0.074934207
13750000000 0.032688301 0.037783518 0.10322513 -0.025248488 0.1028389 -0.027587015 0.052023061 0.077288419
13760000000 0.039250515 0.036096815 0.095917024 -0.045054119 0.095260873 -0.047290489 0.052618187 0.080343582
13770000000 0.046944279 0.030093569 0.085555956 -0.064303145 0.084123202 -0.066182345 0.052774034 0.087853096
13780000000 0.054185409 0.025047105 0.070165589 -0.080619134 0.068594277 -0.082159214 0.057686597 0.088129222
13790000000 0.057203446 0.016071485 0.051835146 -0.092512868 0.049945526 -0.093860693 0.056732826 0.087550327
13800000000 0.059927121 0.010339898 0.032851841 -0.10190489 0.030715458 -0.10284114 0.062062591 0.083462328
13810000000 0.057525553 0.0042774118 0.010256369 -0.1048477 0.0078471452 -0.1051072 0.068646491 0.078391053
13820000000 0.056837499 0.0012504905 -0.0092222132 -0.10417175 -0.011359815 -0.10403936 0.078014545 0.0762586
13830000000 0.051393613 -0.0035175849 -0.028209887 -0.10053916 -0.030407872 -0.10027848 0.079327017 0.073724307
13840000000 0.046434596 -0.0072750617 -0.049123771 -0.095555566 -0.05134505 -0.094723307 0.078643963 0.069567218
13850000000 0.036594715 -0.0098087378 -0.068751447 -0.083662003 -0.070651293 -0.082113773 0.074057274 0.063692257
13860000000 0.029867813 -0.0063786842 -0.085693732 -0.067226574 -0.087063991 -0.065498345 0.072702751 0.056634635
13870000000 0.028164066 -0.0047909953 -0.09619721 -0.048466094 -0.097433828 -0.046689626 0.072347231 0.052032389
13880000000 0.026998322 -0.0053807893 -0.1059175 -0.028367646 -0.10658763 -0.026113059 0.074388102 0.049751189
13890000000 0.025814805 -0.0025187256 -0.10913853 -0.0047809966 -0.10931725 -0.0025628805 0.073833749 0.050461784
13900000000 0.03075829 -0.0010066489 -0.10741791 0.017755438 -0.10725722 0.019752637 0.072084069 0.051680472
13910000000 0.033838876 0.0011354117 -0.10031435 0.038903121 -0.099834293 0.040798113 0.069707476 0.051305316
13920000000 0.041021023 -0.00017328002 -0.090989783 0.058409557 -0.090168342 0.060560815 0.07041499 0.046262391
13930000000 0.042270772 -0.0012677899 -0.07752011 0.075227685 -0.076027147 0.077012971 0.070880264 0.044018999
13940000000 0.045541186 -0.0059783538 -0.060266621 0.090906642 -0.05849494 0.092512771 0.075448945 0.044424154
13950000000 0.044536471 -0.012791215 -0.038420588 0.099710763 -0.036219038 0.10053352 0.077927664 0.044120457
13960000000 0.038176261 -0.019329648 -0.01901048 0.10402913 -0.016812168 0.10436559 0.079083189 0.043667272
13970000000 0.031690903 -0.023000345 0.0013570413 0.10685711 0.0033583678 0.10683881 0.073948547 0.044381332
13980000000 0.025651518 -0.030761709 0.024483088 0.10433939 0.026573941 0.10401686 0.076372974 0.041237973
13990000000 0.017466955 -0.035062943 0.043716289 0.096692279 0.045802716 0.096063122 0.077651203 0.034550861
14000000000 0.0086559895 -0.038299687 0.062531188 0.087267317 0.064589947 0.08617314 0.076815411 0.032520849
14010000000 0.0040487489 -0.035388358 0.079710491 0.071809888 0.081298299 0.070159748 0.078401595 0.029379804
14020000000 0.0012566606 -0.031635653 0.092120022 0.054191645 0.093497671 0.052526686 0.075663067 0.022815116
14030000000 0.0028516566 -0.02719759 0.10167167 0.035120964 0.10254902 0.032699659 0.073491871 0.020123659
14040000000 0.0028705951 -0.02066204 0.10648049 0.012845811 0.10676076 0.010640107 0.071550205 0.010004118
14050000000 0.0093110036 -0.013689322 0.10590488 -0.0084753595 0.10598724 -0.010526337 0.065464407 0.0071409959
14060000000 0.012894773 -0.012709254 0.10328712 -0.028844589 0.10301636 -0.031152843 0.063897371 0.0082319668
14070000000 0.014818941 -0.010851723 0.093981676 -0.050148986 0.093268707 -0.052254055 0.059135675 0.0080681499
14080000000 0.018079076 -0.012302624 0.082760036 -0.067953661 0.081579462 -0.070112303 0.053999007 0.0047574528
14090000000 0.018266171 -0.018620808 0.067710824 -0.082863577 0.065866359 -0.084814101 0.048723493 0.0032188836
14100000000 0.017112525 -0.027255617 0.050187841 -0.097024083 0.047834076 -0.098473206 0.047476191 -0.0018577185
14110000000 0.012601968 -0.038894348 0.027573999 -0.10431874 0.025133502 -0.1048397 0.047401898 -0.0035970621
14120000000 0.0036720708 -0.049985833 0.005673755 -0.10702868 0.003214784 -0.10729003 0.0505867 -0.0028165188
14130000000 -0.0060653547 -0.056156918 -0.015516104 -0.10511768 -0.017662872 -0.1048467 0.04426017 -0.0018313564
14140000000 -0.016863262 -0.061265081 -0.036571566 -0.099591136 -0.038730271 -0.099132329 0.039612584 0.0030393796
14150000000 -0.027807558 -0.059314698 -0.05464267 -0.0908361 -0.056982197 -0.089756876 0.035595465 3.3946242e-05
14160000000 -0.038728595 -0.057404313 -0.072936632 -0.078285493 -0.07527937 -0.076657318 0.033098668 -0.0021740897
14170000000 -0.05045734 -0.045904446 -0.085815713 -0.061537519 -0.087414339 -0.059225664 0.037698805 -0.0026425244
14180000000 -0.056820218 -0.032855466 -0.096815839 -0.043771658 -0.09795247 -0.041415282 0.03995616 -0.0031543411
14190000000 -0.06200961 -0.017969243 -0.1033842 -0.023835903 -0.10399725 -0.021203257 0.040326856 0.0038798833
14200000000 -0.064249195 -0.0046176445 -0.10721566 -0.0013378337 -0.10735556 0.0012206919 0.036564738 0.0031410842
14210000000 -0.061903458 0.011431139 -0.1046053 0.019974014 -0.10422385 0.022494581 0.027817788 0.0018255073
14220000000 -0.052888863 0.020021152 -0.098582648 0.040824085 -0.097968601 0.043386552 0.020042639 -0.0043099187
14230000000 -0.042049453 0.024878345 -0.089939922 0.060541689 -0.088622406 0.063235141 0.017475033 -0.0042155371
14240000000 -0.030996682 0.02354615 -0.073501952 0.078815199 -0.071309589 0.08103165 0.020127239 -0.0050147278
14250000000 -0.018472673 0.019980729 -0.0555235 0.090505995 -0.053165793 0.092156351 0.019084584 -0.00072752126
14260000000 -0.0085553862 0.012623728 -0.037002593 0.098905273 -0.034414154 0.099906847 0.017700197 0.0067266719
14270000000 0.0011449801 0.004924614 -0.015668092 0.10525197 -0.012800451 0.10576212 0.015579486 0.010296188
14280000000 0.0071024918 -0.0091184983 0.0057908893 0.10515063 0.0084583517 0.10495867 0.013938894 0.0066799708
14290000000 0.003599098 -0.020264054 0.025094075 0.10181526 0.027681416 0.10139687 0.01711281 0.0041608419
14300000000 -0.0041654003 -0.029364046 0.044850145 0.095919594 0.047724195 0.095105216 0.020423954 -0.0015117603
14310000000 -0.013090841 -0.035428084 0.064183906 0.085431844 0.066774622 0.083808959 0.020635748 0.001947348
14320000000 -0.027915504 -0.041649871 0.080996126 0.070350796 0.083197534 0.068218186 0.022081206 0.0038356222
14330000000 -0.044552214 -0.041142639 0.092846327 0.05094507 0.094365649 0.048403729 0.018891793 0.0043871445
14340000000 -0.059495796 -0.037108865 0.10032585 0.031503756 0.1013597 0.028666329 0.013320833 0.0030364043
14350000000 -0.070921004 -0.030541657 0.10503858 0.012226681 0.10541462 0.0090788435 0.010021052 0.0043197223
14360000000 -0.080856428 -0.021402013 0.10495713 -0.010531071 0.10465135 -0.013280561 0.012811212 0.0033808192
14370000000 -0.085258834 -0.0067589078 0.099885464 -0.02931465 0.099722385 -0.032014497 0.013702402 0.0039818059
14380000000 -0.083964631 0.0085472539 0.094223216 -0.048065431 0.093011439 -0.051184047 0.010141348 0.0040142527
14390000000 -0.076987848 0.026227804 0.08438395 -0.068714097 0.082415447 -0.071425028 0.0073977741 0.0063818232
14400000000 -0.062853485 0.039633743 0.066439271 -0.08553011 0.063874513 -0.087732188 0.0045564682 0.0045074434
14410000000 -0.045836587 0.047911908 0.047652278 -0.095968314 0.044752836 -0.097366035 0.0047027697 0.0071810875
14420000000 -0.033458889 0.050321832 0.028501498 -0.10432219 0.025391592 -0.10524779 0.0059538358 0.0070036035
14430000000 -0.018352842 0.051731162 0.0052569686 -0.10816382 0.0018678383 -0.10842247 0.0076533807 0.0125485
14440000000 -0.0053911405 0.04280524 -0.016123343 -0.10616899 -0.019247929 -0.10572932 0.011879601 0.014974176
14450000000 0.0025547966 0.030129395 -0.038102839 -0.10088871 -0.041247189 -0.10002643 0.012597847 0.010722103
14460000000 0.0055304412 0.011767045 -0.057693306 -0.090780959 -0.060511559 -0.08901374 0.013858586 0.0072784722
14470000000 0.0025030663 -0.0058734575 -0.074231476 -0.07707867 -0.076484159 -0.074901097 0.016611222 0.0035605682
14480000000 -0.0051193135 -0.021944199 -0.088561669 -0.060885917 -0.090575397 -0.058323674 0.018694106 -0.00013139425
14490000000 -0.014804399 -0.034107186 -0.099458672 -0.041171506 -0.10056968 -0.038219914 0.017883906 0.0018668822
14500000000 -0.026424263 -0.043105491 -0.10474195 -0.019072531 -0.10550486 -0.016124044 0.014976927 0.00036445606
14510000000 -0.041972067 -0.043598965 -0.1061735 0.0019938163 -0.10621738 0.005146292 0.008698876 -0.0012254062
14520000000 -0.053822368 -0.039458308 -0.10269706 0.023864899 -0.10244068 0.026834611 0.0072180936 -0.0043847123
14530000000 -0.064556867 -0.030567152 -0.094867282 0.042465784 -0.094045728 0.045595821 0.008947474 -0.010828217
14540000000 -0.074138135 -0.019467061 -0.085016295 0.058881 -0.083269052 0.061566379 0.0092478339 -0.013903282
14550000000 -0.081184775 -0.0043194387 -0.0737532 0.075400509 -0.071830735 0.077903077 0.009362692 -0.012384404
14560000000 -0.08386597 0.0097523294 -0.056803368 0.089806221 -0.054043066 0.091973856 0.0021729637 -0.015888847
14570000000 -0.080372959 0.02115057 -0.037017465 0.099935256 -0.033851389 0.10112243 -0.009480413 -0.013845282
14580000000 -0.076469041 0.026559051 -0.016119614 0.10515032 -0.013162645 0.10578535 -0.016334746 -0.015824838
14590000000 -0.070474125 0.031649347 0.0062164031 0.10737994 0.0095372815 0.1074513 -0.02332693 -0.016365515
14600000000 -0.061312459 0.033203602 0.027713973 0.10246364 0.03083911 0.10189246 -0.020464363 -0.010437168
14610000000 -0.051197127 0.030223276 0.047195353 0.094881862 0.05024749 0.0937327 -0.015501378 -0.0060662949
14620000000 -0.041209832 0.026207276 0.065483987 0.084963776 0.068174146 0.083061054 -0.015753776 0.00043052994
14630000000 -0.034697805 0.015526998 0.082627892 0.068033338 0.084695444 0.065689661 -0.013191742 0.0037049619
14640000000 -0.035681289 0.0092986235 0.093149804 0.049367949 0.094763532 0.046920784 -0.016917864 -0.001909366
14650000000 -0.037913531 0.0043859095 0.10097487 0.030568026 0.10186765 0.027778327 -0.020614471 -0.006321799
14660000000 -0.041869048 -0.0011348762 0.10583532 0.00962127 0.1063438 0.006890092 -0.020574801 -0.010024689
14670000000 -0.054099441 -0.0036884174 0.10585777 -0.01147195 0.10592677 -0.01441915 -0.022786807 -0.0091737099
14680000000 -0.06218541 -0.0032582898 0.10221347 -0.034248635 0.10129732 -0.036919899 -0.023029467 -0.0056241993
14690000000 -0.075394101 -0.0041541681 0.091682896 -0.054749101 0.090479769 -0.057130098 -0.0256183 -0.0059241336
14700000000 -0.085368313 0.0012773369 0.077406198 -0.071506888 0.07571286 -0.073636986 -0.031147109 -0.0060236412
14710000000 -0.094597682 0.0074609867 0.06133071 -0.084922895 0.059318904 -0.08652357 -0.030452564 -0.0086069424
14720000000 -0.094846651 0.017299827 0.042641383 -0.093928844 0.040510766 -0.095059484 -0.034390599 -0.015530899
14730000000 -0.096244819 0.022970049 0.025384784 -0.099327572 0.023102682 -0.099971481 -0.03859761 -0.010929017
14740000000 -0.09393084 0.032690935 0.0060969181 -0.10488446 0.0039578564 -0.10520184 -0.041420717 -0.012438358
14750000000 -0.089182213 0.044228524 -0.017543301 -0.10586534 -0.020093884 -0.10575949 -0.054023411 -0.0075272676
14760000000 -0.076457098 0.051891714 -0.039411247 -0.097682707 -0.041682892 -0.096794531 -0.05927217 -0.00014370866
14770000000 -0.070096821 0.053624131 -0.057395197 -0.087781727 -0.059474178 -0.086782813 -0.063171431 0.004476985
14780000000 -0.061827619 0.056225054 -0.074892081 -0.074403815 -0.076896764 -0.072916992 -0.063229747 0.01440025
14790000000 -0.060160708 0.05338984 -0.086785644 -0.05604304 -0.088195615 -0.054075539 -0.056246668 0.021491941
14800000000 -0.059345298 0.049461022 -0.094365001 -0.038803112 -0.095614091 -0.036891609 -0.056467935 0.024894603
14810000000 -0.061072934 0.047485784 -0.10184436 -0.020656459 -0.10255639 -0.018114071 -0.054914404 0.027863055
14820000000 -0.063350528 0.037745822 -0.10499647 0.0021575913 -0.10502152 0.0046065412 -0.055324167 0.021662313
14830000000 -0.07524544 0.033686221 -0.10034754 0.022992361 -0.10021017 0.025343448 -0.059928827 0.018177502
14840000000 -0.083102942 0.035581205 -0.094684184 0.040913384 -0.093730628 0.043276116 -0.059720024 0.0221297
14850000000 -0.087232687 0.041509636 -0.086029187 0.060140673 -0.084980302 0.062198773 -0.056311831 0.027398499
14860000000 -0.088508472 0.048566535 -0.07085 0.076842472 -0.069275647 0.078717262 -0.058684785 0.036305681
14870000000 -0.087964319 0.060098927 -0.053766444 0.089249223 -0.051677532 0.090660319 -0.056904383 0.045851123
14880000000 -0.081623614 0.072308786 -0.033757124 0.098023728 -0.031753719 0.099141717 -0.054805402 0.044135787
14890000000 -0.074613407 0.085328266 -0.013051819 0.10144202 -0.010376938 0.10204025 -0.053091422 0.043582551
14900000000 -0.06198426 0.095811278 0.0066557787 0.10156135 0.0088370927 0.10134676 -0.045135327 0.039472204
14910000000 -0.050356261 0.10177092 0.025059376 0.098131649 0.027171459 0.097852752 -0.04189549 0.037817039
14920000000 -0.038479492 0.10270022 0.043509051 0.092691176 0.045672115 0.091714703 -0.043334581 0.040662985
14930000000 -0.028245667 0.099349022 0.061514359 0.083024129 0.063237272 0.081998341 -0.050841294 0.04505736
14940000000 -0.017961934 0.090871543 0.078428589 0.070096739 0.080407634 0.068735041 -0.056738503 0.049815234
14950000000 -0.012234656 0.075180992 0.09284465 0.051154174 0.094163202 0.049123041 -0.060604841 0.047941186
14960000000 -0.012561912 0.05924622 0.10051812 0.030512081 0.10157194 0.028400457 -0.058700792 0.055220112
14970000000 -0.016983123 0.047881063 0.10471331 0.010556648 0.10518305 0.0079972744 -0.04242279 0.056963421
14980000000 -0.018776149 0.037081044 0.10586764 -0.012170916 0.1054389 -0.014507797 -0.036052961 0.05617132
14990000000 -0.025366919 0.027860291 0.098269306 -0.033922747 0.097724497 -0.036114186 -0.034270238 0.05968684
15000000000 -0.034756064 0.023566671 0.088987663 -0.051011227 0.087873124 -0.052908029 -0.03521429 0.056853168
15010000000 -0.044399954 0.025738427 0.077519678 -0.067899555 0.076258078 -0.069647551 -0.042125378 0.049893837
15020000000 -0.055904623 0.032118112 0.062150665 -0.081816569 0.060616948 -0.083723404 -0.047618467 0.047269899
15030000000 -0.062441502 0.04590217 0.045729693 -0.092713304 0.043523353 -0.094089568 -0.043796673 0.051748443
15040000000 -0.064475387 0.057166066 0.026176097 -0.10069604 0.02376098 -0.10151653 -0.040151872 0.055614084
15050000000 -0.066169135 0.06819208 0.0051145796 -0.10406967 0.0024541342 -0.10454214 -0.037412781 0.067629479
15060000000 -0.065929011 0.080754831 -0.017331604 -0.10284442 -0.019873554 -0.10236511 -0.032341525 0.070103757
15070000000 -0.058189087 0.090727441 -0.038216364 -0.09541408 -0.040406808 -0.094557151 -0.033446357 0.064508922
15080000000 -0.046823405 0.098257542 -0.055330001 -0.083720185 -0.057561375 -0.082764484 -0.033145003 0.056109853
15090000000 -0.029952208 0.096567526 -0.068042777 -0.072224408 -0.070166603 -0.070613183 -0.031683065 0.047145322
15100000000 -0.017298391 0.092496134 -0.08168637 -0.059645191 -0.083311714 -0.057930239 -0.030381255 0.043265339
15110000000 -0.0012877453 0.084426321 -0.092374913 -0.042611629 -0.094043165 -0.040365797 -0.032543886 0.04634067
15120000000 0.011009823 0.072734505 -0.099813767 -0.024224475 -0.10051052 -0.02131369 -0.035992254 0.053089339
15130000000 0.021162765 0.057122719 -0.10529897 -0.0038607307 -0.10540736 -0.0012050644 -0.036391083 0.059365384
15140000000 0.023016289 0.037457451 -0.10461947 0.020551998 -0.10423897 0.023374885 -0.03565859 0.058336284
15150000000 0.014694186 0.020147976 -0.096260771 0.043036491 -0.095281243 0.045425244 -0.031352587 0.05591815
15160000000 0.00064008404 0.0098445909 -0.084168047 0.059795357 -0.083057396 0.062192164 -0.027546011 0.052073248
15170000000 -0.013760811 0.0020046588 -0.070586912 0.075854599 -0.06875778 0.078074403 -0.025447134 0.045177799
15180000000 -0.033775099 -0.0007342454 -0.052667953 0.086928904 -0.050313096 0.08868517 -0.032806411 0.042484231
15190000000 -0.051226933 0.0013564222 -0.035702355 0.093939975 -0.033055257 0.09528555 -0.042467646 0.03931978
15200000000 -0.070729971 0.0083738808 -0.017593581 0.1007912 -0.014614141 0.1014369 -0.055008054 0.041142628
15210000000 -0.082882658 0.02262352 0.0039911419 0.10247192 0.0069594979 0.10251459 -0.05933357 0.047322541
15220000000 -0.089492306 0.040434875 0.02404977 0.10010994 0.027004186 0.099413402 -0.06244744 0.051490456
15230000000 -0.086404651 0.056561556 0.044725992 0.094020769 0.047250994 0.092814207 -0.060493331 0.064674281
15240000000 -0.080598772 0.072699726 0.06394507 0.081712872 0.066519685 0.080156632 -0.052416921 0.065928891
15250000000 -0.066620991 0.084065974 0.077987701 0.065858081 0.080051005 0.063571617 -0.054262403 0.06818296
15260000000 -0.056153044 0.092281751 0.088873409 0.048574574 0.090400204 0.046268422 -0.047779586 0.06973049
15270000000 -0.041015275 0.098613016 0.095998734 0.030167216 0.097152412 0.027166728 -0.047612034 0.063810416
15280000000 -0.026664719 0.10112865 0.098645702 0.010256384 0.098925173 0.007509537 -0.053244475 0.069088176
15290000000 -0.012171932 0.096350208 0.098781213 -0.0073112771 0.098819189 -0.009895362 -0.052430816 0.074564382
15300000000 -0.0012923479 0.088929169 0.097169064 -0.026765615 0.096772939 -0.029682748 -0.059147287 0.077863984
15310000000 0.0061976649 0.073817119 0.090015426 -0.047120649 0.088826671 -0.049727906 -0.059970252 0.085422285
15320000000 0.0050989548 0.062505059 0.078794599 -0.063716948 0.077191606 -0.06622301 -0.053011261 0.087353833
15330000000 0.0036765281 0.049260423 0.064829178 -0.079980783 0.062631331 -0.08194948 -0.046124727 0.084815845
15340000000 -0.0028779125 0.040182441 0.045602351 -0.091040298 0.043127544 -0.092518613 -0.040620655 0.086383626
15350000000 -0.0085002175 0.032969944 0.026465487 -0.09654507 0.023791604 -0.097445823 -0.036098842 0.086548328
15360000000 -0.016173517 0.02769101 0.0080035292 -0.099757992 0.0052474923 -0.10030036 -0.042215753 0.084131896
15370000000 -0.025994971 0.025827285 -0.012417708 -0.099529773 -0.01527106 -0.099363789 -0.04879139 0.085180171
15380000000 -0.035772689 0.031092003 -0.031572089 -0.095338635 -0.034370445 -0.094656877 -0.053405248 0.082047962
15390000000 -0.042652421 0.039244074 -0.050536681 -0.08781942 -0.053242505 -0.086682975 -0.055346638 0.085940666
15400000000 -0.043982495 0.052569229 -0.06777449 -0.07570184 -0.070067234 -0.073830724 -0.049926665 0.092847638
15410000000 -0.039870586 0.061592877 -0.080788158 -0.060439352 -0.082622901 -0.058368266 -0.045299698 0.10312358
15420000000 -0.034690179 0.06856855 -0.091515452 -0.043408707 -0.092995606 -0.040804826 -0.036121104 0.11109863
15430000000 -0.02853523 0.072793499 -0.09863016 -0.023315895 -0.099397272 -0.02063898 -0.035609752 0.10839283
15440000000 -0.019714067 0.077557884 -0.10019157 -0.0025272295 -0.10055434 0.00025064126 -0.036442265 0.10788476
15450000000 -0.0089015383 0.077359736 -0.098067582 0.016666487 -0.097736984 0.019530755 -0.029881246 0.10063831
15460000000 0.0038979724 0.074677922 -0.093612246 0.035663854 -0.09280467 0.038189922 -0.032611385 0.096653439
15470000000 0.015029279 0.064046539 -0.084473222 0.053865362 -0.083295874 0.056623727 -0.028047707 0.10744816
15480000000 0.019262874 0.051843431 -0.072607525 0.068474345 -0.070723638 0.070708372 -0.022563037 0.10981056
15490000000 0.020202219 0.042289078 -0.05825121 0.08294975 -0.055960629 0.084852152 -0.026217863 0.11811649
15500000000 0.01912614 0.034622286 -0.039149098 0.093809932 -0.036304303 0.0950322 -0.017126314 0.12234262
15510000000 0.017513869 0.027865268 -0.018403698 0.098319381 -0.015757069 0.098739877 -0.010112308 0.11485599
15520000000 0.014393899 0.02139839 0.00024937838 0.099820644 0.0029999949 0.099980667 -0.0042779632 0.11226229
15530000000 0.0063391775 0.014699271 0.020926878 0.09849444 0.023802241 0.097938135 0.0051791389 0.10572419
15540000000 -0.0019944203 0.014634049 0.039707392 0.091274023 0.042285398 0.090345412 0.0016493469 0.099251397
15550000000 -0.0072287964 0.016243789 0.055939533 0.08200568 0.058213376 0.08057788 -0.0026616678 0.098703504
15560000000 -0.0093324576 0.020352427 0.072000727 0.070020199 0.073860034 0.068170317 -0.0065493435 0.094232783
15570000000 -0.0075952495 0.022749878 0.084660292 0.05395969 0.086241648 0.051722784 -0.013976514 0.094739646
15580000000 -0.0030777222 0.022777293 0.093691565 0.036271982 0.094727024 0.033740673 -0.0085267052 0.10271107
15590000000 0.0012110649 0.021048067 0.099721879 0.016928567 0.10040031 0.014658406 -0.0020599626 0.10264952
15600000000 0.0079918616 0.018247925 0.10151049 -0.0038981698 0.10180623 -0.0067455601 -0.0025008116 0.10726409
15610000000 0.012967556 0.011438791 0.09790127 -0.024285389 0.097328156 -0.027143633 0.005301354 0.10574342
15620000000 0.016795604 0.0042638574 0.091522902 -0.043070346 0.090598524 -0.045682773 0.0047808159 0.09369649
15630000000 0.018506275 -0.0065344395 0.081126794 -0.062159911 0.079590432 -0.064668857 0.0036344305 0.089872032
15640000000 0.014085921 -0.018712711 0.065815985 -0.076595105 0.063620016 -0.078528658 0.003532894 0.083538175
15650000000 0.0043912176 -0.027571876 0.049505908 -0.08754576 0.047144327 -0.088943593 -0.0011798814 0.086165845
15660000000 -0.0060306182 -0.03384899 0.030962842 -0.095946595 0.028403549 -0.096960954 -0.0041928254 0.089005411
15670000000 -0.019747864 -0.037469991 0.011085211 -0.099192753 0.0083545391 -0.099492133 -0.0090435054 0.093101367
15680000000 -0.03165457 -0.037124004 -0.0074947067 -0.10024407 -0.010136812 -0.10022704 -0.0041074958 0.093966171
15690000000 -0.043502349 -0.033891261 -0.028402817 -0.098191507 -0.031399194 -0.097592175 0.0016187672 0.086571343
15700000000 -0.05098509 -0.026702367 -0.048554681 -0.090434693 -0.051164735 -0.08906804 0.0071327388 0.087506145
15710000000 -0.054163612 -0.018077683 -0.06586083 -0.078199148 -0.068029746 -0.076405048 0.013418984 0.086119533
15720000000 -0.052246906 -0.010630174 -0.080486692 -0.062470853 -0.0824515 -0.060264811 0.0073739775 0.082593843
15730000000 -0.049157448 -0.0030969381 -0.089842446 -0.043551926 -0.090977855 -0.040946856 -0.002934305 0.085247844
15740000000 -0.040532276 0.0012290929 -0.095140427 -0.026051015 -0.096062452 -0.023663007 -0.0064014494 0.081795901
15750000000 -0.033540495 0.0037441445 -0.10005405 -0.0081462841 -0.10038932 -0.0051323418 -0.010411088 0.078096807
15760000000 -0.024048327 0.0027826168 -0.10052886 0.013372649 -0.10008589 0.016040945 -0.0066355858 0.08288043
15770000000 -0.017070483 -0.0024653035 -0.095278539 0.032164454 -0.094789445 0.034762021 0.0037775002 0.088524394
15780000000 -0.012733728 -0.011300875 -0.088876732 0.051517766 -0.087421775 0.05429516 0.0034980848 0.089180976
15790000000 -0.0119671 -0.022014279 -0.075247087 0.070098802 -0.073411018 0.072097972 0.0019557215 0.08974573
15800000000 -0.014860072 -0.037264034 -0.05826696 0.082283564 -0.056007251 0.084405161 -5.2470714e-06 0.080608003
15810000000 -0.024292259 -0.047217868 -0.041344021 0.092765294 -0.038306944 0.093806803 -0.0056078201 0.070127495
15820000000 -0.030958449 -0.059260644 -0.02085935 0.099203438 -0.018376889 0.099771462 -0.0071046799 0.066628218
15830000000 -0.043494962 -0.068461277 -0.0013070367 0.099937886 0.0017004758 0.10021432 -0.0064090509 0.069518313
15840000000 -0.055166595 -0.074539863 0.016932718 0.098751105 0.019634761 0.098105758 -0.010445548 0.080685444
15850000000 -0.06908045 -0.077197529 0.036309995 0.094554126 0.039045818 0.093952052 -0.011496816 0.090942591
15860000000 -0.084141351 -0.073409639 0.055131007 0.086114034 0.057999905 0.084388822 -0.013444595 0.093195021
15870000000 -0.095035851 -0.062943108 0.072520874 0.073332272 0.074617252 0.071276069 -0.011832984 0.093183413
15880000000 -0.10179742 -0.053021036 0.08745072 0.057160903 0.089592375 0.054620791 -0.0061002411 0.088972278
15890000000 -0.10699806 -0.038382143 0.098100841 0.035991408 0.099125795 0.032950532 -0.0042631389 0.085685037
15900000000 -0.10761648 -0.025658501 0.10111495 0.015047906 0.10173748 0.012060653 -0.0020014588 0.088155031
15910000000 -0.10591577 -0.013522346 0.10245159 -0.00500644 0.10245083 -0.0083662383 -0.0073201209 0.088514738
15920000000 -0.10049199 -0.0047416948 0.098109849 -0.026413716 0.097244009 -0.029489998 -0.011063538 0.093868956
15930000000 -0.092294037 0.00040017441 0.089844763 -0.044286072 0.088821352 -0.04709591 -0.011788368 0.095312268
15940000000 -0.082193263 0.0005615633 0.080865666 -0.060628377 0.078875326 -0.063380256 -0.01034574 0.10175899
15950000000 -0.069998056 -0.003670698 0.06699878 -0.077445358 0.06470111 -0.079383783 -0.0019920561 0.10464062
15960000000 -0.05866136 -0.016812896 0.049390379 -0.088661343 0.046697367 -0.09049321 0.0027047971 0.10402222
15970000000 -0.054247662 -0.032057695 0.030600857 -0.097254984 0.027549556 -0.098133169 0.0066619944 0.10444131
15980000000 -0.051424883 -0.046242438 0.0094782375 -0.10166296 0.0065777339 -0.10180169 0.010519957 0.095679082
15990000000 -0.053809989 -0.061196975 -0.011641234 -0.10038874 -0.014609657 -0.1002302 0.0085406117 0.08961606
16000000000 -0.059313647 -0.07406088 -0.031261317 -0.095282525 -0.03415082 -0.094400555 0.0075423308 0.089220613
16010000000 -0.073032476 -0.087144867 -0.050664887 -0.086362138 -0.05108149 -0.086190298 0.0067056641 0.091143079
16020000000 -0.091223508 -0.0936784 -0.06787581 -0.074372247 -0.068009466 -0.074026123 0.00044132769 0.095125861
16030000000 -0.10993145 -0.092295125 -0.080508739 -0.058305267 -0.080506764 -0.058270432 -0.00062815286 0.10104997
16040000000 -0.12614378 -0.08867678 -0.090695269 -0.041564882 -0.090740889 -0.041554447 0.0011537392 0.096741706
16050000000 -0.14178836 -0.082166731 -0.097391129 -0.021921974 -0.097653717 -0.021932788 0.0032505766 0.094336852
16060000000 -0.15210877 -0.073996052 -0.099808268 -0.0017360337 -0.099964902 -0.0016392395 0.013749816 0.092863232
16070000000 -0.15978603 -0.068575695 -0.098121502 0.017695118 -0.098264679 0.017856166 0.01555362 0.089617714
16080000000 -0.16588376 -0.059208814 -0.093394414 0.037988663 -0.093656301 0.038308464 0.0142086 0.093580872
16090000000 -0.16431974 -0.052197021 -0.082307145 0.055989437 -0.082256079 0.056543194 0.0094120232 0.092375576
16100000000 -0.16103442 -0.046957843 -0.069602415 0.070927851 -0.069314599 0.071253344 0.0049775941 0.08967302
16110000000 -0.15534005 -0.044163559 -0.053879321 0.084611192 -0.053642787 0.084660068 0.0056496132 0.088648237
16120000000 -0.14975595 -0.045451839 -0.034495957 0.093172789 -0.034254011 0.093334705 0.013312126 0.089569166
16130000000 -0.14739206 -0.047285538 -0.015744258 0.097573027 -0.015525866 0.097724102 0.020895723 0.093503356
16140000000 -0.14709283 -0.050752923 0.0037982054 0.099148244 0.0040462315 0.099281073 0.024408255 0.099089086
16150000000 -0.14925061 -0.055673126 0.024665389 0.096198753 0.024954589 0.096142754 0.024514781 0.09840779
16160000000 -0.15625931 -0.061858293 0.043379493 0.088082939 0.043768775 0.088174708 0.021298647 0.090076655
16170000000 -0.16415486 -0.068242684 0.060505331 0.077389605 0.060741495 0.077283621 0.01698201 0.078081571
16180000000 -0.1763764 -0.07507471 0.075578064 0.062917463 0.075773343 0.063056648 0.019592609 0.071790598
16190000000 -0.18930548 -0.079046145 0.085507065 0.045353122 0.085953616 0.045463797 0.020452904 0.068523496
16200000000 -0.20130086 -0.08217366 0.092446506 0.028438317 0.092875533 0.028326314 0.018606476 0.074453764
16210000000 -0.21309145 -0.08317294 0.096741274 0.0092112459 0.0971331 0.0088944472 0.015454717 0.080742039
16220000000 -0.22238296 -0.080819376 0.09577623 -0.011341125 0.096009217 -0.011520145 0.013429061 0.078893512
16230000000 -0.23000447 -0.079804532 0.090910047 -0.029599892 0.091195732 -0.029934945 0.01053061 0.075760484
16240000000 -0.23959306 -0.073606201 0.083625726 -0.047564842 0.083566375 -0.047955565 0.017280634 0.071294867
16250000000 -0.24751027 -0.068374038 0.071128279 -0.063677147 0.071039826 -0.063850775 0.021084169 0.068367772
16260000000 -0.2565451 -0.058375344 0.057902705 -0.075268954 0.058072563 -0.07540559 0.01985115 0.07003893
16270000000 -0.26230758 -0.048879057 0.041862354 -0.086337216 0.042038515 -0.086423434 0.01305797 0.072724022
16280000000 -0.26762947 -0.041876614 0.021967649 -0.092792466 0.022179693 -0.093069106 0.0037876591 0.070672646
16290000000 -0.27683049 -0.038038187 0.0023327712 -0.093872763 0.0024660788 -0.094282128 -0.0035895612 0.068508774
16300000000 -0.2840929 -0.033354867 -0.016255019 -0.092461929 -0.016367899 -0.09275949 -0.0025640631 0.066466235
16310000000 -0.29349855 -0.031785633 -0.035096094 -0.086485505 -0.035249949 -0.086696446 0.0018513529 0.06742271
16320000000 -0.30018839 -0.029213369 -0.05080314 -0.077659063 -0.050815895 -0.07776764 0.0065896064 0.07156308
16330000000 -0.30888599 -0.028520793 -0.064816169 -0.066436142 -0.064605683 -0.066634066 0.0064498167 0.074970715
16340000000 -0.31606576 -0.025095329 -0.077486366 -0.052130081 -0.077450588 -0.052410763 0.0030511618 0.072833441
16350000000 -0.32565522 -0.019650206 -0.085942045 -0.034569591 -0.085942268 -0.035008121 0.00017795525 0.067375265
16360000000 -0.33202669 -0.010256365 -0.091383442 -0.016615607 -0.091657475 -0.016834108 -0.0019672811 0.062031563
16370000000 -0.33885226 0.001950603 -0.092732847 0.0020053689 -0.093010373 0.0018923711 -0.0038963959 0.060877092
16380000000 -0.34234488 0.01554627 -0.090769753 0.021408005 -0.090907127 0.021116104 -0.0046736291 0.06589023
16390000000 -0.34575963 0.028813168 -0.083755895 0.03853165 -0.084012128 0.038224731 -0.0098710414 0.071140461
16400000000 -0.34782729 0.040483713 -0.074231088 0.054840446 -0.074501641 0.054703001 -0.015965637 0.074824646
16410000000 -0.34944215 0.050565407 -0.060917772 0.068438925 -0.06139636 0.068367817 -0.015727151 0.075827323
16420000000 -0.35070875 0.055908799 -0.045999765 0.079030104 -0.046313319 0.07932435 -0.012798714 0.072045058
16430000000 -0.35160187 0.057356536 -0.02940247 0.087471455 -0.029480966 0.087713815 -0.011396186 0.073370062
16440000000 -0.35419521 0.055800963 -0.009896975 0.091822654 -0.0098719271 0.092122689 -0.0074247969 0.07664109
16450000000 -0.35865688 0.052307602 0.0094940402 0.091197051 0.0096282484 0.091398619 -0.01286043 0.07617712
16460000000 -0.36633116 0.049364507 0.027722871 0.086642578 0.027727444 0.086901672 -0.019037757 0.078205377
16470000000 -0.37552762 0.048434809 0.045355454 0.078629553 0.045509625 0.078831822 -0.01852564 0.075653359
16480000000 -0.38799196 0.051549003 0.059924897 0.066971987 0.059994411 0.067002691 -0.018525677 0.074381284
16490000000 -0.40168124 0.060279936 0.071612723 0.053150028 0.071742699 0.053415202 -0.01209013 0.078435205
16500000000 -0.41475722 0.073375843 0.080909468 0.037347406 0.081272952 0.037453037 -0.009604061 0.083428398
16510000000 -0.4291296 0.089714162 0.084901951 0.019413054 0.085073881 0.019585572 -0.010159422 0.089278847
16520000000 -0.4405438 0.10858393 0.086679593 0.0030760355 0.087007813 0.0032805968 -0.012739174 0.086716801
16530000000 -0.45239881 0.13033806 0.085436173 -0.014347883 0.085863866 -0.014405861 -0.015585573 0.082301125
16540000000 -0.45697957 0.15246101 0.080676325 -0.031739328 0.080817953 -0.032059014 -0.012991939 0.076687016
16550000000 -0.45787242 0.17149329 0.072820254 -0.04684446 0.072746865 -0.046833232 -0.013067482 0.07541813
16560000000 -0.45469487 0.18659955 0.062011726 -0.061156232 0.062145535 -0.061015274 -0.014046993 0.081764199
16570000000 -0.44958255 0.19961593 0.047952466 -0.072696887 0.048386164 -0.07268247 -0.019128578 0.090741388
16580000000 -0.44168091 0.20924692 0.031985417 -0.080414049 0.032378107 -0.080561921 -0.023951065 0.093767233
16590000000 -0.43357703 0.21745595 0.01521581 -0.086031675 0.015416007 -0.086331047 -0.026047902 0.096052155
16600000000 -0.4238565 0.22276352 -0.0038615614 -0.088565864 -0.0038208291 -0.088686794 -0.018569995 0.095859297
16610000000 -0.41800115 0.22548088 -0.023480052 -0.084978834 -0.023367357 -0.085094333 -0.0086324029 0.096995056
16620000000 -0.41755116 0.22745211 -0.040328767 -0.077939115 -0.04010392 -0.078134418 0.00015981868 0.099754259
16630000000 -0.42042801 0.22975791 -0.05688522 -0.0679406 -0.05664254 -0.068214461 0.004713729 0.1023882
16640000000 -0.43101239 0.23174372 -0.069889583 -0.052170817 -0.069737382 -0.052616995 0.0030881111 0.09946797
16650000000 -0.44441965 0.23866352 -0.077784374 -0.035394538 -0.07790067 -0.035903458 0.001835194 0.095026173
16660000000 -0.46004307 0.24496868 -0.082706161 -0.01726342 -0.083029695 -0.017607508 0.0029028989 0.087738499
16670000000 -0.47863826 0.25631481 -0.082597598 0.0017303471 -0.082998678 0.0016331095 0.0048875827 0.085248642
16680000000 -0.4963018 0.27207565 -0.077839553 0.017958146 -0.078131035 0.018083116 0.0072253942 0.085647285
16690000000 -0.5089885 0.29355121 -0.071495093 0.032523371 -0.071721971 0.032746024 0.0076843947 0.086859167
16700000000 -0.51679921 0.31756794 -0.061969321 0.045589931 -0.061901122 0.045696341 0.0049728751 0.085110463
16710000000 -0.5181908 0.34444278 -0.050368816 0.055433378 -0.050543159 0.055561565 0.0025234967 0.082941256
16720000000 -0.51671791 0.37182239 -0.038550135 0.063254565 -0.038573686 0.063453026 0.0014109174 0.076084048
16730000000 -0.50847477 0.40153456 -0.024794988 0.069246463 -0.024677156 0.069516018 -0.0027890652 0.072321251
16740000000 -0.49752167 0.42715523 -0.010718636 0.071993761 -0.010444205 0.072132625 -0.0065257382 0.073197179
16750000000 -0.48454073 0.44974068 0.0037092008 0.072929025 0.003893286 0.072711162 -0.010209579 0.072761841
16760000000 -0.47280264 0.46828276 0.018699111 0.070386186 0.018765384 0.07022357 -0.016760558 0.076498613
16770000000 -0.46065044 0.48223889 0.032436904 0.06511537 0.032388885 0.064992964 -0.015139898 0.081066564
16780000000 -0.45255375 0.49299225 0.045315102 0.056744851 0.045317873 0.056772389 -0.01096812 0.085977219
16790000000 -0.44447178 0.50003147 0.056725137 0.046199441 0.056673303 0.046317402 -0.0050989529 0.091438197
16800000000 -0.44140691 0.50561041 0.065468751 0.032190423 0.065588869 0.032244794 0.00056780316 0.093218878
16810000000 -0.43959606 0.51417774 0.069868967 0.016597332 0.069943115 0.016698305 0.0042920988 0.089580275
16820000000 -0.438012 0.52544475 0.071178161 0.00073452294 0.071319088 0.0008405149 0.0059598386 0.078313224
16830000000 -0.4368917 0.53967041 0.068347305 -0.016021935 0.068601847 -0.015919952 0.0053875446 0.066941857
16840000000 -0.43658862 0.55978537 0.060906362 -0.029928422 0.06114082 -0.029935807 0.0054437444 0.059664328
16850000000 -0.43269041 0.58323783 0.051499844 -0.04158685 0.051765505 -0.041697737 0.0017551575 0.057312611
16860000000 -0.42770866 0.60935843 0.03956414 -0.050017409 0.039673984 -0.050299037 -0.0062416503 0.065143332
16870000000 -0.41988447 0.63578784 0.027052209 -0.05457662 0.027017724 -0.054839455 -0.011011257 0.069374315
16880000000 -0.41095427 0.66198188 0.015561073 -0.056700561 0.015589776 -0.056769252 -0.020375215 0.069070056
16890000000 -0.39934772 0.68647659 0.0037483089 -0.057210542 0.003764661 -0.057357036 -0.021296527 0.068242982
16900000000 -0.38536003 0.70819259 -0.0075468998 -0.055255853 -0.0077358223 -0.055326268 -0.01726901 0.062450171
16910000000 -0.3698819 0.72659254 -0.017913718 -0.051633559 -0.01793883 -0.051653296 -0.019661263 0.062553316
16920000000 -0.35168937 0.74404889 -0.027126577 -0.046141498 -0.02729262 -0.046248905 -0.021672478 0.069285028
16930000000 -0.33102512 0.75899249 -0.035324778 -0.038859762 -0.035449717 -0.038864426 -0.029001197 0.073718794
16940000000 -0.30767173 0.77317375 -0.041059799 -0.030400183 -0.041170143 -0.03034969 -0.040772036 0.077918932
16950000000 -0.28398263 0.78513753 -0.046166569 -0.021381108 -0.046107642 -0.02133967 -0.04096593 0.086387813
16960000000 -0.26139712 0.79692233 -0.049328782 -0.010245934 -0.049278736 -0.010377511 -0.033423446 0.085391611
16970000000 -0.24047992 0.80931389 -0.048879173 0.00075801276 -0.048875969 0.00061192736 -0.024595588 0.091264643
16980000000 -0.22017515 0.82200348 -0.04683318 0.010276107 -0.046837304 0.010160731 -0.012175847 0.094823487
16990000000 -0.20241831 0.83417434 -0.042760275 0.020247739 -0.042894509 0.020070098 -0.0070922337 0.091404594
17000000000 -0.18590689 0.84724218 -0.036004595 0.028540568 -0.036105614 0.028368626 -0.011658086 0.085043825
