!Keysight Technologies,P9374A,MY57211807,A.19.30.04
!Date: Friday, May 01, 2026 14:48:46
!Correction: S11(C  2-Port  ) 
!S21(C  2-Port  ) 
!S12(C  2-Port  ) 
!S22(C  2-Port  ) 
!S2P File: Measurements: S11, S21, S12, S22:
# Hz S  RI   R 50
13000000000 0.058887366 0.04343934 -0.064717583 0.057016909 -0.064031124 0.057889882 -0.0048058107 0.16488487
13010000000 0.039095074 0.049421005 -0.049806491 0.065560713 -0.049174309 0.066314921 -0.011150375 0.1564531
13020000000 0.02120994 0.055127949 -0.038101874 0.072742507 -0.037302777 0.073512107 -0.02018493 0.15159917
13030000000 0.008172553 0.067022935 -0.023795679 0.079379901 -0.022700788 0.080027193 -0.026618246 0.15687621
13040000000 -0.0027422402 0.08144024 -0.007828068 0.083634354 -0.0067330236 0.084100783 -0.031487744 0.16008346
13050000000 -0.0020648413 0.098848008 0.0090139722 0.083994493 0.010324508 0.084030539 -0.029326288 0.17448011
13060000000 0.0015532412 0.11201835 0.026572295 0.082828641 0.027765803 0.082811773 -0.019644614 0.17701025
13070000000 0.013672784 0.12529399 0.045363456 0.075376198 0.046933107 0.074706525 -0.015282419 0.17313759
13080000000 0.026824363 0.13058797 0.061681114 0.062165614 0.062522531 0.060915396 -0.0092348009 0.16619812
13090000000 0.04449147 0.13467926 0.071379647 0.045651779 0.071780726 0.044879463 -0.0063229948 0.1594699
13100000000 0.05658773 0.13239448 0.076461874 0.029688701 0.076873593 0.028947096 -0.013009429 0.15752706
13110000000 0.073290966 0.12776314 0.078874014 0.01583275 0.079589926 0.014702887 -0.012164349 0.16219595
13120000000 0.082358807 0.11463302 0.080720015 0.0013139873 0.081064068 0.00031937077 -0.022606583 0.16387233
13130000000 0.087204926 0.10058072 0.081127971 -0.014243849 0.081307381 -0.015665522 -0.025953099 0.17755187
13140000000 0.083143584 0.085781164 0.078837819 -0.029653639 0.078550994 -0.030961985 -0.019727774 0.17872122
13150000000 0.079454631 0.075299688 0.072939143 -0.048926916 0.072310477 -0.050012447 -0.01102522 0.18514284
13160000000 0.068062074 0.062098622 0.060004421 -0.064790674 0.059280328 -0.065609343 0.0042589083 0.18341507
13170000000 0.053838633 0.059754089 0.043414351 -0.07549338 0.042496361 -0.076034494 0.013598546 0.17499167
13180000000 0.042842291 0.061249908 0.02581783 -0.082324199 0.025105663 -0.082672499 0.016311403 0.16807003
13190000000 0.036233243 0.068200693 0.0075826123 -0.084040903 0.0066483687 -0.084506504 0.014570031 0.15717991
13200000000 0.031382613 0.078550018 -0.0095194411 -0.083053745 -0.01054709 -0.083109155 0.0023795459 0.15382406
13210000000 0.034526896 0.088320665 -0.02385515 -0.077806279 -0.024722472 -0.077642076 -3.6496669e-05 0.15791872
13220000000 0.036518209 0.096487783 -0.037749603 -0.074112341 -0.038845509 -0.073836893 -0.0010619536 0.16234797
13230000000 0.042389289 0.10597213 -0.053682741 -0.065741897 -0.054455202 -0.065273814 0.0060239211 0.17399374
13240000000 0.054027852 0.1126687 -0.06675452 -0.051913984 -0.067261681 -0.051243156 0.015967891 0.17573464
13250000000 0.06559775 0.11104032 -0.075716808 -0.037651319 -0.076152928 -0.037263662 0.025938489 0.17737059
13260000000 0.07398206 0.10611889 -0.082270116 -0.019381486 -0.08314348 -0.018773038 0.032956146 0.17127192
13270000000 0.081890523 0.098435149 -0.082576081 -0.0018214118 -0.08306095 -0.0009078458 0.030453322 0.16450678
13280000000 0.087227315 0.087785162 -0.079305023 0.013614228 -0.079860374 0.014867965 0.027050424 0.15871105
13290000000 0.088347323 0.07517495 -0.07538861 0.02727239 -0.074805811 0.028664509 0.021321617 0.15512362
13300000000 0.087571472 0.064891733 -0.070731953 0.040966757 -0.070109069 0.042031817 0.015018344 0.15460154
13310000000 0.08525075 0.055774055 -0.062755048 0.05630393 -0.061592285 0.056951847 0.020813063 0.16181022
13320000000 0.077754237 0.047992863 -0.049268089 0.068592221 -0.048812505 0.068755567 0.034583323 0.16906741
13330000000 0.069141112 0.047904994 -0.034085341 0.078590848 -0.033420198 0.078629598 0.04920835 0.17549799
13340000000 0.061428621 0.050307047 -0.015809689 0.083513357 -0.015632065 0.084149614 0.05924622 0.17159823
13350000000 0.055313077 0.056621041 0.002629064 0.084524408 0.0033842213 0.085474312 0.062872916 0.16192737
13360000000 0.0530538 0.065003261 0.019137491 0.080848537 0.020804182 0.081394717 0.058306262 0.14650056
13370000000 0.054618623 0.071494579 0.032787442 0.075393409 0.034318171 0.074573286 0.053718824 0.13144945
13380000000 0.057290271 0.077049062 0.047896117 0.069826558 0.048508674 0.068640985 0.047798034 0.12236093
13390000000 0.063418046 0.081972018 0.062766083 0.05760517 0.063024603 0.057191279 0.046937253 0.13084836
13400000000 0.074568972 0.084358707 0.072118558 0.042233527 0.07257358 0.041786123 0.052569486 0.14416265
13410000000 0.08780396 0.078648187 0.079317808 0.028740482 0.079910517 0.028177112 0.057905454 0.14931843
13420000000 0.099086046 0.06946829 0.085040279 0.010743301 0.085822307 0.010153387 0.059894282 0.14795612
13430000000 0.10769276 0.057028074 0.084987827 -0.0088996217 0.085517667 -0.010266833 0.063820168 0.13850746
13440000000 0.1126468 0.041234452 0.079303257 -0.024700297 0.07919462 -0.026098274 0.067955174 0.12239186
13450000000 0.11052546 0.026920889 0.07373295 -0.038903434 0.073096119 -0.040300135 0.073168635 0.11072111
13460000000 0.10693984 0.01237833 0.065295577 -0.05389002 0.064243637 -0.054692794 0.069549374 0.10752951
13470000000 0.095864534 -0.0014726371 0.051662683 -0.066221558 0.050817341 -0.066484764 0.064178243 0.1146557
13480000000 0.081229918 -0.010578662 0.037704632 -0.074987739 0.037307926 -0.075131834 0.059271872 0.11688152
13490000000 0.06334538 -0.013352834 0.02126806 -0.080607243 0.020949248 -0.081577837 0.057028465 0.12024993
13500000000 0.047491834 -0.013280053 0.0063651353 -0.084291533 0.0048186369 -0.084947884 0.060452215 0.11273193
13510000000 0.031306099 -0.0079864534 -0.012189521 -0.084483713 -0.013838649 -0.084663607 0.063669354 0.10589329
13520000000 0.019757524 0.0037338883 -0.029815555 -0.078891441 -0.031220667 -0.078170933 0.072037213 0.1053327
13530000000 0.015567564 0.017848225 -0.043057654 -0.07149677 -0.043841504 -0.070835583 0.075730287 0.10112102
13540000000 0.017984122 0.030314054 -0.0589481 -0.062172465 -0.059942566 -0.061215024 0.067090265 0.09545587
13550000000 0.021643966 0.043001201 -0.070486784 -0.046964787 -0.070991442 -0.046385508 0.058189459 0.098760858
13560000000 0.032404177 0.055665083 -0.077461675 -0.031022551 -0.078231916 -0.030395351 0.05526612 0.093476653
13570000000 0.046106547 0.062818721 -0.080972821 -0.016448706 -0.081647947 -0.015384391 0.05436568 0.092813239
13580000000 0.061329581 0.066832244 -0.083715156 -0.00085934997 -0.084528051 0.00060325488 0.058884144 0.090521485
13590000000 0.078096777 0.060921974 -0.08343558 0.016977761 -0.083139807 0.019080665 0.059481882 0.092960216
13600000000 0.088523567 0.048387215 -0.077754855 0.034341857 -0.076526292 0.035557494 0.061320435 0.095899627
13610000000 0.093573242 0.032652482 -0.069071047 0.049242716 -0.068183616 0.049882866 0.06309709 0.093598649
13620000000 0.093436107 0.016584132 -0.057884 0.062154502 -0.057087697 0.062695004 0.062175494 0.086743258
13630000000 0.091091573 -0.0026069134 -0.044337854 0.073293544 -0.043709233 0.073757075 0.059806883 0.081616953
13640000000 0.081708387 -0.019323772 -0.027694235 0.080057032 -0.026984699 0.080935493 0.056790538 0.080474794
13650000000 0.068703294 -0.035542142 -0.010841293 0.08277645 -0.0094900159 0.083338134 0.058086902 0.083628654
13660000000 0.050892059 -0.040811058 0.0033672405 0.083529763 0.0049528414 0.084123835 0.057267591 0.079888806
13670000000 0.032599449 -0.043370664 0.020384392 0.084595121 0.022387421 0.083979741 0.050143667 0.080354735
13680000000 0.014472525 -0.033662613 0.040364049 0.078982465 0.041620508 0.077920549 0.052970126 0.081038482
13690000000 0.0001283465 -0.020733556 0.055159692 0.067269385 0.055588655 0.066388324 0.056513719 0.0798195
13700000000 -0.006714338 -0.00055232667 0.068557896 0.055581339 0.069431186 0.05512619 0.05612281 0.079082578
13710000000 -0.012423217 0.017088979 0.078389019 0.037611544 0.07983689 0.037011638 0.05521537 0.080200538
13720000000 -0.0077903597 0.036781233 0.083297342 0.021447239 0.085040547 0.019695777 0.053225756 0.080399744
13730000000 0.00022155698 0.0505515 0.086318284 0.004074906 0.086886235 0.0012862049 0.05173989 0.078636244
13740000000 0.013829549 0.059284732 0.083818465 -0.012898032 0.082989544 -0.015190114 0.050879151 0.075361244
13750000000 0.027774461 0.060829241 0.080797113 -0.029576275 0.079314433 -0.031167643 0.054294214 0.076187715
13760000000 0.043492742 0.057865772 0.072528549 -0.04511866 0.071186922 -0.045533895 0.053817626 0.080053471
13770000000 0.057478249 0.04947906 0.062385399 -0.059104033 0.061785609 -0.059569575 0.055176187 0.087525763
13780000000 0.069478706 0.038461823 0.048566122 -0.071328379 0.048093811 -0.071995623 0.059120849 0.087812401
13790000000 0.076885566 0.024766937 0.031668894 -0.078404099 0.031097678 -0.079941943 0.059064619 0.085683241
13800000000 0.08076743 0.010667446 0.016752295 -0.083118163 0.01486127 -0.084436111 0.062400792 0.08062306
13810000000 0.076339982 -0.0017154738 -0.0013151672 -0.083697833 -0.0036050733 -0.084296167 0.068631619 0.07527972
13820000000 0.071586482 -0.010630812 -0.016236449 -0.081873178 -0.018473661 -0.081202872 0.075966403 0.072708987
13830000000 0.061678737 -0.017737132 -0.031286787 -0.077616781 -0.032676123 -0.076492116 0.07608556 0.069867946
13840000000 0.051681515 -0.024283649 -0.04779017 -0.071937695 -0.048522085 -0.070539564 0.071740203 0.067516804
13850000000 0.037214756 -0.026763022 -0.062479809 -0.06064979 -0.063128173 -0.060080733 0.068104424 0.064836383
13860000000 0.024565944 -0.02473508 -0.075126745 -0.045260824 -0.076252542 -0.044311084 0.067381941 0.060661424
13870000000 0.01593527 -0.019646833 -0.080935903 -0.028610848 -0.081714645 -0.027217513 0.070797548 0.056286458
13880000000 0.010481313 -0.01440141 -0.085914724 -0.012678718 -0.086337812 -0.010804158 0.073518433 0.054301217
13890000000 0.0084293215 -0.0051939897 -0.08646813 0.005818285 -0.086328536 0.0072134249 0.075439468 0.055002384
13900000000 0.013264477 0.0025594598 -0.083631203 0.022969047 -0.08311139 0.024632949 0.074707925 0.054932956
13910000000 0.019932436 0.010700118 -0.077050269 0.039977308 -0.076505244 0.041222297 0.073377103 0.052441832
13920000000 0.031408597 0.012179826 -0.066810578 0.055142488 -0.066244781 0.056181714 0.072849914 0.046705931
13930000000 0.038333926 0.013692452 -0.054497678 0.066577986 -0.053809606 0.068171099 0.072932675 0.04298589
13940000000 0.04607242 0.0086492635 -0.039758507 0.077694073 -0.038245529 0.07920561 0.075077094 0.044488836
13950000000 0.050539128 0.00062663108 -0.021311503 0.082842171 -0.019237919 0.083755724 0.079484195 0.045424223
13960000000 0.04803849 -0.010554979 -0.005598262 0.084056661 -0.0032806955 0.084053159 0.080234982 0.042285837
13970000000 0.042639226 -0.018384032 0.0099951252 0.084698707 0.011839341 0.083957165 0.074410446 0.042889327
13980000000 0.035915907 -0.030005446 0.029214391 0.08137089 0.030267959 0.080443949 0.077072814 0.039408498
13990000000 0.026683796 -0.036989484 0.044143192 0.072587907 0.045101903 0.071940109 0.078463688 0.031909868
14000000000 0.016330764 -0.04310286 0.057737466 0.063182861 0.058763847 0.062904887 0.075918719 0.028389595
14010000000 0.0080445316 -0.040497433 0.071149409 0.048478149 0.070884354 0.048515577 0.07634072 0.025331698
14020000000 0.0047080368 -0.035552558 0.07930015 0.032242723 0.078822203 0.032836728 0.070612237 0.020544767
14030000000 0.005637316 -0.032089271 0.083567478 0.016517721 0.083351113 0.017030008 0.069156989 0.021063225
14040000000 0.0047618523 -0.025525454 0.086062253 -0.0011114702 0.085617945 -6.8154186e-05 0.068928316 0.01232381
14050000000 0.0091096945 -0.019007275 0.083557725 -0.017898835 0.084273912 -0.017168365 0.063967772 0.0098661315
14060000000 0.01288493 -0.017437315 0.079592049 -0.034587782 0.079985112 -0.03445068 0.061857548 0.01054172
14070000000 0.013209786 -0.016264319 0.069486469 -0.050848659 0.069734916 -0.050868675 0.059194211 0.01251852
14080000000 0.014372991 -0.01751177 0.057995971 -0.064207822 0.058108941 -0.063717045 0.056237433 0.0069618756
14090000000 0.01319693 -0.022680938 0.043882191 -0.074051432 0.044340655 -0.073301762 0.049415931 0.0029476695
14100000000 0.010800148 -0.029098297 0.027771177 -0.083188593 0.028945418 -0.082621053 0.04648906 -0.0020932257
14110000000 0.005137356 -0.039279766 0.0088251866 -0.085208006 0.010318227 -0.085396007 0.047186837 -0.002471108
14120000000 -0.0024918858 -0.047547586 -0.0078799948 -0.084146284 -0.0069870763 -0.085141964 0.050168358 -0.0027912389
14130000000 -0.012197019 -0.053381901 -0.023315888 -0.080909446 -0.02326384 -0.08212404 0.044508018 -0.0017037624
14140000000 -0.021954117 -0.054996479 -0.03955384 -0.07520321 -0.039911609 -0.075781077 0.038945783 0.0033281823
14150000000 -0.029197797 -0.053156819 -0.053727925 -0.066770792 -0.053808592 -0.06651482 0.035680715 0.00059128692
14160000000 -0.039093837 -0.050360408 -0.067505784 -0.053962693 -0.067076869 -0.053994894 0.034808882 -0.0018914426
14170000000 -0.048689619 -0.039916873 -0.075987063 -0.038778648 -0.075210616 -0.039291009 0.039834902 -0.004087152
14180000000 -0.053768679 -0.027265549 -0.082284823 -0.022347355 -0.082268037 -0.023473358 0.039984576 -0.0052137002
14190000000 -0.057484496 -0.013427704 -0.083980359 -0.0059334524 -0.084429398 -0.006718576 0.038702458 0.0023239357
14200000000 -0.058024798 -0.00054213405 -0.084160984 0.011603208 -0.084828846 0.011154823 0.034009606 0.0031654164
14210000000 -0.054960035 0.010701384 -0.079423808 0.027664021 -0.079991281 0.027365433 0.026118373 0.002006382
14220000000 -0.048330292 0.019013595 -0.072858393 0.042978778 -0.073308669 0.042919423 0.01716066 -0.0042960159
14230000000 -0.037197389 0.022159442 -0.064341977 0.056994498 -0.064155042 0.05716978 0.01469039 -0.0016448533
14240000000 -0.027396856 0.020912554 -0.049706329 0.070331827 -0.050084241 0.06982775 0.020550406 -0.0023188745
14250000000 -0.014401136 0.016612181 -0.0343748 0.07794255 -0.035169896 0.077612147 0.019806556 0.00047608372
14260000000 -0.0049582878 0.0084423311 -0.018805206 0.082775049 -0.019627955 0.083028585 0.019489635 0.0069144098
14270000000 0.0037355688 -0.0016613891 -0.0010033939 0.086292766 -0.0013586078 0.086636409 0.017142223 0.0081307888
14280000000 0.007355894 -0.014746745 0.017052215 0.083837889 0.016747672 0.084088154 0.013917288 0.0041443701
14290000000 0.0034650268 -0.028489051 0.032373555 0.07795234 0.032176711 0.078204237 0.016224062 0.0020810706
14300000000 -0.0075493753 -0.036964979 0.047190331 0.071029268 0.047260828 0.071126759 0.018355675 -0.0035151583
14310000000 -0.020530941 -0.043056123 0.061095364 0.059677683 0.060618117 0.059884775 0.017100507 0.0013002567
14320000000 -0.037750747 -0.044814784 0.072309807 0.045696188 0.072202459 0.046282526 0.018594544 0.0052149333
14330000000 -0.055733398 -0.042261664 0.078737259 0.029642036 0.078722075 0.029880427 0.016661961 0.0068169986
14340000000 -0.07123708 -0.033604346 0.082771122 0.013709588 0.082873464 0.014310747 0.012350674 0.0056426879
14350000000 -0.082141913 -0.022464477 0.084472463 -0.0013769343 0.08470577 -0.0013268571 0.0094104242 0.0059840526
14360000000 -0.086978711 -0.0078313025 0.083202139 -0.019610988 0.0834966 -0.019640615 0.012210781 0.0059559019
14370000000 -0.08526931 0.0071281996 0.076941274 -0.035393003 0.077017404 -0.035319634 0.013977854 0.0052465554
14380000000 -0.078969188 0.021215718 0.069013171 -0.049599219 0.068942539 -0.049359795 0.0095136408 0.0045089405
14390000000 -0.068283565 0.035128433 0.060052022 -0.064336374 0.060185306 -0.063743137 0.007385131 0.0076788743
14400000000 -0.051819745 0.046681058 0.043131299 -0.076892719 0.04399161 -0.076727554 0.0056783375 0.0055399132
14410000000 -0.032971628 0.050611801 0.026227795 -0.082370661 0.026646335 -0.082870662 0.0061816326 0.0070780884
14420000000 -0.019053794 0.04780107 0.010615271 -0.086157657 0.010571485 -0.086469807 0.0071637062 0.0074455757
14430000000 -0.0071606548 0.043020029 -0.0087089632 -0.087087139 -0.0083172806 -0.087110184 0.010138383 0.011814266
14440000000 0.0008066562 0.032117821 -0.02520055 -0.083087906 -0.025100619 -0.08326517 0.013305997 0.012693578
14450000000 0.0046585072 0.018134352 -0.042558029 -0.076823413 -0.042324986 -0.076990604 0.013869457 0.0080876322
14460000000 0.0034738774 0.00078216009 -0.057632636 -0.066080622 -0.057084333 -0.066409029 0.013574242 0.0034972648
14470000000 -0.0025897063 -0.015257921 -0.06952206 -0.052669916 -0.069377735 -0.05370789 0.013653276 4.1082501e-05
14480000000 -0.013027779 -0.028638499 -0.078886338 -0.037094478 -0.079532303 -0.037869807 0.014474037 -0.0012211143
14490000000 -0.023720521 -0.039240263 -0.084497035 -0.020118291 -0.085271604 -0.020308441 0.014266418 0.0020637189
14500000000 -0.037139542 -0.04388357 -0.085759491 -0.0016498114 -0.086238533 -0.0012244341 0.011044582 0.00091372564
14510000000 -0.051441889 -0.041222855 -0.084037982 0.01481165 -0.083989829 0.015074349 0.0050829533 0.00025683537
14520000000 -0.06152714 -0.033583552 -0.078782491 0.031824227 -0.078766786 0.03181706 0.0050905054 -0.0022985393
14530000000 -0.069699541 -0.023629081 -0.070052683 0.04611906 -0.070103079 0.045849811 0.0074664336 -0.0098986933
14540000000 -0.076670684 -0.010673683 -0.059754375 0.057331461 -0.060159456 0.056958277 0.0067126071 -0.012899467
14550000000 -0.081316985 0.0034370199 -0.04953862 0.068375453 -0.050114244 0.06856589 0.0072477865 -0.0099708
14560000000 -0.081405081 0.017984184 -0.034651995 0.078996085 -0.034765117 0.079292573 0.0016692774 -0.01219267
14570000000 -0.07587751 0.027920691 -0.016644076 0.084567361 -0.016825959 0.084420271 -0.0083896201 -0.011179057
14580000000 -0.069610804 0.032999422 0.00037153903 0.085924171 0.00021657161 0.085968509 -0.015282675 -0.013276747
14590000000 -0.061273176 0.033692662 0.018586282 0.084922656 0.018305678 0.084940828 -0.020209834 -0.013609698
14600000000 -0.051649932 0.033000112 0.035595626 0.078284487 0.035210773 0.078063637 -0.017421464 -0.010006219
14610000000 -0.042357333 0.024993565 0.049831048 0.068868123 0.048818972 0.069236204 -0.012453258 -0.0060295248
14620000000 -0.034894943 0.018568819 0.062340997 0.059349641 0.061892256 0.060625266 -0.012672637 -0.0013806187
14630000000 -0.032436401 0.0064468076 0.07488139 0.044212885 0.075345345 0.044976681 -0.0119819 4.5258319e-05
14640000000 -0.034945939 -0.00042661093 0.080739319 0.027189277 0.081219584 0.02774534 -0.017233845 -0.0055809608
14650000000 -0.042353284 -0.0052689193 0.08456517 0.011373923 0.084881365 0.011356561 -0.021920383 -0.010614676
14660000000 -0.049787115 -0.008386964 0.086245656 -0.0065373108 0.086014733 -0.0060347393 -0.024199048 -0.014208145
14670000000 -0.065124013 -0.0071940962 0.082685456 -0.023817727 0.082834065 -0.022869151 -0.027114116 -0.011316942
14680000000 -0.073113434 -0.0013201647 0.076088406 -0.041256428 0.076738089 -0.040517882 -0.026875896 -0.0060621323
14690000000 -0.084630385 0.0022513866 0.064750955 -0.055326745 0.065745682 -0.054710522 -0.028775111 -0.0056482954
14700000000 -0.091773272 0.010204066 0.051699229 -0.066533878 0.05270132 -0.066442981 -0.033921827 -0.0061000539
14710000000 -0.096097618 0.019427508 0.037201248 -0.074658312 0.038066648 -0.07470829 -0.034082986 -0.0076053189
14720000000 -0.091743007 0.027177475 0.021770976 -0.079671361 0.022566576 -0.079779536 -0.037293464 -0.012906695
14730000000 -0.089718714 0.032272488 0.0073189903 -0.081601717 0.0080903526 -0.081680916 -0.041590512 -0.0076300576
14740000000 -0.082827412 0.039238364 -0.0079237595 -0.083779074 -0.0069095083 -0.083687127 -0.042953178 -0.007554885
14750000000 -0.075336188 0.044512123 -0.027637329 -0.082448483 -0.026288899 -0.082879543 -0.053027689 -0.0030215513
14760000000 -0.064179346 0.045635082 -0.044775367 -0.072196797 -0.043553751 -0.072982594 -0.057588615 0.0023714602
14770000000 -0.061514102 0.043653838 -0.056993373 -0.061252639 -0.055896398 -0.062733278 -0.061263639 0.0063450001
14780000000 -0.058572002 0.042761892 -0.068317384 -0.048734181 -0.068157293 -0.050389126 -0.060123131 0.015233722
14790000000 -0.06192372 0.040780701 -0.075085469 -0.033273123 -0.075415932 -0.03434078 -0.053783849 0.019497328
14800000000 -0.065345779 0.037371784 -0.079359427 -0.019414533 -0.079442859 -0.020226831 -0.055746622 0.022691876
14810000000 -0.072917283 0.036699235 -0.08365003 -0.0043749958 -0.083423138 -0.0051574521 -0.05438447 0.025922045
14820000000 -0.080398306 0.034432199 -0.084637314 0.014717143 -0.084360965 0.013345409 -0.05541262 0.019136526
14830000000 -0.090637855 0.038468115 -0.07789769 0.032420367 -0.078476161 0.030752366 -0.061005302 0.016004642
14840000000 -0.095469758 0.045369521 -0.069628805 0.046182644 -0.070962518 0.044771619 -0.061587013 0.020957619
14850000000 -0.094866849 0.054365989 -0.059571359 0.059454657 -0.061187997 0.058713835 -0.057932865 0.027637405
14860000000 -0.091744386 0.063640714 -0.045534164 0.070426308 -0.046763856 0.070304506 -0.059197485 0.036371805
14870000000 -0.085600138 0.075926311 -0.030249178 0.077447698 -0.031483367 0.077226073 -0.057444476 0.045414299
14880000000 -0.073443264 0.087286569 -0.014079474 0.08196497 -0.015279662 0.081689149 -0.05575959 0.043082289
14890000000 -0.061013304 0.095459841 0.0030742027 0.082020514 0.0016379133 0.08204636 -0.054844704 0.042352688
14900000000 -0.04620111 0.10180928 0.018187076 0.079496451 0.016647927 0.080041289 -0.048108459 0.038300574
14910000000 -0.031974502 0.10119965 0.033055991 0.075135298 0.031571221 0.076084524 -0.045664813 0.038308948
14920000000 -0.021168625 0.096372679 0.047020536 0.067395464 0.046103649 0.068619438 -0.045872133 0.042495821
14930000000 -0.01374403 0.086115345 0.059850357 0.058197822 0.059096824 0.059373569 -0.05282383 0.047015388
14940000000 -0.008235734 0.073250383 0.072729051 0.04461471 0.072310805 0.045870185 -0.056808367 0.052767999
14950000000 -0.0093662087 0.053424157 0.080276959 0.026846576 0.079784676 0.028366547 -0.058900472 0.04834611
14960000000 -0.018432226 0.038075875 0.083037153 0.0093383808 0.08297015 0.010792008 -0.058540031 0.054325245
14970000000 -0.029493358 0.028792046 0.08196298 -0.0058603492 0.08185228 -0.0042624548 -0.042594224 0.05727974
14980000000 -0.038234469 0.022932861 0.080751427 -0.022339042 0.081330135 -0.020436497 -0.035934906 0.055897225
14990000000 -0.050242569 0.020620072 0.072531 -0.038700256 0.073714696 -0.037249163 -0.035513029 0.059517406
15000000000 -0.061334446 0.027845491 0.063065559 -0.050257113 0.064392373 -0.049016044 -0.035973009 0.057859413
15010000000 -0.068425789 0.03819003 0.053568847 -0.062225424 0.055187445 -0.061399121 -0.042231727 0.050757751
15020000000 -0.074511036 0.054387316 0.039684363 -0.072510526 0.041109588 -0.072097726 -0.047859412 0.048469257
15030000000 -0.071585946 0.073518135 0.02501864 -0.078331642 0.026537009 -0.078064859 -0.043015603 0.052442987
15040000000 -0.062831402 0.087470993 0.0099229245 -0.083265156 0.011476097 -0.083231002 -0.039555065 0.055382513
15050000000 -0.053527854 0.09505672 -0.0083101019 -0.084333405 -0.0065441225 -0.084720381 -0.036331676 0.067206576
15060000000 -0.044129808 0.10209827 -0.025443874 -0.080379516 -0.024112727 -0.081181616 -0.031218003 0.068092242
15070000000 -0.030900847 0.10297313 -0.042308714 -0.073888384 -0.041016888 -0.074638344 -0.033777412 0.062033318
15080000000 -0.015773047 0.10142238 -0.056662299 -0.061318059 -0.055441998 -0.062418483 -0.034146406 0.053578548
15090000000 0.0012398921 0.087857172 -0.064893104 -0.049393591 -0.064105101 -0.050711151 -0.034697596 0.045758173
15100000000 0.009612279 0.072222002 -0.074450187 -0.037652925 -0.07360106 -0.03894503 -0.032221664 0.043817565
15110000000 0.015897498 0.054616913 -0.081402704 -0.021750184 -0.080918059 -0.023420835 -0.033419952 0.046516474
15120000000 0.015238689 0.039612319 -0.08405941 -0.0049994057 -0.083948568 -0.0067521352 -0.036564451 0.053459864
15130000000 0.014024276 0.024837838 -0.085222878 0.011672351 -0.085858308 0.0097270235 -0.035941023 0.059584849
15140000000 0.0051652142 0.010419649 -0.082141303 0.031757589 -0.083123296 0.03029385 -0.035191685 0.056520611
15150000000 -0.011563752 0.00034884736 -0.071047209 0.049730264 -0.072412252 0.048541844 -0.033383217 0.053264447
15160000000 -0.031089719 0.0010912418 -0.057767525 0.060432859 -0.058936004 0.059944928 -0.031318482 0.051686276
15170000000 -0.04612074 0.0051984899 -0.04486043 0.0706186 -0.046088446 0.070152529 -0.028589342 0.045350276
15180000000 -0.061825566 0.013295612 -0.028847704 0.076719925 -0.030200509 0.076687135 -0.0371233 0.044124726
15190000000 -0.072743014 0.022877375 -0.014400131 0.078992598 -0.015694244 0.078871854 -0.044631559 0.043473646
15200000000 -0.082768336 0.035967018 -0.00047180429 0.082277097 -0.0019615497 0.082495727 -0.055027932 0.044571295
15210000000 -0.086040728 0.051429298 0.017640175 0.08128316 0.016634073 0.082081959 -0.058408808 0.050736669
15220000000 -0.083323792 0.06912794 0.033280317 0.075755239 0.032515459 0.076695539 -0.059013944 0.053493503
15230000000 -0.070796423 0.081561118 0.048583027 0.068751991 0.047891628 0.069538929 -0.056970596 0.06457372
15240000000 -0.058253851 0.091137022 0.062991187 0.056134626 0.062324636 0.056925483 -0.049667075 0.064090148
15250000000 -0.039738238 0.094325379 0.071403459 0.040698767 0.070836358 0.041610859 -0.052435331 0.065523304
15260000000 -0.026966352 0.093786851 0.076978527 0.025858838 0.076388597 0.027096145 -0.047791731 0.066878572
15270000000 -0.012527056 0.089792654 0.080354482 0.010708924 0.080256358 0.012330422 -0.047954269 0.061975438
15280000000 -0.0022032559 0.083128989 0.079846144 -0.0053382013 0.080367774 -0.0039673299 -0.054811619 0.067136481
15290000000 0.004709024 0.070540421 0.077753 -0.019104082 0.078568846 -0.018072121 -0.053700566 0.075179279
15300000000 0.0055916533 0.058870718 0.074533612 -0.034615807 0.075171791 -0.033921301 -0.058316585 0.076616064
15310000000 0.0017747218 0.043354832 0.066114634 -0.050904691 0.066718683 -0.050285932 -0.061131772 0.082648814
15320000000 -0.0091201691 0.036309868 0.053849883 -0.063094988 0.054498799 -0.062586121 -0.054790266 0.085813083
15330000000 -0.017432816 0.029585138 0.040058628 -0.073497526 0.040908851 -0.072852895 -0.047857199 0.082117923
15340000000 -0.028847141 0.027577799 0.022958055 -0.079868391 0.024255227 -0.079448685 -0.044898942 0.084215745
15350000000 -0.03936813 0.028752428 0.0062234253 -0.080855891 0.0075500216 -0.08084216 -0.04061066 0.087401077
15360000000 -0.047638912 0.037274931 -0.0083041526 -0.080168493 -0.0070939064 -0.080648944 -0.045010425 0.086066976
15370000000 -0.050875843 0.046054229 -0.024581902 -0.077481374 -0.023579577 -0.078234762 -0.051152226 0.087779447
15380000000 -0.050677441 0.058594272 -0.039370313 -0.071163267 -0.038901478 -0.071956679 -0.053401761 0.085627884
15390000000 -0.046019368 0.068523705 -0.05342399 -0.062286593 -0.052859686 -0.062639557 -0.053879209 0.087960757
15400000000 -0.038170829 0.079238258 -0.065349631 -0.049431752 -0.064711876 -0.050331116 -0.048153028 0.094349377
15410000000 -0.026995791 0.084774412 -0.072764501 -0.03534428 -0.072234906 -0.036317348 -0.043599941 0.1030068
15420000000 -0.013865847 0.087743372 -0.07817547 -0.020258039 -0.07806024 -0.021496769 -0.035438389 0.11082484
15430000000 -0.00080461055 0.082663491 -0.080886677 -0.0039548539 -0.081226304 -0.0052475668 -0.034848005 0.10743198
15440000000 0.0091103464 0.075677402 -0.079273656 0.012685366 -0.079924688 0.011912905 -0.036630247 0.10679832
15450000000 0.015083114 0.064127132 -0.074019022 0.027213996 -0.074731395 0.026707031 -0.03049865 0.10071625
15460000000 0.019658173 0.05586588 -0.068713926 0.0404916 -0.069293804 0.040263299 -0.031728704 0.096450061
15470000000 0.023483526 0.043474365 -0.059776969 0.054907538 -0.060119845 0.054325908 -0.027553944 0.10649306
15480000000 0.022024063 0.030141372 -0.046911739 0.064333923 -0.047728255 0.063839734 -0.021293875 0.10914524
15490000000 0.014674427 0.019610154 -0.034627043 0.073565438 -0.03562668 0.073390573 -0.024662036 0.11589502
15500000000 0.0054755728 0.016214091 -0.017412234 0.079949886 -0.018420096 0.080039114 -0.016515289 0.1185699
15510000000 -0.0017802739 0.016364902 -0.00047751516 0.080081627 -0.0012564249 0.080735266 -0.011936277 0.11154872
15520000000 -0.0064973887 0.018827947 0.014566258 0.078688771 0.014265168 0.079109639 -0.0065072179 0.10984603
15530000000 -0.011783438 0.019883336 0.030139802 0.074312985 0.029934555 0.07462611 0.0015661363 0.10370049
15540000000 -0.015859198 0.024643308 0.04356762 0.066915713 0.043139439 0.066790968 -0.0025245757 0.09988372
15550000000 -0.017230459 0.029630382 0.055603474 0.057435233 0.05482807 0.058174025 -0.0049585067 0.10062277
15560000000 -0.013457168 0.036496773 0.067019418 0.045730628 0.06673079 0.046536416 -0.0071123876 0.096404649
15570000000 -0.0048017222 0.038172364 0.075172804 0.030894633 0.074924961 0.031875417 -0.013664532 0.096235596
15580000000 0.0048671067 0.035006132 0.079732113 0.015029313 0.080101259 0.015746316 -0.0079151951 0.10376683
15590000000 0.01343978 0.028393682 0.081381977 -0.001108272 0.081699729 -0.00072212517 -0.00094017386 0.10242762
15600000000 0.018930875 0.018637933 0.079677865 -0.018135302 0.079872213 -0.017606098 -0.0023705773 0.10627554
15610000000 0.021834055 0.0091641955 0.073282465 -0.033645727 0.073335037 -0.033144865 0.0051732846 0.1050754
15620000000 0.02343183 -0.0013053492 0.065633014 -0.04659573 0.065791965 -0.045727916 0.0045262706 0.092821315
15630000000 0.02126254 -0.012472533 0.055210806 -0.060498074 0.055928174 -0.059556931 0.0024966486 0.088908002
15640000000 0.014995122 -0.024686955 0.041057192 -0.069343813 0.04209128 -0.068743065 0.0020694099 0.084079713
15650000000 0.0031348467 -0.033149712 0.027122019 -0.076181531 0.028537834 -0.076235473 -0.00032176822 0.086945206
15660000000 -0.01020124 -0.037139997 0.010826858 -0.080391042 0.011627676 -0.080963664 -0.0035256818 0.088834465
15670000000 -0.023467392 -0.037285231 -0.0056000827 -0.079873189 -0.0051743286 -0.080269381 -0.0080660414 0.093222648
15680000000 -0.033242863 -0.035415698 -0.019788615 -0.07769639 -0.019733559 -0.077856176 -0.0028543943 0.092446893
15690000000 -0.043944679 -0.033369951 -0.035927258 -0.073401071 -0.035329334 -0.073480383 0.0013295319 0.08467117
15700000000 -0.05217699 -0.026743464 -0.050668389 -0.065078691 -0.050231345 -0.065414041 0.006703455 0.086165987
15710000000 -0.056082241 -0.016202187 -0.063265204 -0.052762456 -0.062727123 -0.053193998 0.013173953 0.084740065
15720000000 -0.05171689 -0.0073748901 -0.07234402 -0.03782868 -0.071929067 -0.038574681 0.0058818646 0.081595071
15730000000 -0.046130113 -0.00089432113 -0.077002384 -0.021705765 -0.076971851 -0.022447832 -0.0036834292 0.085360944
15740000000 -0.037530214 0.0013874839 -0.077984497 -0.007070214 -0.078310087 -0.0077472329 -0.0055222115 0.081685737
15750000000 -0.029834038 0.0032808508 -0.079204224 0.0058378763 -0.079530112 0.0055990284 -0.0098559549 0.076127097
15760000000 -0.020166112 -9.8592602e-05 -0.078745618 0.02298269 -0.078998625 0.022662193 -0.0067190435 0.080808021
15770000000 -0.014907703 -0.006368523 -0.072041266 0.038297843 -0.072364576 0.037953518 0.0033841282 0.08594434
15780000000 -0.011637255 -0.016786981 -0.06478896 0.052515686 -0.065145865 0.05210131 0.0016739666 0.08624886
15790000000 -0.012542143 -0.027982004 -0.052077316 0.067011744 -0.052668203 0.066852137 -0.0012054592 0.088411309
15800000000 -0.018734567 -0.043742843 -0.035028469 0.075261682 -0.035515726 0.075506933 -0.003039686 0.080780275
15810000000 -0.029543407 -0.052237842 -0.020416211 0.079981036 -0.020492438 0.080327325 -0.0080561424 0.071689881
15820000000 -0.040447436 -0.063461304 -0.0033147042 0.083784111 -0.0035338779 0.083883606 -0.0084411856 0.068774238
15830000000 -0.05420709 -0.067345046 0.014510798 0.081439532 0.014403996 0.081518903 -0.0066101141 0.071923509
15840000000 -0.066212617 -0.069882303 0.028572761 0.076581307 0.028243005 0.076671548 -0.0088190511 0.082379289
15850000000 -0.07746806 -0.067528442 0.04361904 0.070734993 0.043561552 0.071171619 -0.0098254047 0.090931617
15860000000 -0.089990012 -0.061710969 0.05776988 0.060208015 0.057940196 0.060193874 -0.012508549 0.092814751
15870000000 -0.095897079 -0.047802072 0.068976656 0.047229484 0.068979174 0.047228239 -0.010595175 0.092172474
15880000000 -0.097090848 -0.036761887 0.078548811 0.032547727 0.078520827 0.032449193 -0.0057986612 0.087110363
15890000000 -0.094212599 -0.02457696 0.084164687 0.013584903 0.083991483 0.013634681 -0.0048886063 0.084127471
15900000000 -0.089989975 -0.018084981 0.082976371 -0.0044592042 0.082870908 -0.004247182 -0.00212075 0.087750584
15910000000 -0.086699218 -0.013292201 0.079846554 -0.020144368 0.079724081 -0.019833652 -0.0067028701 0.087546729
15920000000 -0.082552284 -0.011082672 0.073355533 -0.03616257 0.073470742 -0.0356903 -0.010351289 0.093373396
15930000000 -0.076031521 -0.011579797 0.063303657 -0.048890345 0.063729674 -0.048825555 -0.010002278 0.094083354
15940000000 -0.071586967 -0.018183339 0.053750202 -0.058769323 0.054076537 -0.058621682 -0.0087293554 0.099092081
15950000000 -0.066423364 -0.02583681 0.041992106 -0.070191383 0.042466395 -0.07024008 -0.0021070614 0.10099967
15960000000 -0.064475872 -0.038875971 0.026188159 -0.076853998 0.026400501 -0.077265427 0.0011871527 0.10076895
15970000000 -0.067056566 -0.050401635 0.011100357 -0.080820046 0.01096461 -0.081046425 0.003607206 0.10266399
15980000000 -0.070868269 -0.059643954 -0.0061687827 -0.082500353 -0.0062465426 -0.082862407 0.0077779256 0.095037147
15990000000 -0.076847903 -0.065762028 -0.023858815 -0.078723177 -0.024235224 -0.078819916 0.005205173 0.089488715
16000000000 -0.082993567 -0.070475399 -0.038815618 -0.071099222 -0.038981944 -0.070991814 0.0059761479 0.090999395
16010000000 -0.089987248 -0.074017048 -0.051415883 -0.062700927 -0.05133101 -0.062484376 0.0067557767 0.091900818
16020000000 -0.10178751 -0.077384956 -0.064011909 -0.050780877 -0.063910946 -0.050966498 -0.00029362366 0.095374398
16030000000 -0.11596701 -0.07410717 -0.07205566 -0.036195196 -0.072146162 -0.036292784 -0.00023049721 0.10171593
16040000000 -0.12645745 -0.068237066 -0.077961013 -0.021456782 -0.078156255 -0.02172284 0.0018248875 0.096194476
16050000000 -0.13348246 -0.062257443 -0.081086159 -0.0049091689 -0.081434526 -0.0048362575 0.0030285716 0.093933344
16060000000 -0.13784346 -0.059154026 -0.080549069 0.012144413 -0.080690444 0.012128696 0.013756867 0.09324114
16070000000 -0.14050922 -0.060222983 -0.076000869 0.027718818 -0.076227695 0.027843062 0.016821101 0.089523628
16080000000 -0.14752206 -0.05985501 -0.069509134 0.04322473 -0.069537833 0.043534234 0.01437103 0.092810743
16090000000 -0.1479699 -0.05622194 -0.057911091 0.056457371 -0.057826921 0.056547448 0.010127383 0.093410768
16100000000 -0.14728163 -0.055927694 -0.044804052 0.06631659 -0.044999052 0.066413477 0.00720094 0.089566641
16110000000 -0.143979 -0.056293361 -0.03073347 0.074207708 -0.030733755 0.074364603 0.0074404646 0.086894989
16120000000 -0.14360642 -0.060161781 -0.014323547 0.07856404 -0.014274053 0.078826837 0.014868664 0.087682158
16130000000 -0.14502609 -0.063464835 0.0014222041 0.079075873 0.00154927 0.079299882 0.022450607 0.089747921
16140000000 -0.15167633 -0.06655626 0.016657406 0.077128589 0.017108576 0.077286601 0.022616651 0.094827831
16150000000 -0.15676852 -0.068618588 0.032214709 0.072246894 0.032672286 0.072112724 0.022851391 0.096977741
16160000000 -0.16797781 -0.071551502 0.046166081 0.063163787 0.046352442 0.062813088 0.019621251 0.087850362
16170000000 -0.17777568 -0.073745951 0.057217903 0.052330762 0.057325475 0.051924579 0.014397362 0.077656247
16180000000 -0.19029212 -0.075824834 0.067546934 0.040061478 0.067311287 0.039868176 0.018700134 0.071826883
16190000000 -0.20155284 -0.077271923 0.073475763 0.024289276 0.073206499 0.024291355 0.019744985 0.068538412
16200000000 -0.21453026 -0.07686343 0.075817153 0.010277621 0.075811043 0.010595739 0.019251524 0.075131834
16210000000 -0.22390676 -0.073968939 0.077062666 -0.0047861375 0.077581249 -0.0048980899 0.015962318 0.079054281
16220000000 -0.23132008 -0.067672171 0.07409548 -0.021020573 0.074220583 -0.021396469 0.012761958 0.078612313
16230000000 -0.23256454 -0.062730968 0.067938633 -0.034642313 0.068047523 -0.034895688 0.011658642 0.074675307
16240000000 -0.23561747 -0.057896405 0.060045816 -0.048360124 0.059905075 -0.048719428 0.015478672 0.069275849
16250000000 -0.23887572 -0.055622838 0.047876343 -0.059593704 0.047788084 -0.059780158 0.020062363 0.069506422
16260000000 -0.24457987 -0.049469218 0.035439946 -0.066589609 0.035379171 -0.066894859 0.020306943 0.069539584
16270000000 -0.24913111 -0.044964239 0.022226157 -0.072678462 0.022006107 -0.072806515 0.011800202 0.072449595
16280000000 -0.25471756 -0.041173898 0.0057293735 -0.07604064 0.0057333205 -0.076294295 0.0048690271 0.072689027
16290000000 -0.26320052 -0.041646641 -0.010012682 -0.07417652 -0.010413358 -0.074662097 -0.0014241282 0.067414716
16300000000 -0.27351221 -0.042082801 -0.024486801 -0.070753492 -0.024957106 -0.071046911 -0.0018593948 0.065622628
16310000000 -0.2869629 -0.043175463 -0.039046694 -0.063694917 -0.039591499 -0.063724138 0.0034710402 0.065846577
16320000000 -0.29878041 -0.040981635 -0.049747773 -0.053938914 -0.050463557 -0.053666327 0.007040916 0.068941347
16330000000 -0.31061614 -0.03848353 -0.058478206 -0.043745335 -0.05887235 -0.043249775 0.0064475816 0.072942577
16340000000 -0.32015759 -0.033304527 -0.067037165 -0.031700909 -0.067276321 -0.031457715 0.0021915101 0.07041005
16350000000 -0.33066294 -0.025732122 -0.071485318 -0.016638044 -0.071775883 -0.016344499 -0.0010636784 0.066721871
16360000000 -0.33809465 -0.014848433 -0.073798202 -0.0024731755 -0.073955104 -0.0019899383 -0.0019813981 0.061281919
16370000000 -0.34546214 -0.00059474073 -0.073309481 0.012840377 -0.073311836 0.013245558 -0.0044013062 0.060715444
16380000000 -0.3490372 0.014891602 -0.069092251 0.028433442 -0.06910082 0.028809149 -0.0040148813 0.066231579
16390000000 -0.35143712 0.029521905 -0.060930107 0.04074499 -0.060856551 0.041383252 -0.0091576315 0.06997212
16400000000 -0.35274348 0.042073309 -0.051415157 0.052161224 -0.050954342 0.052726168 -0.015988605 0.073445864
16410000000 -0.35439008 0.052102163 -0.039101977 0.061038233 -0.038515076 0.061450299 -0.01586258 0.075303242
16420000000 -0.35596126 0.058059201 -0.026156358 0.066922799 -0.025702424 0.067181714 -0.012453996 0.070737861
16430000000 -0.35714328 0.061509877 -0.012995898 0.071253836 -0.012580261 0.071712777 -0.011805193 0.072331518
16440000000 -0.35892424 0.062129442 0.0022377921 0.073115565 0.0031862669 0.073346473 -0.0078630745 0.075989306
16450000000 -0.36121106 0.060136959 0.017503247 0.071002394 0.01827771 0.070865035 -0.012404166 0.075581394
16460000000 -0.36629105 0.058362007 0.03164842 0.065644011 0.032570288 0.065356113 -0.019015705 0.076997451
16470000000 -0.37248337 0.056886479 0.045086116 0.057396706 0.045869831 0.056839008 -0.017997067 0.07509461
16480000000 -0.38207012 0.058932036 0.055700075 0.046191897 0.056197681 0.045473225 -0.017288368 0.072761312
16490000000 -0.39393765 0.065024033 0.063309319 0.033272766 0.06348493 0.032629099 -0.012420433 0.076149322
16500000000 -0.40636656 0.076099932 0.068402149 0.020027485 0.068591647 0.019436194 -0.010406025 0.082847737
16510000000 -0.41990209 0.089960188 0.06969808 0.0051777204 0.069964342 0.0046785483 -0.010890008 0.087904073
16520000000 -0.43113992 0.10674061 0.068697274 -0.007992249 0.069014832 -0.0086598573 -0.015296344 0.085911781
16530000000 -0.44334313 0.12506101 0.06614247 -0.021147011 0.066122495 -0.021968275 -0.016779117 0.082765058
16540000000 -0.45040745 0.14426436 0.060616728 -0.035295401 0.060595114 -0.036274519 -0.014093447 0.077466205
16550000000 -0.45367932 0.16229774 0.051460296 -0.04602455 0.051185425 -0.047077373 -0.013056561 0.078065649
16560000000 -0.452856 0.17587334 0.04212888 -0.055782605 0.041198663 -0.056729876 -0.012314746 0.083490357
16570000000 -0.4517293 0.18844205 0.029319458 -0.064216778 0.028327376 -0.064639121 -0.016840354 0.092097655
16580000000 -0.4468281 0.19897252 0.014662512 -0.06832052 0.013816991 -0.068585716 -0.020639392 0.09413363
16590000000 -0.44208091 0.20896962 0.00045339018 -0.069639899 -0.00042367354 -0.069862433 -0.022427596 0.093995772
16600000000 -0.43508127 0.21709269 -0.014328357 -0.069042899 -0.01542123 -0.069259346 -0.015608396 0.093815878
16610000000 -0.431072 0.22388068 -0.029828317 -0.063592903 -0.031098558 -0.063475862 -0.0055207908 0.09297955
16620000000 -0.43005282 0.2300314 -0.041152574 -0.055005819 -0.042500813 -0.054204356 0.00055414438 0.09518075
16630000000 -0.43185404 0.23683184 -0.052233495 -0.046104476 -0.053029165 -0.045003675 0.0042258017 0.098621145
16640000000 -0.43902609 0.24123174 -0.061090961 -0.032292277 -0.061558608 -0.031065535 0.0021149144 0.095600761
16650000000 -0.45015991 0.25069323 -0.064224273 -0.017689038 -0.064541019 -0.016692597 -0.00076672767 0.09153945
16660000000 -0.46124834 0.25862366 -0.0659943 -0.0045770137 -0.066164427 -0.0035654632 0.00020501576 0.086252473
16670000000 -0.47513306 0.26947069 -0.064960487 0.010487939 -0.064991772 0.01162553 0.0019535404 0.084886588
16680000000 -0.48925903 0.28300303 -0.058796745 0.02292387 -0.058679421 0.024089463 0.0053971782 0.085950121
16690000000 -0.49869946 0.30247113 -0.052927431 0.033167582 -0.05217994 0.034379043 0.0051659346 0.087061077
16700000000 -0.50453031 0.32224095 -0.044182867 0.043047786 -0.043180883 0.044154271 0.0029488429 0.086868607
16710000000 -0.50456434 0.34683213 -0.033819888 0.049826823 -0.032688741 0.050305415 0.0015585031 0.084676705
16720000000 -0.50203592 0.36842698 -0.023719925 0.054852128 -0.02258716 0.054999709 0.00066849589 0.078373291
16730000000 -0.49638426 0.39341393 -0.011858588 0.058869042 -0.010925338 0.059077092 -0.0020664819 0.07552886
16740000000 -0.48862422 0.41570303 0.00085196085 0.059644662 0.0018292274 0.059722766 -0.0038638357 0.075835347
16750000000 -0.47929925 0.43614849 0.012791239 0.057660669 0.013949515 0.057660811 -0.0064101517 0.074951038
16760000000 -0.47289959 0.45286757 0.024381781 0.053463638 0.025719402 0.053297773 -0.011825165 0.077486515
16770000000 -0.46544674 0.46838197 0.034691088 0.04719986 0.036359731 0.046355262 -0.0088265352 0.080420524
16780000000 -0.46168697 0.48042637 0.043809999 0.038070593 0.044864785 0.036739029 -0.0050014183 0.082171492
16790000000 -0.45816523 0.49191073 0.050536685 0.028142918 0.051233031 0.026727011 -0.0011424925 0.08580146
16800000000 -0.45678258 0.50271595 0.055418286 0.015905512 0.055485513 0.014458039 0.0025939373 0.086718112
16810000000 -0.45512632 0.51632655 0.05616384 0.0028919652 0.055908885 0.001760114 0.0042164922 0.081860602
16820000000 -0.45200205 0.53356707 0.054080226 -0.0087769534 0.054074295 -0.0097968504 0.001720544 0.071654618
16830000000 -0.44600305 0.55209088 0.049935803 -0.020165151 0.049819566 -0.021634122 0.00037690625 0.064925566
16840000000 -0.44081587 0.57384217 0.042948756 -0.029546201 0.042503908 -0.03108735 0.0010651704 0.057973817
16850000000 -0.43171668 0.5976755 0.03510819 -0.037024423 0.033889577 -0.038382944 -0.0033047553 0.058077607
16860000000 -0.42196769 0.62179214 0.025803713 -0.042407237 0.024420019 -0.043308504 -0.0093151378 0.068273909
16870000000 -0.41103098 0.64509898 0.016017221 -0.045446452 0.014632825 -0.045869969 -0.011738449 0.071588226
16880000000 -0.40004528 0.66751152 0.0064802226 -0.046208907 0.005076739 -0.046394173 -0.021429006 0.070731223
16890000000 -0.38791108 0.68819547 -0.0026647728 -0.045789532 -0.0040885918 -0.045712158 -0.021012409 0.070555508
16900000000 -0.37429297 0.70649052 -0.012092022 -0.043518171 -0.013402214 -0.043146543 -0.015998892 0.065093607
16910000000 -0.35987434 0.72170115 -0.020240221 -0.039085638 -0.021424217 -0.038536228 -0.017609188 0.06487979
16920000000 -0.3441641 0.73587638 -0.026903003 -0.03379865 -0.028029565 -0.032998767 -0.019433808 0.072340302
16930000000 -0.32673803 0.74946314 -0.033288244 -0.027033878 -0.034036782 -0.026027026 -0.024077863 0.076340146
16940000000 -0.30693993 0.76287341 -0.037080403 -0.018610284 -0.037516959 -0.017615613 -0.034532394 0.077700891
16950000000 -0.2870394 0.7756111 -0.039395634 -0.010545054 -0.039730664 -0.0095612621 -0.034952406 0.083913453
16960000000 -0.26726148 0.7894721 -0.040343933 -0.0011903923 -0.040607907 -0.00016587786 -0.027619557 0.080765694
16970000000 -0.24808484 0.80446881 -0.038063366 0.0078942301 -0.038020995 0.0090942373 -0.021592706 0.083367281
16980000000 -0.2287773 0.82010835 -0.034288369 0.014735972 -0.033835754 0.015867783 -0.01328928 0.086974949
16990000000 -0.21041562 0.83551717 -0.029533591 0.021272443 -0.028880525 0.022198886 -0.010978201 0.085317686
17000000000 -0.19274984 0.85084927 -0.023176312 0.026338823 -0.0222972 0.026827322 -0.017594505 0.080733731
