!Keysight Technologies,P9374A,MY57211807,A.19.30.04
!Date: Friday, May 01, 2026 14:49:08
!Correction: S11(C  2-Port  ) 
!S21(C  2-Port  ) 
!S12(C  2-Port  ) 
!S22(C  2-Port  ) 
!S2P File: Measurements: S11, S21, S12, S22:
# Hz S  RI   R 50
13000000000 -0.050386921 0.077817842 -0.0223192 0.053175081 -0.022584829 0.053051855 -0.013762631 0.16505718
13010000000 -0.05078667 0.11931956 -0.0087669604 0.054719329 -0.0095118154 0.054423518 -0.019833177 0.16122977
13020000000 -0.037288792 0.15275526 0.00042380765 0.053844862 -9.7136945e-05 0.054057539 -0.024331667 0.16134995
13030000000 -0.011417799 0.17891687 0.010778656 0.052953042 0.010230049 0.053619042 -0.023772385 0.16545425
13040000000 0.019808888 0.19130749 0.021482304 0.050281897 0.021207595 0.050905429 -0.026173905 0.16577925
13050000000 0.055808239 0.19199927 0.031207517 0.043777414 0.031172568 0.044153396 -0.024108291 0.17611082
13060000000 0.087183252 0.17947783 0.038346469 0.037106704 0.038297169 0.037427522 -0.015132122 0.17702186
13070000000 0.11749765 0.15768668 0.044744939 0.029767778 0.044799164 0.029818464 -0.011423159 0.17106907
13080000000 0.13420361 0.12644686 0.051160872 0.020003295 0.050952781 0.020311644 -0.0082068816 0.16189307
13090000000 0.14530078 0.092921436 0.054281741 0.0083017666 0.053797074 0.0089314282 -0.011608414 0.1558568
13100000000 0.13823785 0.056841794 0.053651407 -0.0025033318 0.053853001 -0.0017329156 -0.01984169 0.16182639
13110000000 0.11974405 0.025773775 0.052548941 -0.012102722 0.052893125 -0.011461615 -0.012768451 0.17062683
13120000000 0.089365326 0.0040177461 0.051063929 -0.022874018 0.051469058 -0.022428917 -0.017429346 0.17085955
13130000000 0.052678555 -0.004441068 0.04535586 -0.035633504 0.045916431 -0.035470754 -0.016952354 0.179998
13140000000 0.014057528 0.0015047169 0.035393633 -0.043451875 0.035759106 -0.042988196 -0.0088837594 0.17550047
13150000000 -0.016040916 0.02251655 0.025735691 -0.05068361 0.026399367 -0.050443921 -0.0049666613 0.17344746
13160000000 -0.036094639 0.048917122 0.014602592 -0.05524189 0.015378309 -0.054919288 0.0020104796 0.1709775
13170000000 -0.046562798 0.082989521 0.0014363248 -0.055857718 0.0024453141 -0.055823892 0.0042675734 0.16521235
13180000000 -0.04147505 0.11751746 -0.009392486 -0.05404181 -0.0085231345 -0.054780334 0.0025881305 0.16715582
13190000000 -0.022748487 0.14999405 -0.019538416 -0.050695222 -0.019081395 -0.05134761 0.0047494089 0.16325386
13200000000 0.0069942959 0.17374836 -0.030590504 -0.046233136 -0.030032687 -0.046723515 -0.0033773743 0.16345032
13210000000 0.042181455 0.18583773 -0.03836783 -0.037491329 -0.038079377 -0.038116042 -0.00084999204 0.16873945
13220000000 0.079784103 0.18464836 -0.043407489 -0.029909221 -0.043147504 -0.030399278 0.0056606308 0.17204389
13230000000 0.11397311 0.17230015 -0.0495243 -0.021454658 -0.049203038 -0.02245659 0.015923701 0.17479649
13240000000 0.14378853 0.14789769 -0.053528596 -0.010037513 -0.053558551 -0.011067945 0.02114008 0.17118722
13250000000 0.16117151 0.11239787 -0.054061148 0.0014016628 -0.054383848 0.00055548642 0.025670236 0.17013234
13260000000 0.16493323 0.071811765 -0.052238561 0.012911986 -0.052482117 0.012173604 0.026949655 0.16776501
13270000000 0.15184702 0.033139929 -0.048127305 0.022061918 -0.048645981 0.021341566 0.022875428 0.16598311
13280000000 0.12666166 0.0025997199 -0.042758949 0.031134803 -0.043300264 0.030440301 0.021551229 0.16705947
13290000000 0.09574239 -0.016122598 -0.035910729 0.038933035 -0.03660639 0.038041618 0.023477376 0.16669604
13300000000 0.060443621 -0.023855649 -0.02837882 0.044993058 -0.029278453 0.04429749 0.0258094 0.16065672
13310000000 0.025868654 -0.014637997 -0.019215332 0.051553193 -0.020546298 0.051268701 0.032759555 0.16099134
13320000000 -0.0018976561 0.0061273654 -0.0072621363 0.054641504 -0.0085882293 0.054869603 0.045395821 0.16129291
13330000000 -0.017809182 0.039908487 0.0043985979 0.055372573 0.0035471478 0.055685066 0.050813507 0.16224036
13340000000 -0.019394636 0.073464401 0.016601248 0.052726861 0.015639564 0.05309948 0.053209297 0.16183734
13350000000 -0.010320269 0.10687569 0.02735563 0.047075938 0.026462771 0.04784267 0.051040728 0.15583628
13360000000 0.011095505 0.13302515 0.035651572 0.039926115 0.035329983 0.040607858 0.043552753 0.15147804
13370000000 0.039596081 0.15012941 0.041151945 0.031628363 0.040577408 0.032520991 0.049723629 0.14425284
13380000000 0.072994702 0.15433231 0.046230055 0.024901077 0.046000756 0.025975779 0.051575996 0.12948832
13390000000 0.1054 0.1474455 0.051905513 0.015762772 0.051835105 0.016637258 0.05081661 0.13394691
13400000000 0.13648036 0.12885422 0.054906111 0.0038726795 0.054663673 0.0048349285 0.056870602 0.14627078
13410000000 0.16144946 0.098615661 0.054157406 -0.0071513206 0.054525003 -0.0062830988 0.064532615 0.14721753
13420000000 0.17520896 0.059871502 0.05268088 -0.018734021 0.05312112 -0.017722495 0.062061336 0.14017121
13430000000 0.17503969 0.018792056 0.047459744 -0.03108323 0.048226766 -0.030205537 0.058541171 0.13228306
13440000000 0.16041204 -0.018816061 0.038355388 -0.038995825 0.039121769 -0.038496122 0.06161011 0.12342204
13450000000 0.13239253 -0.047320597 0.030110516 -0.045134284 0.030949116 -0.044618212 0.071066409 0.11427087
13460000000 0.097042613 -0.064908184 0.021360151 -0.050546322 0.02238524 -0.050530735 0.067438141 0.11020363
13470000000 0.058064077 -0.067473002 0.01003156 -0.054229967 0.011018862 -0.054238286 0.064542145 0.11929668
13480000000 0.020169498 -0.056653813 -0.001162868 -0.055149782 -0.00022926927 -0.055214088 0.061560988 0.11959808
13490000000 -0.010223898 -0.033088222 -0.013380339 -0.053931013 -0.012302393 -0.054179452 0.059633203 0.12218633
13500000000 -0.028616816 -0.0018994939 -0.023475071 -0.050016176 -0.022633327 -0.050777342 0.065280281 0.11132076
13510000000 -0.032689933 0.030955199 -0.033808623 -0.04378878 -0.033382427 -0.044446576 0.062523648 0.10057597
13520000000 -0.023441836 0.064569212 -0.041839421 -0.034637827 -0.041272789 -0.035532244 0.067155115 0.1060438
13530000000 -0.0020388225 0.088302605 -0.045717698 -0.025654931 -0.045622073 -0.026348099 0.076012105 0.10400726
13540000000 0.029213605 0.10250981 -0.050309774 -0.017831093 -0.049911391 -0.018578656 0.067842543 0.094920605
13550000000 0.058117975 0.10502905 -0.055198215 -0.0069453139 -0.055210985 -0.0080043487 0.05618817 0.097980417
13560000000 0.089840993 0.10016114 -0.05455827 0.0064347293 -0.054855481 0.0056638829 0.053605787 0.096823886
13570000000 0.11593721 0.08318352 -0.050846409 0.01562354 -0.0511669 0.015063858 0.058786832 0.09618137
13580000000 0.13493876 0.059697118 -0.04827524 0.024772085 -0.048565626 0.024149353 0.064035431 0.087956049
13590000000 0.14370023 0.025570879 -0.043011181 0.035542589 -0.043437112 0.034907758 0.059717149 0.088365912
13600000000 0.13683617 -0.008888755 -0.033840999 0.043314762 -0.03473404 0.042947721 0.060001992 0.093839899
13610000000 0.1178138 -0.040713448 -0.024829842 0.049379453 -0.02544857 0.049137041 0.06244003 0.091769427
13620000000 0.088755004 -0.061996296 -0.015094332 0.053481698 -0.015640806 0.053366233 0.060474966 0.085229963
13630000000 0.054289337 -0.07520365 -0.0039328206 0.057520702 -0.0048011281 0.057405494 0.057255872 0.079117298
13640000000 0.019264445 -0.072452009 0.00978126 0.056763731 0.0087694377 0.056947835 0.051109966 0.079975769
13650000000 -0.011703503 -0.060044371 0.022021962 0.052383944 0.021300424 0.052962575 0.054220609 0.087273844
13660000000 -0.031617533 -0.031927962 0.030891055 0.046230998 0.030336386 0.04673136 0.056291908 0.082704
13670000000 -0.040750228 -0.0044761784 0.039653704 0.040340148 0.039246697 0.041035894 0.048880193 0.081093065
13680000000 -0.038687259 0.031084675 0.048807953 0.030400887 0.048576549 0.03128998 0.05146496 0.083663933
13690000000 -0.024511434 0.05895495 0.052354231 0.018702772 0.052443132 0.019349428 0.058497462 0.083407275
13700000000 1.1980534e-05 0.08181192 0.054733213 0.0092600212 0.054655135 0.0099232309 0.056925416 0.077010281
13710000000 0.024532825 0.092127748 0.056818265 -0.003966732 0.056994013 -0.0030412078 0.053829085 0.08193846
13720000000 0.054387242 0.092265703 0.054003648 -0.01533938 0.054444082 -0.014727863 0.053521372 0.082460478
13730000000 0.077554397 0.079449341 0.049443625 -0.026209848 0.049807604 -0.025742818 0.051601741 0.08071176
13740000000 0.097828075 0.058779109 0.041581035 -0.035194315 0.042027917 -0.034586988 0.053175919 0.078713119
13750000000 0.10486533 0.029919468 0.034175292 -0.041922186 0.03492707 -0.041483633 0.058202945 0.078097597
13760000000 0.10547462 0.0014120862 0.025456337 -0.046883877 0.02610839 -0.046875406 0.057148479 0.078458406
13770000000 0.095464855 -0.027519803 0.016318632 -0.051687509 0.016786028 -0.051436767 0.057964869 0.085990019
13780000000 0.077218331 -0.047405042 0.0059438189 -0.054529246 0.0069173379 -0.054402445 0.061207198 0.084970988
13790000000 0.05217237 -0.058016196 -0.0058515565 -0.055245321 -0.0051775887 -0.055692378 0.060476318 0.081360213
13800000000 0.028892778 -0.058088362 -0.017797844 -0.053367879 -0.017224319 -0.053555287 0.060865469 0.07424546
13810000000 0.0026412467 -0.048996665 -0.028714618 -0.047411993 -0.027981795 -0.047681987 0.064858191 0.071552865
13820000000 -0.01560987 -0.029485248 -0.037183404 -0.040368304 -0.036427747 -0.040886819 0.070369907 0.070209265
13830000000 -0.029334575 -0.0027427413 -0.043380141 -0.031590521 -0.043160688 -0.032168109 0.071257807 0.069955952
13840000000 -0.028431471 0.025599614 -0.049284115 -0.022976188 -0.048858214 -0.023685534 0.068083525 0.06826283
13850000000 -0.018421989 0.049575087 -0.05294523 -0.013560103 -0.052803922 -0.014255458 0.063329421 0.066696733
13860000000 0.0019396604 0.066698499 -0.056449078 -0.0014467221 -0.056372698 -0.0024939198 0.063928038 0.066232048
13870000000 0.027295846 0.073295012 -0.05453923 0.010815385 -0.054907002 0.0099684615 0.072418645 0.061935998
13880000000 0.056201808 0.068836413 -0.051391251 0.020854723 -0.05193986 0.020166954 0.07519681 0.056727052
13890000000 0.080928043 0.054477863 -0.046026915 0.031558145 -0.046610802 0.03086804 0.07623288 0.057960279
13900000000 0.10184946 0.031034522 -0.037908074 0.040171303 -0.038617127 0.039681476 0.076997541 0.056162491
13910000000 0.11256535 0.0064309388 -0.02870705 0.046776503 -0.029713169 0.046437182 0.07484521 0.053482547
13920000000 0.11522804 -0.024111692 -0.018503448 0.051707245 -0.019235903 0.051753543 0.073906548 0.047434106
13930000000 0.10483733 -0.051051311 -0.0082051121 0.053484157 -0.0090255952 0.053483196 0.074819602 0.041803978
13940000000 0.084192872 -0.075724036 0.0025501684 0.055358764 0.0016022893 0.055682614 0.074180603 0.043604568
13950000000 0.055000305 -0.092010528 0.015179162 0.053352498 0.014419453 0.053619206 0.081518844 0.047065608
13960000000 0.018808533 -0.096549518 0.025502805 0.047575656 0.024720885 0.047949005 0.083442889 0.039813869
13970000000 -0.014955822 -0.088714756 0.032659154 0.041330535 0.032027386 0.042073071 0.074990571 0.038488872
13980000000 -0.041889459 -0.074479431 0.040934768 0.035326153 0.040343203 0.036176596 0.075802661 0.0378794
13990000000 -0.061418325 -0.051603694 0.047605075 0.0260171 0.047353156 0.026828531 0.078721851 0.02908971
14000000000 -0.071382083 -0.024764668 0.051484387 0.016086923 0.051505707 0.016926408 0.073482335 0.024173195
14010000000 -0.065233231 0.0076568816 0.054574307 0.0050602541 0.054488469 0.0059521399 0.071350291 0.024347246
14020000000 -0.04671222 0.032972507 0.054466672 -0.0065436931 0.054631848 -0.0057073683 0.067048423 0.0224986
14030000000 -0.018826295 0.050630186 0.051439699 -0.017916212 0.051730014 -0.01700576 0.065609612 0.021831576
14040000000 0.011913642 0.058946688 0.04625481 -0.027995076 0.046789534 -0.02709762 0.06700284 0.01728995
14050000000 0.044666387 0.056963868 0.039017603 -0.034961283 0.039748173 -0.034142189 0.065180533 0.011497106
14060000000 0.072329313 0.041356631 0.033436134 -0.041951716 0.034364685 -0.041348938 0.059976127 0.010186706
14070000000 0.090656944 0.017660053 0.02373193 -0.049470432 0.024742961 -0.049203437 0.057929408 0.01404045
14080000000 0.098231733 -0.01430428 0.012169871 -0.053307354 0.013112715 -0.05304268 0.057708558 0.0082988497
14090000000 0.092420228 -0.04840659 0.0019970741 -0.053520635 0.0030260161 -0.053512655 0.049140446 -0.00013216957
14100000000 0.07447008 -0.081743553 -0.0087250303 -0.054617874 -0.0075857081 -0.054793458 0.043294601 -0.0013289303
14110000000 0.046786632 -0.10932265 -0.021205109 -0.051113069 -0.02014235 -0.051673297 0.047086027 0.00059906021
14120000000 0.010439653 -0.12807858 -0.031169541 -0.044833548 -0.030172216 -0.045736339 0.051883511 -0.001272846
14130000000 -0.026952971 -0.13269356 -0.038199186 -0.036882311 -0.037700091 -0.037908606 0.04544647 -0.0011228016
14140000000 -0.06461902 -0.12582728 -0.044783171 -0.029173151 -0.044386379 -0.030134555 0.040643033 0.0044821547
14150000000 -0.096280761 -0.10233916 -0.049388777 -0.020249382 -0.049132381 -0.021191183 0.037670676 -0.0012685116
14160000000 -0.11931744 -0.072187521 -0.053551819 -0.010516649 -0.053553507 -0.011614567 0.034484729 -0.0032653017
14170000000 -0.13005425 -0.030651059 -0.05466748 0.0010175854 -0.054745734 0.00015279464 0.039669015 -0.0069486629
14180000000 -0.12696771 0.011156965 -0.053923968 0.012732249 -0.054113556 0.011632413 0.036139183 -0.0069676479
14190000000 -0.10976052 0.050124526 -0.049532153 0.023209577 -0.049912356 0.022288118 0.035429925 0.0023259465
14200000000 -0.082106948 0.07761842 -0.043672599 0.033501908 -0.044536602 0.032637347 0.030844035 0.0050270762
14210000000 -0.046897419 0.090393707 -0.035619944 0.041418634 -0.036543302 0.040780582 0.025083335 0.0035495125
14220000000 -0.012708179 0.087423779 -0.025524626 0.047677994 -0.026544603 0.047261022 0.016498107 -0.0029873957
14230000000 0.019438773 0.072274052 -0.016812548 0.051143453 -0.017729772 0.051215515 0.014825116 -0.0013628672
14240000000 0.041889463 0.045385748 -0.0052940268 0.054621182 -0.0062727034 0.054478221 0.021326255 -0.00063977484
14250000000 0.058077142 0.015075112 0.0065593012 0.053654358 0.0056602657 0.053755008 0.023040023 -0.00050592702
14260000000 0.060320597 -0.019578001 0.015555974 0.050309971 0.014733184 0.050831601 0.019919012 0.0037629497
14270000000 0.053468402 -0.05083067 0.025902702 0.047546342 0.025111189 0.04837437 0.015913617 0.0065163835
14280000000 0.035162531 -0.07725317 0.035351999 0.040578499 0.034920603 0.041218847 0.013311884 0.0031749757
14290000000 0.0066180751 -0.094919831 0.041614991 0.03284454 0.041167881 0.0334506 0.014070964 -0.00019493817
14300000000 -0.028257942 -0.1005241 0.048181769 0.02464436 0.047814839 0.025358822 0.014540778 -0.0042757997
14310000000 -0.063107654 -0.093469866 0.052260805 0.014253398 0.052136537 0.015080344 0.012370851 0.0024136277
14320000000 -0.096095428 -0.075944401 0.054791965 0.0031712744 0.054581005 0.0040287487 0.015381911 0.0086706234
14330000000 -0.11948802 -0.048345365 0.053478248 -0.0083740447 0.053730488 -0.0074279867 0.016514504 0.0096044075
14340000000 -0.1325641 -0.017214056 0.050839204 -0.018807748 0.051187702 -0.017783282 0.013177269 0.0055302214
14350000000 -0.13256824 0.016000887 0.04644582 -0.027981807 0.046917394 -0.027291963 0.0071460078 0.004467689
14360000000 -0.12031029 0.046663366 0.0400576 -0.037830971 0.040836655 -0.037193712 0.0088221245 0.0083189569
14370000000 -0.094610728 0.070745617 0.031312238 -0.045304239 0.032148611 -0.044722673 0.014990941 0.0082725883
14380000000 -0.063426167 0.082592562 0.021214854 -0.050274067 0.022046719 -0.049889952 0.010785812 0.0035890462
14390000000 -0.029849805 0.085939333 0.011690721 -0.05462572 0.012626108 -0.054416358 0.0057866331 0.0090663629
14400000000 0.00096292794 0.076666355 -0.0014739707 -0.056816295 -0.00025507435 -0.056867562 0.0080604171 0.0096178111
14410000000 0.026809877 0.05994413 -0.013788024 -0.053758003 -0.012754401 -0.05430831 0.012171542 0.0069370829
14420000000 0.039890878 0.033745024 -0.023031808 -0.04913117 -0.022365581 -0.049801216 0.008945358 0.0044130683
14430000000 0.041874606 0.0079011125 -0.03281866 -0.044026636 -0.0323052 -0.044628792 0.011327608 0.0098322555
14440000000 0.032521591 -0.018955534 -0.040800538 -0.036137 -0.040329725 -0.036826715 0.012692311 0.0090516945
14450000000 0.015290225 -0.040848538 -0.047749914 -0.02731384 -0.047545493 -0.02799752 0.012589263 0.0061083836
14460000000 -0.0091674756 -0.0572979 -0.052312791 -0.016457681 -0.052389704 -0.017202964 0.012569323 -0.0013240315
14470000000 -0.035628527 -0.064599872 -0.053897869 -0.0052264873 -0.053903811 -0.0059217308 0.0079231216 -0.0038492957
14480000000 -0.062266834 -0.062555842 -0.053348854 0.0058303066 -0.053546287 0.0052607749 0.008762069 -0.00078786048
14490000000 -0.082741641 -0.051876523 -0.050650246 0.015420754 -0.050965827 0.01486546 0.011468502 0.0038518049
14500000000 -0.096034475 -0.033914223 -0.046802036 0.025479103 -0.047121953 0.025094803 0.0090129934 0.0008554146
14510000000 -0.10444063 -0.010898355 -0.040905096 0.034003139 -0.041236747 0.033765435 0.0031825658 0.0014236127
14520000000 -0.10119557 0.01558817 -0.033393446 0.041996896 -0.033873342 0.041689783 0.0049044169 -0.0016835714
14530000000 -0.088816836 0.040747561 -0.024124231 0.048293784 -0.024622912 0.048056539 0.0064445948 -0.011528092
14540000000 -0.06766127 0.057770334 -0.013274956 0.05091659 -0.013780098 0.050855577 0.0023017256 -0.013355982
14550000000 -0.044435531 0.064121693 -0.004634155 0.052531105 -0.0053367019 0.052488565 0.0017782905 -0.006665302
14560000000 -0.022740567 0.058076642 0.0060009463 0.054764271 0.0053777806 0.054906107 -0.000225147 -0.0050980826
14570000000 -0.0079652648 0.042146303 0.01934688 0.052339233 0.018856877 0.05268323 -0.0067339847 -0.0052247182
14580000000 0.00026332727 0.021023303 0.029691096 0.046275295 0.029263817 0.046675906 -0.011176267 -0.0088318205
14590000000 -0.00148773 -0.0040060841 0.03885401 0.039061431 0.038393226 0.039474592 -0.014519458 -0.012361869
14600000000 -0.0096476004 -0.025684902 0.045729455 0.029213123 0.045408942 0.03001187 -0.012648419 -0.011978083
14610000000 -0.025059706 -0.04491397 0.049280383 0.01875551 0.04922979 0.019454885 -0.0097335856 -0.010035128
14620000000 -0.045649026 -0.055825833 0.051434189 0.010232897 0.051565833 0.010872046 -0.011483901 -0.0055727637
14630000000 -0.072258942 -0.055633523 0.0538873 -0.00078385044 0.053983346 -0.00011545233 -0.011645556 -0.0041378452
14640000000 -0.09338247 -0.043830123 0.052115191 -0.012788264 0.05241403 -0.012188095 -0.018270288 -0.010806923
14650000000 -0.11268905 -0.024807543 0.047539987 -0.022884604 0.04800722 -0.022508983 -0.024575444 -0.014944228
14660000000 -0.12192234 -0.00065318495 0.041638024 -0.031781819 0.042293258 -0.031325638 -0.028867813 -0.017330345
14670000000 -0.13075219 0.024614427 0.034336876 -0.038429651 0.034879901 -0.038125269 -0.03222622 -0.01147199
14680000000 -0.1249902 0.052254532 0.026125725 -0.045040127 0.026743602 -0.04488603 -0.029386705 -0.0040427679
14690000000 -0.11466245 0.074629456 0.016189225 -0.048902296 0.016859122 -0.048888247 -0.029715143 -0.0050202608
14700000000 -0.091200925 0.090458229 0.0063547189 -0.05039693 0.0067013921 -0.050511826 -0.035465799 -0.0066468278
14710000000 -0.064914048 0.093577616 -0.0031865349 -0.050593998 -0.0026208947 -0.05070588 -0.037731808 -0.0078563131
14720000000 -0.036536485 0.084253401 -0.013433496 -0.049231287 -0.01294812 -0.049492374 -0.040962569 -0.011736095
14730000000 -0.016432445 0.067756265 -0.022276189 -0.045072544 -0.021697681 -0.045335576 -0.046856355 -0.0067697894
14740000000 0.00049569458 0.043843642 -0.029833792 -0.04112412 -0.029543191 -0.041477088 -0.049086399 -0.00052402355
14750000000 0.0037729498 0.01752324 -0.039694555 -0.03593098 -0.0393431 -0.036295254 -0.050235949 0.0060853399
14760000000 -0.00070195156 -0.0082347002 -0.04738684 -0.025115421 -0.047016032 -0.025718313 -0.051071443 0.0048622955
14770000000 -0.02189791 -0.02900115 -0.050686911 -0.014141195 -0.050407775 -0.015020519 -0.056746334 0.0055419765
14780000000 -0.047579195 -0.040486503 -0.052466862 -0.0038104651 -0.052602187 -0.004456582 -0.054887619 0.013485566
14790000000 -0.082138188 -0.040666074 -0.050887134 0.0078673791 -0.051260237 0.0072537316 -0.050713744 0.013170063
14800000000 -0.11362546 -0.031187832 -0.046680462 0.016763534 -0.046934381 0.016247384 -0.058626901 0.017269852
14810000000 -0.14260818 -0.010460488 -0.043817364 0.024003906 -0.044236779 0.023414921 -0.057397023 0.024925042
14820000000 -0.16256255 0.016299248 -0.039600331 0.03402558 -0.04018927 0.033652849 -0.056882929 0.019498046
14830000000 -0.17308633 0.050361373 -0.030229056 0.042028513 -0.031054653 0.041842349 -0.061947845 0.016241068
14840000000 -0.16869707 0.08499597 -0.020884637 0.045926329 -0.02151176 0.045787625 -0.062838249 0.021885559
14850000000 -0.15014556 0.11803047 -0.012407254 0.049540885 -0.012801555 0.049536519 -0.058105089 0.028887808
14860000000 -0.12069616 0.1422825 -0.0010922495 0.05104097 -0.0018201023 0.051095843 -0.058517817 0.035932396
14870000000 -0.086017445 0.16101474 0.0090108356 0.04911799 0.0082127191 0.049274076 -0.057222337 0.044070318
14880000000 -0.043846142 0.16693845 0.017916862 0.046500839 0.017132651 0.047040328 -0.055442095 0.040760472
14890000000 -0.0050126389 0.16208078 0.027236953 0.041890938 0.02664212 0.042505577 -0.057018362 0.036382988
14900000000 0.033471961 0.14438635 0.034409344 0.035633609 0.03389838 0.036375832 -0.055062123 0.036311366
14910000000 0.058285039 0.11131233 0.040339477 0.028913956 0.040084764 0.029721918 -0.050682817 0.040168233
14920000000 0.067234248 0.071994774 0.045958154 0.020392144 0.045811914 0.021160269 -0.050109997 0.045006365
14930000000 0.060086589 0.030620828 0.049369961 0.010910253 0.049128756 0.01169297 -0.054697201 0.05303821
14940000000 0.036934525 -0.0059645437 0.051043589 0.00081506371 0.051014774 0.0017415006 -0.05148527 0.058348063
14950000000 0.0051217135 -0.033375826 0.050802745 -0.010587515 0.051118717 -0.0097668432 -0.052655127 0.04680552
14960000000 -0.034677844 -0.04861407 0.046567045 -0.02184576 0.046984755 -0.020907704 -0.057206713 0.049649984
14970000000 -0.074801058 -0.047108918 0.039992258 -0.028490709 0.040657822 -0.027811999 -0.045784317 0.054866042
14980000000 -0.1100619 -0.03202305 0.035824656 -0.036099914 0.036632031 -0.035760667 -0.037481435 0.056114785
14990000000 -0.13466448 -0.0026532877 0.026647979 -0.043800309 0.027332224 -0.043547742 -0.038499445 0.058457375
15000000000 -0.1481169 0.033815917 0.016089974 -0.046891522 0.01698434 -0.046644755 -0.040194791 0.060103651
15010000000 -0.14672577 0.075166449 0.0077787563 -0.048899855 0.00871717 -0.04880096 -0.04225393 0.054996543
15020000000 -0.13499118 0.11519437 -0.0021000989 -0.050403729 -0.0012520161 -0.050442219 -0.04606916 0.049232338
15030000000 -0.10848823 0.15144025 -0.012427159 -0.04853265 -0.011784157 -0.048708837 -0.042455994 0.051901251
15040000000 -0.070784174 0.17685071 -0.020530328 -0.04510285 -0.0199014 -0.04551132 -0.038255617 0.055424631
15050000000 -0.026091978 0.18154125 -0.029560972 -0.041367732 -0.028768566 -0.041793339 -0.033929944 0.065937668
15060000000 0.012290752 0.17361891 -0.037989043 -0.034493677 -0.037462205 -0.035370834 -0.030293316 0.065976344
15070000000 0.049720112 0.14786905 -0.045063034 -0.026169786 -0.044856358 -0.027023047 -0.032235503 0.059481554
15080000000 0.073227249 0.11329404 -0.05011981 -0.015303884 -0.04998561 -0.015979586 -0.035299957 0.04836769
15090000000 0.090287074 0.067519836 -0.050866269 -0.0045265425 -0.050840095 -0.0053152516 -0.039938346 0.044865366
15100000000 0.084695414 0.019386323 -0.050729953 0.0048920345 -0.050999671 0.004046822 -0.033610899 0.046957992
15110000000 0.066217095 -0.022533536 -0.049494855 0.015434548 -0.049876247 0.014765632 -0.032848708 0.047298875
15120000000 0.031961001 -0.050534029 -0.0444819 0.025587158 -0.044965152 0.024922738 -0.036377966 0.053398486
15130000000 -0.0049278904 -0.063418761 -0.038512498 0.032361321 -0.039081249 0.032055438 -0.03550972 0.059772976
15140000000 -0.043751918 -0.061308853 -0.03297504 0.040897943 -0.033616856 0.040383682 -0.03335477 0.053999178
15150000000 -0.079398163 -0.048288442 -0.022674393 0.04869033 -0.023526829 0.048544593 -0.035158712 0.046444744
15160000000 -0.11051627 -0.021386821 -0.010501072 0.050942115 -0.011280736 0.051163048 -0.038543459 0.048112527
15170000000 -0.1285806 0.011414096 -0.00079984032 0.051550198 -0.0011999402 0.051596861 -0.03526504 0.046415497
15180000000 -0.13658515 0.049391545 0.010753452 0.05066783 0.010132536 0.050826471 -0.041762054 0.046630479
15190000000 -0.12949964 0.082949921 0.020312315 0.045010999 0.019513875 0.045398079 -0.048423335 0.049026761
15200000000 -0.11373777 0.11288767 0.026881425 0.040655646 0.026505055 0.041050028 -0.054010607 0.052056108
15210000000 -0.086859174 0.13213894 0.034791894 0.035240181 0.034426671 0.035867807 -0.053231616 0.054909736
15220000000 -0.057560835 0.14422232 0.041322932 0.027596554 0.040970184 0.028250851 -0.053563803 0.055571206
15230000000 -0.02098114 0.14556763 0.046162143 0.019484691 0.046015892 0.020094883 -0.049784467 0.063467957
15240000000 0.014656954 0.13357696 0.05013185 0.0092931213 0.050043438 0.0099304346 -0.045953151 0.058294654
15250000000 0.044400983 0.10761727 0.05097026 -0.0017337035 0.051074453 -0.0011237245 -0.052835438 0.060735624
15260000000 0.059451431 0.073450305 0.048418649 -0.012919731 0.048853345 -0.012325555 -0.050079331 0.063124612
15270000000 0.058191996 0.036219861 0.044309318 -0.021184595 0.044514645 -0.020819008 -0.05156308 0.060169194
15280000000 0.041565828 0.0084735462 0.039279096 -0.030178074 0.039774075 -0.029779905 -0.058927365 0.067214206
15290000000 0.017525177 -0.014602311 0.031388123 -0.03647707 0.031919017 -0.03639688 -0.055694394 0.078548208
15300000000 -0.014055183 -0.023636688 0.024680369 -0.040844787 0.025047144 -0.040678762 -0.054401368 0.078074574
15310000000 -0.045700915 -0.025073288 0.016703581 -0.046756558 0.017148931 -0.046703476 -0.058251418 0.079092674
15320000000 -0.077924617 -0.011124965 0.0057763457 -0.049096797 0.0061665745 -0.049099505 -0.053868871 0.080147378
15330000000 -0.099198528 0.010879973 -0.004062816 -0.049085617 -0.0035794857 -0.04927012 -0.049592543 0.075922906
15340000000 -0.111124 0.041933045 -0.014857849 -0.047249276 -0.014556509 -0.047451075 -0.050880767 0.078618124
15350000000 -0.10835018 0.070403539 -0.024166165 -0.041620046 -0.023943717 -0.041801419 -0.049725071 0.087925225
15360000000 -0.096856393 0.099496193 -0.030032897 -0.035633288 -0.029850824 -0.035788555 -0.050302885 0.092251733
15370000000 -0.075512052 0.12122341 -0.036384784 -0.029670715 -0.036191806 -0.030027326 -0.052302442 0.093645528
15380000000 -0.047512829 0.13888782 -0.041775651 -0.022503659 -0.041816611 -0.022690477 -0.052398738 0.092082091
15390000000 -0.015259802 0.14289136 -0.04602477 -0.013568264 -0.046066478 -0.013806632 -0.048280608 0.091448605
15400000000 0.019583682 0.13926947 -0.048076116 -0.0032594667 -0.04825579 -0.0035707999 -0.044342976 0.092804536
15410000000 0.049223486 0.11938481 -0.046834618 0.0067651663 -0.047075413 0.0067145857 -0.042596631 0.10091376
15420000000 0.071165666 0.091610827 -0.043618288 0.015710671 -0.04364533 0.015659327 -0.035423473 0.10880855
15430000000 0.079181381 0.054458342 -0.039360218 0.023204893 -0.03958315 0.022973258 -0.036071029 0.10564663
15440000000 0.074256681 0.020106135 -0.034401454 0.030432759 -0.034539334 0.030262623 -0.03860113 0.10622615
15450000000 0.056665085 -0.012394246 -0.027318502 0.03625267 -0.027601883 0.036104586 -0.03110623 0.10213003
15460000000 0.030089222 -0.03307591 -0.020625617 0.040754005 -0.02093479 0.040726036 -0.028993413 0.09718655
15470000000 -0.0027798184 -0.044134703 -0.01196027 0.045137845 -0.012268902 0.045216236 -0.025650531 0.10481303
15480000000 -0.035856001 -0.039769318 -0.0024949787 0.045258269 -0.0027684234 0.045315538 -0.019043088 0.10978896
15490000000 -0.064322107 -0.021326689 0.0053865919 0.045689605 0.0052081021 0.045915797 -0.018778656 0.11375612
15500000000 -0.081248723 0.006648086 0.015431383 0.044350114 0.015392043 0.044431545 -0.014981594 0.11083449
15510000000 -0.085102461 0.038606621 0.024271525 0.039533753 0.023874313 0.039554343 -0.01587927 0.10678311
15520000000 -0.075979017 0.068693951 0.031573307 0.034231551 0.03134631 0.034538347 -0.010045938 0.10652136
15530000000 -0.059153836 0.091909856 0.038083691 0.026973473 0.038015485 0.02733501 -0.0053732116 0.1016344
15540000000 -0.033267319 0.10801909 0.042063218 0.018419331 0.042224627 0.01860738 -0.0095107984 0.10270164
15550000000 -0.003298521 0.11361302 0.044115033 0.00996817 0.044155177 0.010108127 -0.0071754195 0.10693693
15560000000 0.029475804 0.10845966 0.045471612 0.0020634606 0.045531213 0.0022210535 -0.0053951107 0.099861875
15570000000 0.059254959 0.09075132 0.045749679 -0.0066863559 0.045895986 -0.0067318976 -0.010833874 0.096856937
15580000000 0.083449431 0.062934443 0.043991648 -0.016821049 0.044053972 -0.016836993 -0.0045140386 0.10291832
15590000000 0.097808182 0.026815342 0.03944584 -0.025285795 0.039625518 -0.025293838 0.0015936531 0.09867616
15600000000 0.099194109 -0.012527404 0.03405834 -0.033445857 0.034060635 -0.033524536 -0.0029406268 0.10127595
15610000000 0.087125465 -0.050971042 0.024995809 -0.039441913 0.024907971 -0.039475791 0.0016719487 0.10362005
15620000000 0.062643275 -0.081903875 0.017005112 -0.041938413 0.017168157 -0.042028703 0.0032092351 0.094365828
15630000000 0.027450349 -0.10339133 0.0087716263 -0.046104353 0.0087345503 -0.04613021 0.001725886 0.088374995
15640000000 -0.012655322 -0.11193173 -0.0016087126 -0.046003029 -0.0015307665 -0.046058707 0.00039374828 0.086921506
15650000000 -0.056223813 -0.10390373 -0.0096377283 -0.044156052 -0.0097210407 -0.044251878 0.0017894134 0.09017121
15660000000 -0.090299547 -0.081380621 -0.018172236 -0.042148195 -0.018137645 -0.042270754 -0.00091121346 0.088413946
15670000000 -0.11444305 -0.049650889 -0.026754426 -0.037524037 -0.026793217 -0.037552219 -0.0071838871 0.092142984
15680000000 -0.1231591 -0.013788288 -0.033399075 -0.030972315 -0.033441905 -0.030961886 -0.00082045281 0.091969654
15690000000 -0.11969022 0.020714253 -0.037920091 -0.024269134 -0.037930682 -0.024449885 0.003286887 0.080831021
15700000000 -0.10208741 0.051510233 -0.042833254 -0.017707385 -0.04299929 -0.017833516 0.004841011 0.082192317
15710000000 -0.074416853 0.073576927 -0.046395689 -0.0082556438 -0.046509765 -0.0081545711 0.011761248 0.083181493
15720000000 -0.037515916 0.083284505 -0.047545269 0.0018437076 -0.047632486 0.0019858479 0.0041381232 0.079472959
15730000000 -3.9935112e-05 0.079108775 -0.046110846 0.012077337 -0.046104625 0.012093506 -0.0063114744 0.084561899
15740000000 0.035355195 0.060119696 -0.041386135 0.021836657 -0.04146412 0.021781854 -0.0051010083 0.084587581
15750000000 0.059978422 0.03125919 -0.03602203 0.027613338 -0.035956595 0.0274579 -0.005355835 0.075943835
15760000000 0.073597312 -0.0074219201 -0.031460922 0.035111278 -0.03162431 0.035106391 -0.0046389718 0.077183217
15770000000 0.070388556 -0.046805024 -0.022347398 0.040898141 -0.022601331 0.041055381 0.0026784148 0.083026156
15780000000 0.053856462 -0.087058581 -0.015179202 0.0432662 -0.015095959 0.043446187 0.0015164763 0.083456323
15790000000 0.021588456 -0.11747402 -0.0070686229 0.048170358 -0.0069523975 0.048103653 -0.0053405352 0.084397599
15800000000 -0.019255463 -0.13911772 0.0058077816 0.048627656 0.0057293009 0.048704017 -0.0092852693 0.081873596
15810000000 -0.066664547 -0.14213973 0.01496974 0.044704389 0.015060886 0.04480724 -0.0098947585 0.07611981
15820000000 -0.10813376 -0.13107736 0.023146864 0.041829105 0.023185056 0.04179721 -0.0085410438 0.069761306
15830000000 -0.14161344 -0.1047392 0.032178953 0.035785705 0.032239012 0.035733484 -0.0081479009 0.07469552
15840000000 -0.16014831 -0.071378343 0.037602112 0.027900627 0.037532825 0.027847309 -0.0057196096 0.084832698
15850000000 -0.16373077 -0.034108959 0.041733757 0.020487666 0.04181888 0.020649657 -0.006568443 0.089233056
15860000000 -0.15536392 -0.0012658387 0.04562467 0.012342067 0.045851052 0.012323915 -0.011441994 0.090999693
15870000000 -0.13616295 0.029204819 0.047936328 0.0024546199 0.048037115 0.0022165179 -0.008352695 0.090702094
15880000000 -0.1067446 0.049123064 0.047738463 -0.0071743922 0.047760572 -0.0073134955 -0.0047994517 0.083044559
15890000000 -0.074287683 0.058205437 0.046398722 -0.017474359 0.04633278 -0.017753793 -0.0076934583 0.082137443
15900000000 -0.043076325 0.052867569 0.04083528 -0.028190261 0.040821254 -0.028252747 -0.0037867073 0.08947733
15910000000 -0.016554344 0.037539229 0.032860499 -0.035189837 0.032842845 -0.035365604 -0.005688753 0.089700498
15920000000 0.0019004205 0.010486057 0.025214354 -0.041118823 0.025158338 -0.041246437 -0.0088640153 0.094817311
15930000000 0.010293699 -0.02229985 0.014935938 -0.045260552 0.01499411 -0.045400053 -0.0067351945 0.095788322
15940000000 0.0060960017 -0.058508284 0.0059309052 -0.04525682 0.0056638243 -0.045466673 -0.0035679899 0.096226983
15950000000 -0.0092294142 -0.092149928 -0.0020203162 -0.046039138 -0.002203865 -0.04614732 -0.00086569414 0.094010882
15960000000 -0.034320422 -0.1214411 -0.01191093 -0.045045387 -0.012239879 -0.045155898 -0.0019167855 0.095767237
15970000000 -0.06936188 -0.13982257 -0.02043337 -0.041499618 -0.020709049 -0.041301664 0.00068208948 0.098654427
15980000000 -0.10684736 -0.1429037 -0.028626692 -0.036656588 -0.028778896 -0.03660525 0.0022844002 0.09179353
15990000000 -0.14204261 -0.12913294 -0.036087923 -0.029717913 -0.036201071 -0.029617717 0.00017595291 0.091153949
16000000000 -0.16642576 -0.10455437 -0.041038327 -0.020468924 -0.041138392 -0.02043169 0.0051347353 0.093988314
16010000000 -0.18095925 -0.074404106 -0.042471524 -0.012091652 -0.042595409 -0.011978179 0.0079576746 0.09267161
16020000000 -0.18340254 -0.042292409 -0.04396145 -0.004726029 -0.04409273 -0.0045416811 0.00042112544 0.096330628
16030000000 -0.17659111 -0.014148549 -0.04469255 0.004048863 -0.044733167 0.0042407978 0.0019368199 0.10232285
16040000000 -0.16127692 0.0077029616 -0.043167572 0.013007332 -0.043182764 0.013323863 0.003109524 0.094745018
16050000000 -0.14018397 0.018922243 -0.040224794 0.021974131 -0.040024523 0.02212517 0.0029260591 0.093348116
16060000000 -0.11633117 0.019977115 -0.034807522 0.030546186 -0.034694217 0.030643281 0.013370212 0.094329417
16070000000 -0.09300781 0.0079143606 -0.026712734 0.036646616 -0.026616128 0.036860175 0.017418541 0.089918621
16080000000 -0.075598434 -0.012738124 -0.019507429 0.04077471 -0.019398648 0.041074693 0.013248924 0.09228465
16090000000 -0.064901948 -0.039865106 -0.010448118 0.044388477 -0.010053847 0.044428725 0.010466899 0.095073082
16100000000 -0.063465022 -0.069501705 -0.00079966988 0.045015786 -0.00030657509 0.045034233 0.0093164872 0.089609236
16110000000 -0.070460431 -0.099743858 0.0081417551 0.044015784 0.0085352398 0.043812022 0.0092989877 0.085873909
16120000000 -0.089182653 -0.12722811 0.01734994 0.041531183 0.01754785 0.04150201 0.017737804 0.085770816
16130000000 -0.11780696 -0.14822905 0.025666405 0.036397833 0.025920952 0.036345702 0.025301214 0.086285912
16140000000 -0.15807757 -0.15775537 0.031544127 0.030353062 0.031889945 0.030220088 0.024329744 0.088339165
16150000000 -0.19992474 -0.1514463 0.037355747 0.022965539 0.037777439 0.022818632 0.019825447 0.09158612
16160000000 -0.23880151 -0.13157193 0.040337753 0.013867024 0.0408949 0.013345325 0.017097631 0.08711905
16170000000 -0.26747161 -0.10251649 0.040804114 0.0060297642 0.041017804 0.0054238904 0.013611375 0.077085167
16180000000 -0.28412768 -0.067178085 0.042014349 -0.0018537501 0.042114306 -0.0023441371 0.016383488 0.072248943
16190000000 -0.28458756 -0.032916084 0.0395464 -0.01047432 0.039385859 -0.011105388 0.019675845 0.071952075
16200000000 -0.2724095 -0.004566595 0.036793292 -0.016503725 0.036439937 -0.016908772 0.021069204 0.074487701
16210000000 -0.24903767 0.013181739 0.034151807 -0.023365639 0.033923142 -0.023644272 0.015823677 0.077955194
16220000000 -0.22225825 0.020061247 0.028677892 -0.03067339 0.02844484 -0.03102457 0.012637192 0.078759708
16230000000 -0.19330756 0.013748243 0.021891231 -0.035434235 0.021571435 -0.035762321 0.012351546 0.072400965
16240000000 -0.17184097 -0.001279816 0.014177585 -0.03988253 0.013820719 -0.040158104 0.013285141 0.066772662
16250000000 -0.16010004 -0.027129136 0.0049502207 -0.042031523 0.0045103524 -0.04226467 0.018322632 0.069699869
16260000000 -0.16116121 -0.051468667 -0.0035238564 -0.041091181 -0.0039535668 -0.041166883 0.020330943 0.069964536
16270000000 -0.17397934 -0.0773734 -0.010683495 -0.039243206 -0.011204005 -0.039198905 0.012153108 0.071662769
16280000000 -0.19630581 -0.097400032 -0.018626738 -0.037144482 -0.019048005 -0.036954939 0.0049673375 0.073727623
16290000000 -0.2300791 -0.11489064 -0.026640391 -0.031843685 -0.026898745 -0.031721391 0.001871665 0.069003299
16300000000 -0.26815993 -0.12117387 -0.031967085 -0.025264237 -0.032316938 -0.025168004 0.0019561255 0.063445956
16310000000 -0.31035659 -0.11907886 -0.036534034 -0.018332852 -0.036920823 -0.017926238 0.0046957177 0.064543501
16320000000 -0.34822392 -0.10393284 -0.038876496 -0.0099086221 -0.039009627 -0.0095592765 0.00946505 0.068043813
16330000000 -0.38076121 -0.07889609 -0.038918037 -0.0026291944 -0.038880657 -0.002346212 0.0074075367 0.067798018
16340000000 -0.3999885 -0.044608921 -0.039507169 0.0042060744 -0.039556772 0.0045611765 -0.0015007332 0.067962296
16350000000 -0.40922683 -0.0068120658 -0.037739821 0.013055486 -0.037697051 0.013307132 -0.0028587747 0.067607969
16360000000 -0.40345788 0.032148995 -0.033713207 0.019760633 -0.033726446 0.020071121 -0.0036744457 0.060862526
16370000000 -0.38837206 0.066572994 -0.029664433 0.025398768 -0.029504357 0.025620954 -0.0063181738 0.061960209
16380000000 -0.36347339 0.093140185 -0.025247401 0.031710528 -0.025156382 0.031889539 -0.0036915801 0.068163149
16390000000 -0.33652386 0.10743162 -0.017709747 0.036513489 -0.017479226 0.036808148 -0.0066120066 0.069203533
16400000000 -0.30941683 0.10783386 -0.0096681518 0.039268147 -0.0093429331 0.039657898 -0.014806205 0.072061956
16410000000 -0.29058003 0.096895322 -0.0014049616 0.040682025 -0.00092254579 0.040840089 -0.014007369 0.074890241
16420000000 -0.28048342 0.07543084 0.007674681 0.039676555 0.0081769116 0.039705578 -0.0095891822 0.068971209
16430000000 -0.28106055 0.049549393 0.015049443 0.036863651 0.015529964 0.036699966 -0.010419657 0.06859827
16440000000 -0.29413342 0.022131301 0.022179311 0.033859029 0.022606689 0.033465099 -0.0081743328 0.075258039
16450000000 -0.31615317 0.00079041347 0.029776853 0.028036576 0.03014786 0.027682621 -0.011350214 0.074082963
16460000000 -0.34795257 -0.013896026 0.033978518 0.020213041 0.034174446 0.019899264 -0.019575067 0.074600287
16470000000 -0.3816945 -0.014312863 0.037247717 0.013494843 0.03740751 0.01323624 -0.019995665 0.074645579
16480000000 -0.41642845 -0.0034624189 0.03939613 0.0049671214 0.039626013 0.0047215074 -0.017674929 0.07462316
16490000000 -0.4483209 0.020115152 0.038609196 -0.0036593303 0.038728572 -0.0041012354 -0.012066828 0.074217036
16500000000 -0.47294125 0.055108815 0.03681181 -0.010546316 0.036910627 -0.010833943 -0.012573285 0.080949143
16510000000 -0.48822168 0.095164277 0.033343893 -0.018064145 0.03333642 -0.01858281 -0.011641345 0.086964428
16520000000 -0.49256381 0.13689089 0.028139833 -0.023227237 0.02791705 -0.023573354 -0.016624264 0.083819203
16530000000 -0.48730555 0.17485505 0.024008494 -0.026768154 0.02378507 -0.027192544 -0.02032702 0.082213238
16540000000 -0.47249734 0.2060094 0.019664705 -0.032580741 0.019483268 -0.032887481 -0.015913032 0.08119256
16550000000 -0.45246479 0.22680786 0.012268022 -0.036685117 0.011868517 -0.036811102 -0.01159519 0.080525033
16560000000 -0.42728084 0.23612374 0.0045545269 -0.0390938 0.0041762544 -0.038988978 -0.011055682 0.08701469
16570000000 -0.40514931 0.23304288 -0.0042008152 -0.039663974 -0.0043818336 -0.039630085 -0.011120332 0.096197635
16580000000 -0.38740849 0.22335775 -0.013406468 -0.037947841 -0.013585713 -0.037754852 -0.012645277 0.095286854
16590000000 -0.37730902 0.20702994 -0.021202989 -0.03367649 -0.021139916 -0.033539645 -0.015261682 0.091254659
16600000000 -0.37847123 0.19020152 -0.027821053 -0.028964542 -0.027850971 -0.029075101 -0.011777923 0.08877667
16610000000 -0.39001304 0.17852114 -0.035079062 -0.021908799 -0.035309266 -0.021846816 -0.0032167323 0.088413969
16620000000 -0.41085124 0.17347938 -0.038109839 -0.011473998 -0.038196977 -0.011634784 0.0013785176 0.087952599
16630000000 -0.43561411 0.17945486 -0.038253907 -0.0036985287 -0.038688295 -0.0037428867 1.6894192e-05 0.092235744
16640000000 -0.46355432 0.19134915 -0.037968978 0.0047358731 -0.03827082 0.0052502234 -0.0015522726 0.093080468
16650000000 -0.49054021 0.21381985 -0.03459724 0.013080405 -0.034703523 0.013568417 -0.0028797332 0.088517368
16660000000 -0.51249659 0.24200296 -0.02969162 0.018870739 -0.029572422 0.019405778 -0.005270008 0.084040284
16670000000 -0.52651578 0.27415168 -0.025199676 0.024038516 -0.024766536 0.024361389 -0.00070089661 0.086472735
16680000000 -0.53238022 0.30596164 -0.018623643 0.0277519 -0.018191893 0.028014472 0.0051261 0.084740624
16690000000 -0.52985156 0.33801502 -0.013279675 0.02940125 -0.012865534 0.029532047 0.0023646578 0.08658579
16700000000 -0.51960438 0.36706123 -0.0079082632 0.031504624 -0.0075283456 0.031448692 0.00118047 0.089364976
16710000000 -0.50145811 0.39200798 -0.0014838979 0.032998659 -0.0011024545 0.032763042 0.00091456901 0.0870113
16720000000 -0.48129553 0.40901932 0.005587169 0.032128327 0.0058187996 0.031972349 -0.00074442849 0.082547992
16730000000 -0.46129608 0.42088038 0.012133878 0.030545525 0.012264674 0.030561879 -0.0010801014 0.082100496
16740000000 -0.44696683 0.42592645 0.018272582 0.026858753 0.018511433 0.026861142 0.00033325329 0.081969112
16750000000 -0.43913671 0.42892784 0.023399623 0.022583598 0.023654226 0.022508189 0.00036242977 0.078155629
16760000000 -0.44037756 0.43175918 0.027555866 0.016728414 0.027925741 0.016481539 -0.0045344234 0.078793094
16770000000 -0.44525886 0.43736449 0.030373435 0.010523485 0.030676411 0.010104075 0.00014359131 0.078128166
16780000000 -0.45568466 0.44643903 0.031735908 0.0031970679 0.031777535 0.002582639 0.0026720669 0.073861338
16790000000 -0.46547842 0.45911193 0.030899344 -0.003794726 0.030786758 -0.0042018043 0.0013193102 0.07616625
16800000000 -0.47462925 0.4777509 0.028976731 -0.010090032 0.02880355 -0.010491347 0.0028270427 0.077364832
16810000000 -0.48000544 0.49993604 0.025414623 -0.016273567 0.025241969 -0.01658415 0.00074392743 0.071235098
16820000000 -0.4797872 0.52760589 0.020190721 -0.020746903 0.020000629 -0.02086626 -0.0065662339 0.066062443
16830000000 -0.47415921 0.55693233 0.014686057 -0.023654109 0.01442774 -0.023944102 -0.0058436487 0.065174945
16840000000 -0.46319181 0.58851159 0.0092060203 -0.025164057 0.0088591445 -0.025326222 -0.0031846222 0.059805643
16850000000 -0.44737321 0.61886221 0.0037638373 -0.02578654 0.0033839245 -0.025858082 -0.0068067792 0.061650194
16860000000 -0.42825773 0.64732563 -0.001267834 -0.025048586 -0.0017098702 -0.025017353 -0.0096041635 0.073884092
16870000000 -0.40695381 0.67096603 -0.0057356553 -0.023804044 -0.0060755881 -0.023669487 -0.0096299732 0.074672796
16880000000 -0.3859604 0.68947446 -0.0099367928 -0.02153933 -0.010236476 -0.021431714 -0.01973669 0.071963042
16890000000 -0.36623242 0.702573 -0.013305007 -0.019233063 -0.013560594 -0.019111516 -0.020954378 0.072756886
16900000000 -0.34864873 0.7104367 -0.017399624 -0.016442094 -0.017758783 -0.016358994 -0.014104081 0.067662798
16910000000 -0.33597904 0.71443391 -0.020528249 -0.012124642 -0.020789551 -0.011611251 -0.015592817 0.06589631
16920000000 -0.3261973 0.7195856 -0.022226529 -0.0071811681 -0.022308599 -0.0068413601 -0.016434882 0.07489869
16930000000 -0.31850076 0.72770476 -0.023079414 -0.0019317591 -0.02315915 -0.0015109647 -0.017797006 0.077361211
16940000000 -0.30862424 0.74107945 -0.02180467 0.0033818185 -0.021613909 0.0036663981 -0.02645782 0.074955434
16950000000 -0.29692158 0.75801396 -0.019811438 0.0073153437 -0.019729089 0.0075769583 -0.029720115 0.077718936
16960000000 -0.28172287 0.77851146 -0.017612921 0.011517128 -0.017485522 0.011822389 -0.023521017 0.074563012
16970000000 -0.26424569 0.80038774 -0.013515976 0.014672619 -0.013399508 0.01495416 -0.020605544 0.074288875
16980000000 -0.24405003 0.8221184 -0.0097080506 0.016008548 -0.0094042467 0.016207118 -0.017902007 0.07915388
16990000000 -0.22280356 0.842749 -0.0062316712 0.016834801 -0.0058672018 0.01694189 -0.017193377 0.082799703
17000000000 -0.20098139 0.86110443 -0.0023515988 0.017237118 -0.002114543 0.017273709 -0.023096433 0.081092261
