!Keysight Technologies,P9374A,MY57211807,A.19.30.04
!Date: Friday, May 01, 2026 14:49:45
!Correction: S11(C  2-Port  ) 
!S21(C  2-Port  ) 
!S12(C  2-Port  ) 
!S22(C  2-Port  ) 
!S2P File: Measurements: S11, S21, S12, S22:
# Hz S  RI   R 50
13000000000 0.11252555 0.15268886 0.0090185488 0.033442721 0.0096972156 0.033014677 -0.01455193 0.1703981
13010000000 0.12747537 0.12620647 0.016021924 0.03012583 0.016337577 0.029652016 -0.01981394 0.16282055
13020000000 0.13090335 0.095305577 0.0196162 0.026090311 0.020115506 0.02585173 -0.024364673 0.16645016
13030000000 0.12211356 0.063137054 0.024656035 0.023104088 0.024928642 0.022861371 -0.018382803 0.1677722
13040000000 0.10166369 0.037270211 0.029765688 0.019050512 0.030357648 0.018848822 -0.021009078 0.16467512
13050000000 0.077129617 0.01742324 0.034410752 0.010751042 0.034849185 0.010100111 -0.023802554 0.17047089
13060000000 0.046383817 0.0086935656 0.03495628 0.0037421747 0.035076395 0.0030166055 -0.020595018 0.17637353
13070000000 0.014705876 0.011080768 0.034746453 -0.0026474576 0.034754083 -0.0033384413 -0.01212775 0.17676513
13080000000 -0.014606554 0.025645938 0.03556871 -0.011217251 0.035224658 -0.011888859 -0.0041474402 0.16378698
13090000000 -0.037279051 0.051479872 0.031653147 -0.019359939 0.031510673 -0.019548189 -0.012204722 0.15324038
13100000000 -0.046412043 0.088935792 0.026353315 -0.025913835 0.026201691 -0.026377298 -0.022157028 0.16430864
13110000000 -0.040762633 0.1273524 0.018881116 -0.03021531 0.01847719 -0.030572781 -0.011604968 0.17404756
13120000000 -0.020932045 0.1570944 0.01277225 -0.032806944 0.012497713 -0.03312514 -0.013062328 0.17121485
13130000000 0.0050441902 0.17849404 0.0058252285 -0.0350012 0.0050987299 -0.035158757 -0.015117705 0.17631754
13140000000 0.040082857 0.18967173 -0.0021516914 -0.03443145 -0.0025773626 -0.034367438 -0.0090753362 0.17426191
13150000000 0.074161887 0.18768583 -0.0092036538 -0.033860549 -0.0094152531 -0.033613771 -0.0040153265 0.17039894
13160000000 0.10937007 0.17285761 -0.015840417 -0.030465137 -0.016184129 -0.030392153 0.00082881004 0.16596478
13170000000 0.13498084 0.14565691 -0.021509439 -0.026187696 -0.021654975 -0.026271511 -0.00087777525 0.16246256
13180000000 0.15411359 0.10822478 -0.025273172 -0.02108391 -0.026012443 -0.02085438 -0.0030342825 0.16945797
13190000000 0.15307923 0.067983851 -0.029050991 -0.015821937 -0.029319074 -0.015289615 0.0031386109 0.16839169
13200000000 0.14229393 0.032626685 -0.032609347 -0.010066699 -0.032671846 -0.0094907898 -0.0017993748 0.16647412
13210000000 0.1161482 0.005552236 -0.03299991 -0.0019214042 -0.033193402 -0.0015063947 -0.0019088537 0.17100412
13220000000 0.084141128 -0.010221042 -0.031804372 0.0032641934 -0.031567417 0.0036272611 0.0063989758 0.17798766
13230000000 0.047519393 -0.012415558 -0.031282041 0.0091624763 -0.031332873 0.0095449723 0.022588052 0.17686236
13240000000 0.012975684 -0.0019747303 -0.028923456 0.015446208 -0.028987832 0.016069179 0.024909884 0.16645518
13250000000 -0.016965989 0.022673704 -0.02590492 0.021315364 -0.025512995 0.021774296 0.022999506 0.16489457
13260000000 -0.033922654 0.053133458 -0.02119424 0.027145026 -0.020901941 0.027378106 0.022007167 0.1677873
13270000000 -0.039378412 0.088652022 -0.014790716 0.0311039 -0.014503895 0.031276934 0.020207057 0.16707286
13280000000 -0.029825453 0.12187536 -0.0067781461 0.033372134 -0.0063919136 0.033489987 0.018636473 0.17031175
13290000000 -0.0096942112 0.15225598 0.00055859238 0.032570131 0.00088322535 0.032790318 0.024065562 0.17170402
13300000000 0.024538226 0.17210911 0.00524492 0.031000581 0.0056590308 0.03077969 0.031251013 0.16473672
13310000000 0.06281016 0.18230243 0.010355925 0.031354923 0.010509338 0.031448003 0.041051038 0.16071807
13320000000 0.10625006 0.17422082 0.017741578 0.029228061 0.018168919 0.029071979 0.05124639 0.15474358
13330000000 0.1412839 0.1578951 0.024746872 0.025560169 0.02506819 0.025215756 0.049202587 0.15306662
13340000000 0.17148697 0.12595801 0.030634141 0.017624106 0.030721061 0.017390413 0.047308445 0.15788414
13350000000 0.1870755 0.088755608 0.031917974 0.0099455733 0.032041863 0.0099371914 0.042633254 0.15519845
13360000000 0.19024575 0.042481221 0.03246285 0.0039591212 0.032796253 0.0036096219 0.035867356 0.15773898
13370000000 0.17425576 0.0013807639 0.032212839 -0.0025924081 0.032065067 -0.0028930455 0.048686225 0.15488073
13380000000 0.14403717 -0.033825506 0.031207919 -0.0078165308 0.031190317 -0.0080416892 0.058827378 0.13653493
13390000000 0.10243211 -0.053660575 0.030871315 -0.014206335 0.030813405 -0.014777017 0.059038024 0.13129805
13400000000 0.059837244 -0.058488242 0.026343651 -0.022377772 0.025925528 -0.02248903 0.057663411 0.14005397
13410000000 0.021184688 -0.044980139 0.019586749 -0.025769461 0.019698687 -0.025987221 0.064178817 0.14438914
13420000000 -0.0065273056 -0.02440716 0.015029777 -0.029083155 0.014618052 -0.029343691 0.061023235 0.13527304
13430000000 -0.025259705 0.009607113 0.0084097199 -0.032189414 0.0081621259 -0.032508653 0.0521021 0.12884063
13440000000 -0.027020803 0.044857159 0.0016971817 -0.031887956 0.0012822244 -0.032075893 0.056387272 0.12769386
13450000000 -0.017343938 0.080206886 -0.0049791983 -0.031304009 -0.005368277 -0.031114308 0.070598856 0.1197924
13460000000 0.0046463581 0.10520414 -0.0098472834 -0.030072654 -0.0099246465 -0.030069264 0.070339307 0.11467571
13470000000 0.033390068 0.1239568 -0.015771143 -0.027970288 -0.016259262 -0.027997268 0.069396205 0.12025777
13480000000 0.067494154 0.12905291 -0.022646552 -0.024540827 -0.023137329 -0.024263594 0.064314507 0.11853854
13490000000 0.10078875 0.12319895 -0.026630659 -0.017949564 -0.026856709 -0.017876569 0.060362373 0.12034093
13500000000 0.13198827 0.1005801 -0.028786099 -0.013519158 -0.029172454 -0.013013992 0.066145629 0.10902811
13510000000 0.15260278 0.06857048 -0.032029491 -0.0074204868 -0.032027721 -0.0069977674 0.059455715 0.096856259
13520000000 0.15976363 0.028148497 -0.032629676 0.00053999713 -0.033003196 0.00082899933 0.060481295 0.10742522
13530000000 0.15351118 -0.0076784641 -0.030277589 0.0064641405 -0.03035292 0.006916686 0.074607968 0.11042445
13540000000 0.13797009 -0.042877909 -0.02852848 0.010976459 -0.028417395 0.011240847 0.073915966 0.097187921
13550000000 0.109465 -0.067459576 -0.028886078 0.016974336 -0.028679006 0.017183792 0.058265325 0.092992604
13560000000 0.072452582 -0.08120206 -0.024221461 0.025074333 -0.023993552 0.025496295 0.050674126 0.095121652
13570000000 0.034803841 -0.078361697 -0.016329231 0.029022681 -0.015979206 0.029210908 0.058779504 0.098046541
13580000000 -0.0026268139 -0.060431369 -0.01108835 0.030356895 -0.010792794 0.030708509 0.067399204 0.086865686
13590000000 -0.026011424 -0.0326772 -0.0055325762 0.032584667 -0.0046509011 0.032898061 0.059443869 0.084114835
13600000000 -0.04240755 0.00017578248 0.0023319912 0.033159886 0.0025296742 0.033267744 0.056649424 0.092436813
13610000000 -0.043935619 0.033671618 0.010095432 0.03213653 0.01062614 0.031975139 0.059365656 0.093352079
13620000000 -0.033644464 0.06639114 0.016142743 0.028314948 0.016460309 0.028114509 0.060487948 0.087933056
13630000000 -0.009929724 0.090525657 0.02082083 0.025318833 0.021271583 0.024998581 0.058323152 0.078447089
13640000000 0.022665609 0.10326733 0.02537743 0.020096274 0.025649691 0.020044018 0.049237441 0.079678521
13650000000 0.058001947 0.10045306 0.02923236 0.014315113 0.029613122 0.013693608 0.051376857 0.088688411
13660000000 0.091906123 0.086389899 0.031574611 0.0078740753 0.031591713 0.0076443516 0.056666717 0.084953249
13670000000 0.11534464 0.061070837 0.031979933 0.0017218878 0.032310665 0.0012284294 0.049108483 0.079768643
13680000000 0.13106747 0.032623589 0.032226905 -0.0051768497 0.031999089 -0.0056138597 0.049279984 0.085111588
13690000000 0.13147983 -0.0018962249 0.030392889 -0.011778453 0.030280001 -0.012390218 0.060771834 0.085779846
13700000000 0.12088457 -0.034887247 0.026081637 -0.017554134 0.025756635 -0.018003009 0.059898682 0.073542602
13710000000 0.092016771 -0.059557974 0.021813413 -0.022014223 0.021609558 -0.022472382 0.051136717 0.080499128
13720000000 0.057433501 -0.073612444 0.017967617 -0.025086999 0.017821651 -0.025601476 0.052183524 0.083328791
13730000000 0.019590043 -0.071546718 0.012921682 -0.029419474 0.012263198 -0.029664367 0.050318092 0.083617657
13740000000 -0.012084674 -0.059184764 0.0067756558 -0.031414334 0.0062753344 -0.03126109 0.05687467 0.082978152
13750000000 -0.038818348 -0.039913952 -0.00095648598 -0.032378897 -0.0011638617 -0.032393981 0.061789278 0.077294149
13760000000 -0.052095525 -0.0089317709 -0.0071678702 -0.03077789 -0.0077634118 -0.030856088 0.058969527 0.076826908
13770000000 -0.057164513 0.021464512 -0.012721954 -0.028303854 -0.013224477 -0.028108755 0.05805707 0.084403828
13780000000 -0.045674846 0.054418802 -0.017413486 -0.026413983 -0.018150644 -0.025962081 0.060794938 0.083701044
13790000000 -0.023217816 0.084542513 -0.023311183 -0.022074115 -0.023629013 -0.021839254 0.059909273 0.078626424
13800000000 0.010782301 0.10096399 -0.028532907 -0.016573986 -0.028871901 -0.016309738 0.057589307 0.071907967
13810000000 0.045996621 0.10669126 -0.03060239 -0.0096552288 -0.030806398 -0.009121404 0.062207088 0.071443275
13820000000 0.082916692 0.098897688 -0.031109203 -0.0031732228 -0.031182107 -0.0026157154 0.067430049 0.070519835
13830000000 0.1113595 0.078260675 -0.03074016 0.0023012972 -0.030797122 0.0026856782 0.070152238 0.071966521
13840000000 0.13193041 0.050108362 -0.03031891 0.0086283144 -0.030323822 0.0091073122 0.069023661 0.070192277
13850000000 0.14022163 0.012365257 -0.028128881 0.015096162 -0.027864158 0.015671311 0.06509196 0.065485969
13860000000 0.13779609 -0.026398458 -0.02424833 0.020810105 -0.02384885 0.02121193 0.062301032 0.066480927
13870000000 0.11859491 -0.066241339 -0.019535434 0.025413597 -0.019220173 0.025562052 0.073763862 0.063585028
13880000000 0.089103729 -0.095891759 -0.013566783 0.028493959 -0.013428944 0.028798686 0.075334713 0.056032181
13890000000 0.051079202 -0.11273834 -0.0064795641 0.03127332 -0.0058367029 0.031567112 0.07437554 0.059368081
13900000000 0.0094158202 -0.11134481 0.00011250004 0.030276783 0.0006816769 0.030233607 0.078132987 0.05827402
13910000000 -0.026712455 -0.094023332 0.0050845919 0.029156407 0.0055706361 0.029082004 0.074233063 0.053332135
13920000000 -0.050840382 -0.064801186 0.010833562 0.027566448 0.011116373 0.027417015 0.073164582 0.049885683
13930000000 -0.067216389 -0.029018559 0.015359265 0.024749214 0.015686831 0.024599101 0.077324279 0.041849591
13940000000 -0.064569831 0.010364362 0.01954446 0.0221908 0.020112291 0.022010045 0.074427046 0.041522238
13950000000 -0.055031158 0.04208491 0.024164308 0.018083563 0.024458727 0.017813973 0.081607066 0.046465263
13960000000 -0.033289954 0.069171771 0.027947713 0.012549221 0.028463203 0.012030453 0.084933758 0.038027458
13970000000 -0.0050781295 0.084497347 0.029554103 0.0070864623 0.029480763 0.0064585861 0.07417956 0.033531889
13980000000 0.031339191 0.087054379 0.03081502 0.00027936511 0.030821657 -0.00022262894 0.071526445 0.037990138
13990000000 0.065534241 0.072139964 0.029921547 -0.0062845545 0.02991271 -0.006847728 0.079504326 0.031635124
14000000000 0.095583677 0.046716001 0.027685447 -0.011394733 0.02749086 -0.011897948 0.07584855 0.021776935
14010000000 0.11479978 0.0098308735 0.025659764 -0.016642656 0.025588065 -0.017141882 0.068226747 0.0224388
14020000000 0.1249209 -0.027803166 0.021712756 -0.022347944 0.021153245 -0.022546187 0.064990476 0.025190139
14030000000 0.11922909 -0.069489866 0.016859878 -0.025623202 0.016847724 -0.026010003 0.065518014 0.022019243
14040000000 0.10087236 -0.10353901 0.011624868 -0.029475261 0.010996948 -0.029879225 0.06579449 0.019334255
14050000000 0.067101806 -0.13006932 0.0046676472 -0.031439394 0.0038994029 -0.031362571 0.066523239 0.010771032
14060000000 0.024835585 -0.14133577 -0.0019075936 -0.031789478 -0.002098795 -0.031865325 0.058095332 0.0079182619
14070000000 -0.022128731 -0.13802062 -0.009746816 -0.030488737 -0.010498975 -0.030490888 0.053785637 0.015372637
14080000000 -0.064839579 -0.11690237 -0.015844755 -0.02603904 -0.016304458 -0.025902342 0.057516437 0.011402273
14090000000 -0.097955257 -0.085595153 -0.018288365 -0.022262963 -0.01872942 -0.021902278 0.050288484 -0.0016208161
14100000000 -0.11518594 -0.045284066 -0.023142857 -0.018960698 -0.023473591 -0.018681511 0.040928237 -0.0016513206
14110000000 -0.11883315 -0.0076812804 -0.026015209 -0.014511918 -0.026352268 -0.013866998 0.047682546 0.0026156753
14120000000 -0.10404445 0.027996171 -0.029569376 -0.0085518928 -0.029870709 -0.0083083557 0.053084943 -0.00013809465
14130000000 -0.079955384 0.052541945 -0.030066406 -0.0019619898 -0.03030419 -0.0011585518 0.04764327 -0.0011490174
14140000000 -0.045921773 0.067727484 -0.029033156 0.0040667197 -0.028779913 0.0046375981 0.042798672 0.0027335025
14150000000 -0.0096936068 0.070755944 -0.02788507 0.0085375495 -0.027891908 0.0088937161 0.036961041 -0.0040741968
14160000000 0.024456857 0.059465785 -0.026598008 0.014175201 -0.026326662 0.014857518 0.032809339 -0.0027413787
14170000000 0.053219613 0.039393432 -0.023600191 0.020312861 -0.023042284 0.020700922 0.038609829 -0.0074892864
14180000000 0.069856703 0.0084339567 -0.017574368 0.025088791 -0.0172514 0.025327489 0.03430919 -0.0055998862
14190000000 0.070057407 -0.025092931 -0.012102613 0.02687983 -0.011445654 0.02715129 0.034321807 0.002355542
14200000000 0.057161018 -0.057505392 -0.0069479947 0.027869213 -0.0065847561 0.028341955 0.029644033 0.0071224077
14210000000 0.032852508 -0.082057074 -0.0015209804 0.029371986 -0.00084351841 0.029393405 0.026465567 0.0039530117
14220000000 0.00054789893 -0.10251144 0.0042952918 0.02918029 0.0049137892 0.028946942 0.017172599 -0.0046159471
14230000000 -0.035731975 -0.10809006 0.0091624726 0.028941793 0.0096958363 0.028817965 0.014575258 -0.0043182918
14240000000 -0.073856913 -0.10204335 0.016357802 0.027321644 0.016891567 0.026848776 0.019301552 -0.0013666963
14250000000 -0.10327362 -0.081952907 0.022398273 0.021947924 0.022839399 0.021549931 0.02330609 -0.0012571877
14260000000 -0.1240059 -0.051793486 0.025455905 0.017051024 0.025862146 0.016734716 0.018784624 0.0024728468
14270000000 -0.13123564 -0.014767267 0.028969126 0.011595349 0.029553378 0.01094964 0.01373936 0.0058776857
14280000000 -0.12434089 0.023841443 0.030700477 0.0049555087 0.030732375 0.0041465163 0.01263463 0.0060372511
14290000000 -0.1023502 0.058727987 0.030521691 -0.0020794324 0.030007122 -0.0027778489 0.016253028 0.00018093979
14300000000 -0.072465673 0.081309408 0.02840941 -0.0071160933 0.028687961 -0.0076535451 0.014492452 -0.0060947486
14310000000 -0.037351936 0.088806793 0.027118292 -0.012142903 0.02679532 -0.01274953 0.0096790669 0.0010712736
14320000000 -0.0080340132 0.082138032 0.024910074 -0.017794497 0.024748046 -0.018215388 0.012002494 0.010911481
14330000000 0.019156005 0.067335397 0.020519227 -0.022300672 0.020224381 -0.02300855 0.01609407 0.013083985
14340000000 0.037830684 0.041219272 0.015571466 -0.027403157 0.014733991 -0.0278753 0.016062399 0.0053360732
14350000000 0.048737828 0.0084764287 0.0091055734 -0.029399121 0.0085176248 -0.029340461 0.0051987679 -0.00032535114
14360000000 0.044957072 -0.028603964 0.0035960986 -0.030797794 0.0028223929 -0.030960072 0.0041088378 0.009906508
14370000000 0.030621331 -0.06170081 -0.0038077477 -0.03162773 -0.0045026955 -0.031416416 0.015391004 0.012263223
14380000000 0.0014565475 -0.084328048 -0.0112513 -0.028403034 -0.011737166 -0.028572349 0.015498547 0.0030942699
14390000000 -0.030595854 -0.091643922 -0.014916917 -0.02496128 -0.015606858 -0.02459359 0.0061436631 0.0059903823
14400000000 -0.066678748 -0.087525785 -0.019437805 -0.022146204 -0.019837137 -0.021786727 0.008388252 0.010304827
14410000000 -0.094969027 -0.065451659 -0.02359554 -0.018241955 -0.02434003 -0.01786544 0.014469648 0.0061635505
14420000000 -0.12070043 -0.036460966 -0.027095508 -0.012391327 -0.027162382 -0.01165835 0.0097734872 0.0020191586
14430000000 -0.12873462 0.0019404971 -0.028752226 -0.006776474 -0.028781654 -0.0065476792 0.0096800644 0.0077196504
14440000000 -0.12995915 0.039608538 -0.029478012 -0.00096952589 -0.029884195 -0.00019581756 0.0097580776 0.0092355683
14450000000 -0.10998779 0.072928227 -0.029290332 0.0053529157 -0.02896519 0.0061638267 0.011888255 0.0078530004
14460000000 -0.084084935 0.094969548 -0.027054196 0.010690063 -0.026855338 0.011009271 0.012733877 -0.0025875443
14470000000 -0.044853259 0.10187756 -0.024423759 0.015399812 -0.024224974 0.016104186 0.0049182158 -0.0061693923
14480000000 -0.011994231 0.094150402 -0.021151653 0.020643614 -0.020689551 0.021070961 0.0051459428 -6.6148583e-05
14490000000 0.022087544 0.074094363 -0.016464401 0.023969918 -0.015881088 0.024340175 0.011008759 0.0047699967
14500000000 0.045280673 0.045026012 -0.011751461 0.027096828 -0.011197994 0.027514426 0.0083760573 -0.00060468784
14510000000 0.059444495 0.010331332 -0.006341422 0.028869215 -0.0058046714 0.028949145 0.00055564789 0.0013295318
14520000000 0.055858895 -0.025917932 -0.00026762858 0.030511132 0.00030145422 0.030648509 0.0043114075 -0.00012703962
14530000000 0.043965258 -0.057278313 0.006954344 0.030812975 0.0078247134 0.030685406 0.007630372 -0.010710075
14540000000 0.016849536 -0.082950123 0.013843567 0.026750062 0.014493027 0.026426777 0.0023334045 -0.01505406
14550000000 -0.016280696 -0.10045654 0.017614672 0.023384929 0.018122561 0.023023486 -0.0021916039 -0.0060066218
14560000000 -0.061907396 -0.10402238 0.022453789 0.019625541 0.022949476 0.01922109 -0.00073423423 0.00086747401
14570000000 -0.10395148 -0.093939908 0.026407851 0.014244773 0.026705733 0.013693561 -0.0024225072 -0.0010513228
14580000000 -0.14244188 -0.067948036 0.02868598 0.0081083216 0.029065136 0.0074512269 -0.0067324014 -0.0095871165
14590000000 -0.16362379 -0.032457579 0.028634278 0.00098210853 0.028695831 0.00043732487 -0.013027944 -0.014431175
14600000000 -0.17021909 0.013266578 0.027559245 -0.0040923776 0.027418705 -0.0044107921 -0.011791226 -0.0136533
14610000000 -0.16041087 0.052424654 0.025876518 -0.0094099706 0.025908845 -0.0090026138 -0.0094590662 -0.014023783
14620000000 -0.13783026 0.088274315 0.023431905 -0.013361445 0.023743968 -0.013265867 -0.01566303 -0.0086457692
14630000000 -0.10032263 0.11428429 0.021449819 -0.018372966 0.021445923 -0.01774301 -0.014277371 -0.002792032
14640000000 -0.053130545 0.12487674 0.017117012 -0.023148181 0.017994188 -0.023189556 -0.017352276 -0.010904545
14650000000 -0.012003584 0.11187145 0.011278559 -0.025592631 0.0112191 -0.025825012 -0.024092603 -0.017772205
14660000000 0.017717246 0.089177728 0.0058637187 -0.027011644 0.0058349986 -0.026758589 -0.030757345 -0.020682484
14670000000 0.032319173 0.05884625 0.0009069927 -0.026527405 0.0013823425 -0.026656609 -0.035389662 -0.012364312
14680000000 0.040417027 0.026599444 -0.0035149278 -0.026886495 -0.0034023905 -0.026515745 -0.031953391 -0.0017229421
14690000000 0.03434632 -0.01139992 -0.0088197235 -0.026510864 -0.0077802455 -0.026762236 -0.028243821 -0.001714604
14700000000 0.016169097 -0.046848711 -0.014537632 -0.024412202 -0.014462652 -0.02495997 -0.034450851 -0.0078140656
14710000000 -0.01634679 -0.076368272 -0.0193284 -0.021403298 -0.019296791 -0.021311378 -0.040404599 -0.00841136
14720000000 -0.054939464 -0.090511695 -0.024556417 -0.016550144 -0.023633387 -0.016824519 -0.042014208 -0.0097658643
14730000000 -0.096698277 -0.089278907 -0.026279571 -0.0095166154 -0.026537858 -0.010694983 -0.048175856 -0.0078169145
14740000000 -0.13250786 -0.074267283 -0.026432812 -0.0059023788 -0.026436632 -0.0058412664 -0.053663425 0.0012047552
14750000000 -0.16511609 -0.045099009 -0.029392138 -0.00065670907 -0.029126249 -0.0011673551 -0.051672041 0.012686528
14760000000 -0.18336761 -0.0069626272 -0.028789576 0.0072726086 -0.02919868 0.0063632336 -0.04557053 0.0078534279
14770000000 -0.19367948 0.041788783 -0.025548326 0.012622329 -0.026254172 0.012729997 -0.052616078 0.0022409214
14780000000 -0.18300246 0.090589754 -0.022339758 0.017533431 -0.022227716 0.017089138 -0.054117307 0.0094900113
14790000000 -0.15810341 0.13272257 -0.017040405 0.021839624 -0.017116753 0.020931069 -0.050693866 0.0098657422
14800000000 -0.11998932 0.15791088 -0.011982748 0.023033431 -0.013416673 0.022843301 -0.0594225 0.013468687
14810000000 -0.079627618 0.16705503 -0.0089257658 0.02377848 -0.0090904208 0.024250906 -0.061754186 0.023292312
14820000000 -0.040395357 0.16023193 -0.0052250614 0.026760833 -0.0051798541 0.026835432 -0.060025305 0.023064861
14830000000 -0.0059335455 0.14076176 0.0017615724 0.028198959 0.0012602042 0.027777696 -0.061071489 0.020281753
14840000000 0.02097979 0.10792793 0.0083608739 0.026769973 0.0077357064 0.027098265 -0.060037557 0.022929817
14850000000 0.034823917 0.071937725 0.012917656 0.023091204 0.01240271 0.0234954 -0.056807149 0.027523935
14860000000 0.035540923 0.032043245 0.016362663 0.020697886 0.016253682 0.020736003 -0.058727253 0.03441751
14870000000 0.022002207 0.0027137967 0.020079833 0.017247327 0.019573309 0.017804788 -0.058401171 0.042906284
14880000000 0.0013964474 -0.02044652 0.023175988 0.013421325 0.023010805 0.01407098 -0.056474142 0.039258648
14890000000 -0.029184151 -0.032066572 0.026340598 0.0081440769 0.02633439 0.0084740948 -0.060285699 0.032572761
14900000000 -0.062588289 -0.031356148 0.026737662 0.0024944958 0.02659698 0.0030174153 -0.06135951 0.035767246
14910000000 -0.097347222 -0.017048396 0.026699994 -0.0029079092 0.026765192 -0.002389319 -0.054062277 0.04353372
14920000000 -0.12456156 0.0092468895 0.025191637 -0.0079989191 0.025382308 -0.0075522289 -0.050290588 0.048157878
14930000000 -0.14200276 0.042342618 0.023595953 -0.01223638 0.023748003 -0.01193854 -0.05371483 0.056225941
14940000000 -0.14630578 0.077364601 0.0210077 -0.016814822 0.021576222 -0.01618644 -0.04757338 0.060841285
14950000000 -0.13703878 0.11212746 0.017858947 -0.021703105 0.018587556 -0.021584228 -0.046800453 0.045523372
14960000000 -0.11376715 0.14019786 0.011628598 -0.026402388 0.011706967 -0.026540488 -0.05452691 0.042521518
14970000000 -0.080417469 0.15859103 0.0041931132 -0.025904944 0.0042744786 -0.025561929 -0.052054897 0.049858276
14980000000 -0.036717057 0.16170795 0.0011155498 -0.02438945 0.0019946545 -0.02395195 -0.043584004 0.059701648
14990000000 0.0025643706 0.14844777 -0.0024115068 -0.02524787 -0.0016058306 -0.02587877 -0.04018693 0.063292623
15000000000 0.033891026 0.12270893 -0.0071495986 -0.025005538 -0.0072094286 -0.025259251 -0.040613487 0.064304106
15010000000 0.050884798 0.095866367 -0.011921482 -0.024554655 -0.011450087 -0.024753056 -0.039770953 0.05894205
15020000000 0.0591252 0.064103879 -0.018463258 -0.023228282 -0.017961826 -0.023531944 -0.039974637 0.048695583
15030000000 0.055481244 0.03527547 -0.025023792 -0.016948318 -0.024487166 -0.017428966 -0.04057258 0.045948289
15040000000 0.042533636 0.004339118 -0.027069312 -0.009782183 -0.027129104 -0.010269609 -0.040016547 0.050526835
15050000000 0.013454909 -0.02075395 -0.026984937 -0.0035687792 -0.027007136 -0.0040997574 -0.037265766 0.062960759
15060000000 -0.024797281 -0.030311599 -0.026070133 0.00097763445 -0.026160194 0.00032896874 -0.033285253 0.067018516
15070000000 -0.061485738 -0.024777088 -0.025403239 0.0050259642 -0.02570596 0.0044728797 -0.030873798 0.060848497
15080000000 -0.089750856 -0.0076458864 -0.025203891 0.0097792521 -0.025264246 0.009259643 -0.033732422 0.046811417
15090000000 -0.10577573 0.014254998 -0.023414098 0.015885647 -0.02393087 0.015250502 -0.040588781 0.044138152
15100000000 -0.11781047 0.039597131 -0.019056736 0.021057602 -0.01967711 0.021306967 -0.034128278 0.047273483
15110000000 -0.11883558 0.073300287 -0.013738718 0.024985692 -0.013560707 0.024620568 -0.031662799 0.046489954
15120000000 -0.10144863 0.10838264 -0.0062076175 0.026705287 -0.0070136245 0.0264729 -0.037236787 0.050773181
15130000000 -0.066630237 0.13418052 -0.00094432244 0.024210474 -0.0016048457 0.024551386 -0.039657906 0.059338991
15140000000 -0.025017247 0.13939831 0.0011212565 0.023680951 0.00095299073 0.023977585 -0.034799471 0.055481069
15150000000 0.0070099905 0.12781562 0.0052360799 0.025066489 0.0049801683 0.025084639 -0.036594745 0.045164801
15160000000 0.030289646 0.10999867 0.011433813 0.0239757 0.011029254 0.02417111 -0.042671293 0.047639128
15170000000 0.048367798 0.084852524 0.015927047 0.021031871 0.015649941 0.021047652 -0.038281187 0.049626429
15180000000 0.055600978 0.052222088 0.020107532 0.01704265 0.019737855 0.017633997 -0.040307555 0.048270814
15190000000 0.048667584 0.017504206 0.022687849 0.012307426 0.022637548 0.012800266 -0.047933515 0.049289592
15200000000 0.025696101 -0.012844638 0.024221504 0.0082956273 0.02420515 0.0084114634 -0.05236968 0.053218734
15210000000 -0.0012649279 -0.028908463 0.02614649 0.0033475598 0.025802797 0.0036969278 -0.051270492 0.053715535
15220000000 -0.030823568 -0.037465557 0.026647938 -0.0023665857 0.026417512 -0.0018546553 -0.052892745 0.056070987
15230000000 -0.059261773 -0.036497872 0.02488479 -0.0077339113 0.025217459 -0.0071293237 -0.047143668 0.062986962
15240000000 -0.087666579 -0.026879799 0.022996314 -0.012056684 0.023521349 -0.011750931 -0.044506468 0.057712831
15250000000 -0.11376784 -0.006005479 0.020978091 -0.01706991 0.020949686 -0.016808605 -0.051267087 0.058557361
15260000000 -0.13264017 0.026761385 0.016409492 -0.021454224 0.016916504 -0.02110366 -0.051451821 0.060773723
15270000000 -0.13883649 0.06549263 0.011187527 -0.024155634 0.011549635 -0.023782346 -0.052678727 0.059320655
15280000000 -0.12910445 0.10841915 0.006106779 -0.025867805 0.0067805648 -0.025933733 -0.06168405 0.064122073
15290000000 -0.10580008 0.14100963 0.00025193021 -0.026444361 0.00093046762 -0.026380902 -0.060711637 0.078897178
15300000000 -0.072337501 0.16644499 -0.0045038536 -0.025676236 -0.004059026 -0.026289642 -0.05485617 0.081643753
15310000000 -0.030578781 0.17777297 -0.01056432 -0.024450932 -0.010227234 -0.024530001 -0.055345312 0.078200512
15320000000 0.01655264 0.17263773 -0.01519569 -0.020805975 -0.015061338 -0.021045662 -0.053119432 0.076981641
15330000000 0.058334354 0.14451821 -0.018365186 -0.016917503 -0.017977383 -0.017242102 -0.049149431 0.073284775
15340000000 0.083345562 0.10125923 -0.021080524 -0.012642567 -0.020894051 -0.013158383 -0.052288663 0.073874861
15350000000 0.088271499 0.054237746 -0.022274218 -0.0082071368 -0.022486262 -0.0086924322 -0.056631025 0.085934281
15360000000 0.077981547 0.014990553 -0.022944763 -0.0047536297 -0.022993829 -0.0046949293 -0.055057768 0.097840004
15370000000 0.057078458 -0.017045811 -0.023956005 -0.0001698751 -0.023841597 -0.00058686174 -0.051598322 0.099923164
15380000000 0.027851582 -0.036666803 -0.023630237 0.0042584194 -0.023795659 0.0039086109 -0.049349599 0.096975803
15390000000 -0.0069417488 -0.04841803 -0.022361774 0.0089669693 -0.022610374 0.0087321419 -0.043137804 0.093401007
15400000000 -0.042127416 -0.043688525 -0.020286875 0.013159723 -0.020366795 0.012842796 -0.040165123 0.089992665
15410000000 -0.074683294 -0.028152369 -0.017675608 0.017003024 -0.01779595 0.016836096 -0.042531002 0.096277066
15420000000 -0.097039059 -0.00085007027 -0.013209812 0.020271305 -0.013463814 0.020069353 -0.039068073 0.10563987
15430000000 -0.11187379 0.026555669 -0.0094052218 0.022318514 -0.0099003129 0.022127114 -0.038177852 0.1059411
15440000000 -0.11522745 0.063055299 -0.0044745598 0.024098624 -0.0048253434 0.024119278 -0.039460275 0.10605522
15450000000 -0.10708843 0.095824987 0.00034085941 0.023818659 6.3770451e-05 0.023799185 -0.031834967 0.10304371
15460000000 -0.08415322 0.12954803 0.0043926658 0.023638215 0.004065562 0.023621663 -0.025009356 0.098099835
15470000000 -0.051091932 0.15113777 0.0095671266 0.023150578 0.0088428026 0.023223713 -0.023285499 0.10040386
15480000000 -0.0076249205 0.16279568 0.014142223 0.019865144 0.013714777 0.020359537 -0.020251617 0.10911878
15490000000 0.038019318 0.15678966 0.017472059 0.017401282 0.017342344 0.017727681 -0.01519651 0.11331157
15500000000 0.080568038 0.13414587 0.021465234 0.013511717 0.021303782 0.01372822 -0.014179707 0.10597643
15510000000 0.1123376 0.097401708 0.023952311 0.0081462096 0.02378086 0.0086072963 -0.018889446 0.10472515
15520000000 0.13003552 0.050986778 0.02460641 0.0026944298 0.024564344 0.0031414945 -0.012886342 0.10572046
15530000000 0.12499537 -0.0021739453 0.023440465 -0.002101257 0.023688301 -0.0015665074 -0.009630437 0.10145755
15540000000 0.10075509 -0.044807062 0.023145866 -0.0060291532 0.023155099 -0.0056802202 -0.013469053 0.10615429
15550000000 0.066363826 -0.076952495 0.021225594 -0.010244986 0.021647008 -0.0099824313 -0.007887695 0.111166
15560000000 0.025111057 -0.092582837 0.01959019 -0.014012459 0.019578593 -0.013923706 -0.0028000027 0.10281646
15570000000 -0.016562451 -0.094404764 0.016357739 -0.018116137 0.016745742 -0.01767255 -0.0060285516 0.096280545
15580000000 -0.052752059 -0.082557604 0.01198638 -0.021452252 0.01241574 -0.021439034 -0.0027202889 0.098006964
15590000000 -0.080362469 -0.05995509 0.0071916981 -0.023241427 0.007543494 -0.023294095 0.00036980212 0.095595285
15600000000 -0.099128723 -0.029270694 0.0026526835 -0.024075774 0.0030957356 -0.024158584 -0.003573874 0.097218513
15610000000 -0.10430159 0.0058462499 -0.0030208176 -0.023970749 -0.0027272957 -0.023931585 -0.0035430514 0.10209172
15620000000 -0.09593153 0.039869741 -0.0066229617 -0.021315973 -0.0061954604 -0.021505754 0.0014234073 0.09985929
15630000000 -0.074863255 0.067768067 -0.010160326 -0.021231132 -0.0099952575 -0.021360112 0.0045993626 0.090834364
15640000000 -0.046727527 0.085065097 -0.014189438 -0.018609408 -0.01399785 -0.018677799 0.0031630471 0.089126237
15650000000 -0.015846767 0.091060907 -0.017919987 -0.016089652 -0.017423587 -0.016271632 0.0059747025 0.090812534
15660000000 0.015790828 0.088358939 -0.021244787 -0.012482231 -0.021043323 -0.01316426 0.0023524389 0.085913077
15670000000 0.050658658 0.070393324 -0.024084318 -0.0077214441 -0.024266474 -0.0079529826 -0.0069900784 0.087479703
15680000000 0.075452752 0.034914047 -0.025169596 -0.0014854858 -0.024975149 -0.0017577519 -0.004563313 0.089372963
15690000000 0.081732623 -0.010158077 -0.023264248 0.0036988195 -0.023339227 0.0030267034 4.7279522e-05 0.081590347
15700000000 0.069710083 -0.050083734 -0.022617863 0.0067988131 -0.0230048 0.0065349811 0.003752023 0.08278726
15710000000 0.048375264 -0.081158817 -0.021293264 0.011327547 -0.021257589 0.011097897 0.011584423 0.084007323
15720000000 0.021110345 -0.10475947 -0.018531617 0.015526669 -0.018832821 0.014998946 0.0070889741 0.079179652
15730000000 -0.013873138 -0.11919772 -0.015667263 0.018942319 -0.016151063 0.01869533 -0.0062538255 0.080365308
15740000000 -0.05172427 -0.11782943 -0.010812175 0.022701755 -0.011242993 0.022459026 -0.0074801701 0.084156632
15750000000 -0.085840844 -0.10128772 -0.0064902543 0.023040405 -0.0068379836 0.022981534 -0.0038251227 0.076759033
15760000000 -0.11022671 -0.074221417 -0.0023350827 0.025028002 -0.0028868155 0.025188932 -0.0033421125 0.074898571
15770000000 -0.12239605 -0.043335762 0.0041075363 0.025907863 0.0036272742 0.0258049 0.00041643158 0.082376376
15780000000 -0.12462276 -0.013310164 0.0090322345 0.022673769 0.0087510142 0.023076762 0.002590321 0.085499659
15790000000 -0.11839469 0.015031468 0.012808038 0.02162683 0.012533059 0.021520268 -0.0053335465 0.083159596
15800000000 -0.10099497 0.03787037 0.018068068 0.018318374 0.017433301 0.018938247 -0.013552918 0.082830288
15810000000 -0.07575313 0.05281461 0.020903025 0.013737395 0.021043647 0.014256301 -0.0093907909 0.080019861
15820000000 -0.04304624 0.05493702 0.023077613 0.0095434412 0.022813968 0.0098247407 -0.0069420636 0.06966529
15830000000 -0.010093328 0.041729476 0.025213424 0.0051582069 0.025352016 0.005564854 -0.0088931434 0.073956214
15840000000 0.017303385 0.013193044 0.026200175 -0.0017823111 0.026059024 -0.0011775531 -0.005615104 0.084973849
15850000000 0.02914191 -0.025061591 0.023234129 -0.0070170043 0.02369716 -0.0064093452 -0.0055966042 0.088192269
15860000000 0.023929685 -0.061925258 0.021614365 -0.0099964421 0.021950204 -0.0098451208 -0.01181614 0.090271503
15870000000 0.0082138479 -0.093810193 0.019460171 -0.014733435 0.019810952 -0.014531915 -0.0074295346 0.091076136
15880000000 -0.019842405 -0.11757997 0.015655041 -0.017391086 0.01580984 -0.017336898 -0.0013139546 0.081599616
15890000000 -0.056328084 -0.12731485 0.013155027 -0.020739919 0.01353031 -0.020182531 -0.006575421 0.078421056
15900000000 -0.09540011 -0.12292852 0.0078045055 -0.023658989 0.0083319116 -0.023540845 -0.0054870807 0.088568375
15910000000 -0.12812573 -0.1046406 0.0028653461 -0.023759235 0.0032351185 -0.023738701 -0.0042920969 0.090098031
15920000000 -0.15078975 -0.080740601 -0.00099529792 -0.024186032 -0.00064388197 -0.024271231 -0.0094654672 0.093357176
15930000000 -0.16436528 -0.054382585 -0.0065355599 -0.023677535 -0.0060686646 -0.023502629 -0.0077515393 0.098461568
15940000000 -0.16936859 -0.025648613 -0.010956815 -0.021536885 -0.010256721 -0.021864552 0.00011724979 0.096562356
15950000000 -0.16202128 0.0022868216 -0.014907448 -0.019644227 -0.014587925 -0.020126112 -5.0602481e-05 0.089211568
15960000000 -0.14351903 0.024264582 -0.019269587 -0.016703956 -0.018839478 -0.016868958 -0.0044541312 0.09316881
15970000000 -0.11707258 0.037437536 -0.022691796 -0.011712209 -0.022222269 -0.012301549 -0.0020177551 0.095504411
15980000000 -0.087239832 0.042642094 -0.024426028 -0.0069523202 -0.024236202 -0.0075509958 -0.0022285469 0.090164572
15990000000 -0.05210755 0.038092043 -0.025435917 -0.0015082005 -0.025711797 -0.0021784808 -0.003621988 0.092521518
16000000000 -0.018577157 0.017525319 -0.025637642 0.0043481253 -0.025724731 0.0040211715 0.0039839819 0.097547144
16010000000 0.0043228031 -0.017231653 -0.022679411 0.0098238969 -0.022905119 0.0091481116 0.0098060519 0.095273867
16020000000 0.0097719133 -0.059774928 -0.020100851 0.01336787 -0.020586913 0.012991714 0.0040710028 0.09713272
16030000000 -0.0046327268 -0.1053504 -0.017195264 0.017123917 -0.017630314 0.016873436 0.0048723095 0.1009404
16040000000 -0.037168298 -0.14013071 -0.013239816 0.020072699 -0.013485879 0.020071642 0.0045913924 0.093473196
16050000000 -0.080627792 -0.16438964 -0.0088442517 0.022430569 -0.0093059745 0.022207092 0.0039113723 0.091578379
16060000000 -0.12929551 -0.17038617 -0.0036536306 0.02412764 -0.0041975202 0.023978809 0.011454854 0.093807906
16070000000 -0.17518684 -0.16248134 0.0013041701 0.023142118 0.00075183064 0.023287538 0.01719394 0.092470616
16080000000 -0.2131971 -0.14030814 0.005414797 0.02239299 0.0050878539 0.022480479 0.014610849 0.091626115
16090000000 -0.23734802 -0.10917 0.009768975 0.020740241 0.0094883302 0.021064086 0.0094800051 0.094485953
16100000000 -0.2489548 -0.072676666 0.013723934 0.017981647 0.013458814 0.018133631 0.0097556217 0.09004695
16110000000 -0.24587546 -0.036650002 0.016413702 0.014932917 0.016096575 0.01514906 0.011043532 0.08379367
16120000000 -0.22972536 -0.0059019104 0.018699715 0.011477552 0.018618982 0.011772107 0.017850852 0.08266513
16130000000 -0.21012367 0.016991027 0.020227134 0.007855922 0.019932341 0.0082225632 0.026104033 0.084779315
16140000000 -0.18360774 0.032154731 0.021768598 0.0048598279 0.021528814 0.0054109744 0.026284948 0.084327161
16150000000 -0.15421958 0.03846417 0.022929143 0.00047298009 0.022978291 0.0008729049 0.016740503 0.086581238
16160000000 -0.12408837 0.029566087 0.023625735 -0.0048936694 0.023652591 -0.0044179317 0.013512494 0.088946939
16170000000 -0.099652357 0.008450184 0.021266185 -0.010328265 0.021588074 -0.0098908711 0.014439324 0.078601919
16180000000 -0.082981929 -0.028019167 0.018876242 -0.014668575 0.019194886 -0.014172245 0.014914392 0.072386287
16190000000 -0.083349086 -0.071787171 0.014742821 -0.01818 0.01551467 -0.018079298 0.019880312 0.075528845
16200000000 -0.097607262 -0.11824182 0.010491824 -0.020140458 0.010515058 -0.020117182 0.024448168 0.07716611
16210000000 -0.1326575 -0.15817267 0.0067580193 -0.021410182 0.007243502 -0.02090098 0.017944833 0.076052487
16220000000 -0.17725962 -0.18295443 0.0024511896 -0.02274668 0.0033242453 -0.02299023 0.011639699 0.077877671
16230000000 -0.23017484 -0.18924917 -0.0025331508 -0.022923313 -0.0022001304 -0.023195401 0.013374805 0.071377002
16240000000 -0.280898 -0.17364687 -0.0069254944 -0.021638045 -0.0067591034 -0.021740466 0.011561703 0.063410237
16250000000 -0.32203734 -0.14216164 -0.011793217 -0.020023108 -0.011330858 -0.020184677 0.01470932 0.069237426
16260000000 -0.34885645 -0.099304602 -0.015473457 -0.015652254 -0.015303299 -0.016357582 0.020993549 0.072357811
16270000000 -0.36285347 -0.055594519 -0.016597159 -0.012732787 -0.016544186 -0.012827031 0.015358612 0.070438512
16280000000 -0.36308974 -0.01195281 -0.019371336 -0.010072068 -0.018946225 -0.010346699 0.0053579081 0.072373122
16290000000 -0.35566264 0.023551024 -0.020997679 -0.0055517023 -0.020865932 -0.0063284989 0.004691802 0.069462724
16300000000 -0.33552611 0.052156009 -0.021697465 -0.0015927774 -0.021973651 -0.001852343 0.004497977 0.060062926
16310000000 -0.31085911 0.066838503 -0.021747507 0.00301744 -0.021937411 0.0026345386 0.0034784493 0.062865779
16320000000 -0.28160992 0.068042815 -0.020658014 0.0075042564 -0.020629363 0.0071525034 0.0096715018 0.06836994
16330000000 -0.25829294 0.059066549 -0.018518278 0.011133476 -0.01872216 0.010679354 0.0077815391 0.066729762
16340000000 -0.23403458 0.039640456 -0.016532699 0.014135763 -0.016826116 0.0138248 -0.0037707128 0.066981971
16350000000 -0.22422302 0.011561558 -0.013480236 0.0183773 -0.013909816 0.017829256 -0.0050665699 0.069476202
16360000000 -0.22356583 -0.020222988 -0.0089085475 0.020484164 -0.0094976677 0.020637013 -0.0034039905 0.062507741
16370000000 -0.24300992 -0.049265236 -0.0042343908 0.021774082 -0.0046017412 0.021672068 -0.0051905708 0.06217698
16380000000 -0.27174315 -0.068140119 1.858105e-05 0.021917975 -0.00044889655 0.022234965 -0.0023414604 0.068003766
16390000000 -0.31349629 -0.07549037 0.0043008225 0.021220133 0.0041600512 0.021226551 -0.0044981409 0.067052186
16400000000 -0.35532624 -0.067642599 0.0084461607 0.019825589 0.0079863928 0.019899825 -0.013765728 0.06817691
16410000000 -0.39802855 -0.045927837 0.011810124 0.017926976 0.011497788 0.018132575 -0.015643951 0.07236395
16420000000 -0.43024799 -0.01426895 0.015620864 0.015232398 0.015346944 0.015705513 -0.0097368769 0.069138922
16430000000 -0.45076016 0.023453057 0.017556811 0.011505233 0.017684286 0.011903144 -0.0088171195 0.067858033
16440000000 -0.45521536 0.060042381 0.019826517 0.0085466038 0.01957901 0.0087079536 -0.0083263619 0.074266076
16450000000 -0.45150521 0.092416853 0.021886526 0.0045421906 0.021903085 0.0050426023 -0.011158769 0.07532277
16460000000 -0.43523574 0.11839238 0.02262553 -0.00075739948 0.022504961 -0.00039562723 -0.019160749 0.073865712
16470000000 -0.41806632 0.1375567 0.021750091 -0.0052628331 0.021792164 -0.0047504031 -0.021985345 0.074516103
16480000000 -0.39370179 0.14937826 0.020435479 -0.0093990732 0.020795355 -0.0090548955 -0.01776153 0.076230355
16490000000 -0.37272465 0.1546039 0.018580439 -0.014420155 0.018855508 -0.013980239 -0.01169874 0.074657604
16500000000 -0.35137811 0.14907891 0.014702016 -0.01791979 0.015158428 -0.017687893 -0.01320242 0.080159523
16510000000 -0.34228083 0.1357169 0.010626056 -0.02103737 0.011058202 -0.020885658 -0.012395743 0.087776214
16520000000 -0.34373024 0.11864395 0.0050360993 -0.02285721 0.0055486448 -0.022777595 -0.015167516 0.084754378
16530000000 -0.35915703 0.10348464 -0.00018025376 -0.022029757 0.00033783633 -0.022131013 -0.01877835 0.079736367
16540000000 -0.38211104 0.091396429 -0.0039025992 -0.021519233 -0.0033633029 -0.021672709 -0.015995093 0.080303922
16550000000 -0.41360173 0.08887668 -0.0084730815 -0.020868815 -0.0081132464 -0.021313008 -0.0093331411 0.081059784
16560000000 -0.44438398 0.094514295 -0.013164304 -0.018185407 -0.012901258 -0.018557908 -0.0094157755 0.086186402
16570000000 -0.47661853 0.11318552 -0.016315557 -0.014096267 -0.016181616 -0.014590474 -0.0097359885 0.096570186
16580000000 -0.49795955 0.14272457 -0.01855066 -0.01059608 -0.018349346 -0.010966099 -0.0090477439 0.096735641
16590000000 -0.50832522 0.17978224 -0.019526096 -0.0062158243 -0.019746102 -0.0065874285 -0.010827782 0.088458627
16600000000 -0.50420135 0.21527259 -0.02003397 -0.0025129803 -0.02000998 -0.0025774958 -0.01208568 0.084079564
16610000000 -0.49268281 0.24779111 -0.020037089 0.0012442255 -0.019973196 0.00084859692 -0.0052363575 0.087024868
16620000000 -0.47591358 0.27183452 -0.019519743 0.005404796 -0.019784397 0.0050127893 0.00061054528 0.085915864
16630000000 -0.45960119 0.29207048 -0.018288681 0.0088040018 -0.018371142 0.0086145243 -0.0046015531 0.089933068
16640000000 -0.44282764 0.30245709 -0.016551681 0.012702643 -0.01668877 0.01232953 -0.0049925465 0.09462513
16650000000 -0.42924333 0.30672139 -0.013517688 0.016255405 -0.013834616 0.015854148 -0.0034280196 0.089264818
16660000000 -0.42259443 0.3013351 -0.0096451696 0.01907303 -0.0099505866 0.018846862 -0.0066622365 0.08450488
16670000000 -0.42247668 0.29388425 -0.0051306058 0.020944703 -0.005593481 0.020880058 -0.00064598769 0.088804342
16680000000 -0.4324699 0.28488535 0.0002173977 0.021341637 -0.00029376056 0.021271976 0.0090172105 0.086005844
16690000000 -0.44505566 0.28209785 0.0049113659 0.020086292 0.0044353902 0.020277843 0.0047232732 0.084358782
16700000000 -0.46392894 0.28251475 0.0088102575 0.018272001 0.0085013229 0.018704981 0.0010608695 0.089200497
16710000000 -0.48417127 0.29298386 0.012730502 0.015882207 0.012543108 0.015991945 0.0025334107 0.087743007
16720000000 -0.50612557 0.31296113 0.01581396 0.011884277 0.015396847 0.012185296 0.00033991458 0.083242521
16730000000 -0.52085984 0.34495106 0.017137308 0.0077550551 0.017160606 0.0084111225 -0.00046645105 0.084703825
16740000000 -0.52997208 0.38163716 0.017778315 0.003982997 0.018019471 0.0041038231 0.0045029894 0.08359462
16750000000 -0.53019267 0.42036647 0.017797388 -0.00013583805 0.017755151 0.00018493179 0.0034468435 0.076428987
16760000000 -0.52577472 0.45947921 0.016374087 -0.0033354321 0.016501799 -0.0031822454 -0.0029478557 0.076618984
16770000000 -0.5108043 0.49453565 0.014841216 -0.0061942525 0.014984542 -0.0059326007 0.0015601926 0.075788662
16780000000 -0.49234843 0.52281433 0.01321716 -0.0084955376 0.013376446 -0.0083481381 0.0038010664 0.069296107
16790000000 -0.46885699 0.54178947 0.011329982 -0.010317714 0.011457684 -0.010280672 -0.00018209172 0.071137168
16800000000 -0.44721037 0.55280441 0.0095850173 -0.012263742 0.009528527 -0.012110861 -0.00038202293 0.074871749
16810000000 -0.42625156 0.55727971 0.0072235083 -0.014158854 0.0072265803 -0.013986357 -0.0019865427 0.069775902
16820000000 -0.41087002 0.55960637 0.0036556199 -0.015672127 0.0039539291 -0.015630305 -0.010429978 0.066482566
16830000000 -0.39969146 0.55980158 0.00042922469 -0.016243942 0.00059452653 -0.016237874 -0.0069843717 0.069400422
16840000000 -0.3950147 0.56449193 -0.0035486226 -0.015663011 -0.0032684114 -0.015744606 -0.00051906146 0.063108079
16850000000 -0.39424804 0.56942093 -0.0069577266 -0.014299164 -0.0067213429 -0.014362533 -0.0041149063 0.062536627
16860000000 -0.39898887 0.58323175 -0.010087227 -0.012191862 -0.0098063862 -0.012345946 -0.0073820427 0.074078783
16870000000 -0.40555376 0.60059005 -0.01205558 -0.0090061529 -0.012077008 -0.0093040857 -0.0080405828 0.07552091
16880000000 -0.41140205 0.627298 -0.013042029 -0.0056859115 -0.013173619 -0.0058206152 -0.018036962 0.070765741
16890000000 -0.41272277 0.65597039 -0.013043094 -0.0026449454 -0.013140844 -0.0027922713 -0.021747237 0.071571097
16900000000 -0.40770978 0.68665719 -0.01285379 -1.3512094e-05 -0.01283399 -0.00015802914 -0.014699088 0.069150917
16910000000 -0.3974348 0.71597028 -0.01217732 0.002082583 -0.0122153 0.0019841054 -0.013860349 0.065772347
16920000000 -0.37938797 0.74474406 -0.011421596 0.0044073528 -0.011342182 0.0043592285 -0.015958916 0.073444128
16930000000 -0.35544023 0.76962322 -0.0097103938 0.0065099318 -0.0098717269 0.0064241542 -0.016361373 0.077884965
16940000000 -0.32508987 0.79125947 -0.0079029333 0.0077634295 -0.0079587447 0.0077901436 -0.021779645 0.073144399
16950000000 -0.29362619 0.80753064 -0.0060380455 0.0085489508 -0.0061123464 0.0085349791 -0.029189641 0.071883187
16960000000 -0.26186651 0.82086241 -0.0050535901 0.009405382 -0.0050587668 0.0093218703 -0.025611678 0.073606506
16970000000 -0.23190865 0.83104801 -0.0027647479 0.011086074 -0.0029110159 0.010893267 -0.019870494 0.073899455
16980000000 -0.20419344 0.83773839 -2.8339215e-05 0.01072035 -0.00030774716 0.010738085 -0.019476201 0.077887997
16990000000 -0.18218482 0.84231323 0.0018294791 0.010284614 0.0017655056 0.010437541 -0.019499097 0.085154213
17000000000 -0.1647701 0.84587502 0.0040989975 0.0099882651 0.0040564509 0.0099778883 -0.020866452 0.084071912
