!Keysight Technologies,P9374A,MY57211807,A.19.30.04
!Date: Friday, May 01, 2026 14:49:58
!Correction: S11(C  2-Port  ) 
!S21(C  2-Port  ) 
!S12(C  2-Port  ) 
!S22(C  2-Port  ) 
!S2P File: Measurements: S11, S21, S12, S22:
# Hz S  RI   R 50
13000000000 0.12421626 0.070291862 0.015372769 0.024438228 0.015548395 0.02449657 -0.014132664 0.17282726
13010000000 0.10600775 0.047628678 0.019225519 0.019998556 0.019820025 0.02001844 -0.018657438 0.16382357
13020000000 0.082869053 0.030288516 0.02140063 0.016693385 0.021770647 0.016061898 -0.024054818 0.16716883
13030000000 0.056286771 0.022909988 0.024818094 0.013313457 0.024914065 0.013010007 -0.017405562 0.16865422
13040000000 0.028251557 0.019217221 0.028480893 0.0091986749 0.028583148 0.0088153901 -0.018994916 0.16431379
13050000000 -0.00086952507 0.02604096 0.031590939 0.00097477494 0.031619877 0.00043003078 -0.02340297 0.16774823
13060000000 -0.026202867 0.043770865 0.030475033 -0.0066455062 0.030224737 -0.0067546158 -0.023467511 0.17489953
13070000000 -0.042522546 0.074925497 0.027036447 -0.013244305 0.027390499 -0.013412652 -0.014002718 0.1794882
13080000000 -0.042996895 0.10831483 0.023393545 -0.019215606 0.023080999 -0.019842081 -0.0020362884 0.16581386
13090000000 -0.029968102 0.14014152 0.018012594 -0.022011582 0.017626613 -0.022556053 -0.010622784 0.15263274
13100000000 -0.0075822584 0.1664248 0.014158324 -0.025445187 0.013886198 -0.025620537 -0.021264687 0.1634786
13110000000 0.024724387 0.18537247 0.0075526428 -0.028323015 0.0070660464 -0.028234266 -0.011753269 0.17415573
13120000000 0.060549606 0.18906677 0.0011971544 -0.028252978 0.0011317608 -0.028468627 -0.012063764 0.17114623
13130000000 0.09601675 0.17685871 -0.0034428404 -0.027041446 -0.0038039167 -0.027035652 -0.015184069 0.1743128
13140000000 0.12404557 0.15291679 -0.0088926945 -0.026020681 -0.0093840919 -0.026119113 -0.011117432 0.17463504
13150000000 0.13825075 0.12176275 -0.014514101 -0.024678338 -0.014961034 -0.024640184 -0.0043400526 0.17163682
13160000000 0.14348382 0.086749472 -0.019807648 -0.020390593 -0.019865835 -0.020243777 0.00064931065 0.16615245
13170000000 0.13391028 0.053624641 -0.022806076 -0.015291383 -0.023109294 -0.015050535 -0.0015238747 0.16312218
13180000000 0.11815267 0.025024083 -0.02444293 -0.010547835 -0.024607915 -0.010364024 -0.0037927479 0.17037739
13190000000 0.09082327 0.0043248362 -0.025654022 -0.0059906216 -0.025743211 -0.005665957 0.003679635 0.16971156
13200000000 0.061418429 -0.0033616601 -0.027863413 -0.00047731586 -0.027906287 -0.00029582623 -9.8882243e-05 0.1658957
13210000000 0.027905459 -0.00010212883 -0.026228206 0.0059067467 -0.026216744 0.0058770892 -0.0026767626 0.16928387
13220000000 0.0024604653 0.017848635 -0.024518913 0.0088812839 -0.024826482 0.0091502611 0.0047359616 0.179416
13230000000 -0.019206354 0.040130224 -0.024594918 0.01445419 -0.024361599 0.014777118 0.023388848 0.17904992
13240000000 -0.03057049 0.070979841 -0.020258795 0.021136045 -0.020051224 0.021331772 0.027379777 0.16624545
13250000000 -0.035459567 0.10544687 -0.014263124 0.024712678 -0.014023479 0.024687007 0.023088232 0.16360423
13260000000 -0.020844143 0.1403103 -0.0090055577 0.02659118 -0.0089463247 0.026894413 0.021330506 0.16788402
13270000000 0.0037984438 0.16676128 -0.0035975934 0.027959883 -0.0035317698 0.027974455 0.020410899 0.16778573
13280000000 0.04256843 0.18083738 0.0029890537 0.028182106 0.0032941028 0.028226934 0.018899262 0.17037137
13290000000 0.079516567 0.18050566 0.0097240312 0.025271479 0.0096877888 0.025287338 0.023213923 0.17162064
13300000000 0.11952338 0.16438971 0.011866041 0.021775091 0.012322884 0.021900591 0.030726716 0.16581601
13310000000 0.14816612 0.13886742 0.015181612 0.021568915 0.015456884 0.02138794 0.042191401 0.16160351
13320000000 0.16921052 0.10308082 0.021135829 0.018410876 0.021145817 0.018192688 0.052213259 0.15388964
13330000000 0.17451712 0.067712791 0.025515044 0.013394422 0.02584774 0.013415482 0.049188688 0.15144534
13340000000 0.16995247 0.028914355 0.028372999 0.0061466303 0.028490569 0.0058732275 0.046383902 0.15691157
13350000000 0.14713678 -0.0030746534 0.02773919 -0.0010434538 0.027814437 -0.0012504663 0.04144251 0.15516692
13360000000 0.1189701 -0.026149698 0.025232915 -0.0064968718 0.025260739 -0.006808294 0.034721226 0.15782839
13370000000 0.079109356 -0.034297436 0.02240159 -0.010131551 0.022345971 -0.010511827 0.047492933 0.15696639
13380000000 0.046482991 -0.028886002 0.020561751 -0.012631652 0.020540942 -0.01272808 0.06032883 0.13930701
13390000000 0.015373698 -0.013830286 0.019912718 -0.016698858 0.0196045 -0.016970005 0.06204696 0.1317834
13400000000 -0.0035912993 0.0087466678 0.015720483 -0.022393787 0.015781634 -0.022301555 0.058425233 0.13812292
13410000000 -0.015071438 0.037205838 0.0099197952 -0.024573976 0.0099598616 -0.024775652 0.063214704 0.14378817
13420000000 -0.011497788 0.066878214 0.0050433297 -0.025996789 0.0045068637 -0.026274148 0.06049861 0.135548
13430000000 0.0027430058 0.094281524 -0.00095932651 -0.026964307 -0.0011106618 -0.026993543 0.051081821 0.12872218
13440000000 0.030134823 0.11464699 -0.0060594557 -0.025148043 -0.0064443303 -0.025171887 0.054986183 0.12814569
13450000000 0.058799863 0.12374759 -0.011570062 -0.023087641 -0.011741116 -0.023176678 0.069910862 0.12103931
13460000000 0.092042677 0.12112956 -0.014673984 -0.020868249 -0.015014325 -0.020212159 0.071133815 0.11590885
13470000000 0.12082866 0.10682812 -0.018856699 -0.017732874 -0.018878907 -0.0178326 0.070495978 0.1202298
13480000000 0.14610121 0.082016565 -0.022867374 -0.013368255 -0.023227226 -0.013332194 0.065156139 0.11759344
13490000000 0.15760012 0.045983244 -0.024613295 -0.0078391498 -0.025178749 -0.0072099855 0.060710479 0.11962383
13500000000 0.15464628 0.007833086 -0.025569743 -0.0036208704 -0.025279161 -0.0033489298 0.06650243 0.10841287
13510000000 0.13650471 -0.026706245 -0.026371598 0.0021551894 -0.026404582 0.0025438704 0.058761001 0.095676892
13520000000 0.10978767 -0.051039357 -0.024758207 0.0084028114 -0.02478838 0.0087059829 0.058436535 0.10771779
13530000000 0.077830613 -0.063098624 -0.021306593 0.012354372 -0.021282574 0.012518421 0.07310871 0.11289299
13540000000 0.049208559 -0.06545864 -0.018870117 0.014517216 -0.018743256 0.014975749 0.07647837 0.09975747
13550000000 0.018428218 -0.058302917 -0.018640386 0.019351359 -0.018175146 0.019486481 0.060384281 0.091108516
13560000000 -0.0087961042 -0.038804408 -0.012944013 0.025268639 -0.013004292 0.025374157 0.049445666 0.093415514
13570000000 -0.026565934 -0.0082257865 -0.0051853051 0.026538696 -0.0048653586 0.026945494 0.057249911 0.098622665
13580000000 -0.030336456 0.029041762 -0.00069673778 0.025874769 -2.0772684e-05 0.025461107 0.067366652 0.087261841
13590000000 -0.020204375 0.058087356 0.0039968956 0.025104081 0.0041551171 0.02515436 0.059544288 0.083314806
13600000000 -0.0028665289 0.082782052 0.0088713337 0.024301047 0.0093434826 0.024445727 0.055707309 0.091823414
13610000000 0.021294817 0.09625864 0.014215937 0.022014044 0.014585883 0.02163077 0.058173627 0.093631372
13620000000 0.051516753 0.10178652 0.019226791 0.017631397 0.019173494 0.017634695 0.060162403 0.089252025
13630000000 0.08261054 0.091865838 0.021383921 0.014132795 0.021967184 0.013917251 0.059354216 0.079202816
13640000000 0.10996374 0.068900421 0.023735221 0.0094707748 0.023942085 0.008977456 0.049795046 0.079522148
13650000000 0.12526117 0.03613504 0.025043154 0.0038887491 0.025186326 0.0036390917 0.051229388 0.088063814
13660000000 0.13181184 0.0022318433 0.025385072 -0.0009621341 0.025577456 -0.001501923 0.056461953 0.085370734
13670000000 0.1196705 -0.033046275 0.024558421 -0.0059323921 0.024210464 -0.0063090944 0.048346031 0.079779007
13680000000 0.10024638 -0.056537479 0.022438535 -0.011435478 0.022319786 -0.011331243 0.04854564 0.08666566
13690000000 0.067830496 -0.073528446 0.019891348 -0.015043864 0.020002145 -0.015645169 0.061192758 0.08701349
13700000000 0.035500392 -0.075341664 0.015665432 -0.019008147 0.015239589 -0.019085923 0.061005339 0.073400214
13710000000 -0.0010557361 -0.063948542 0.011349464 -0.020654837 0.01138665 -0.020801049 0.050528981 0.079600841
13720000000 -0.027822884 -0.041839741 0.0087133115 -0.021834573 0.0082085803 -0.022417044 0.051566742 0.082853235
13730000000 -0.04666255 -0.015093062 0.0046227868 -0.024950355 0.0040793922 -0.024751093 0.049361873 0.08383128
13740000000 -0.052963141 0.015413437 -0.00097764749 -0.025696203 -0.00069850683 -0.025742039 0.05734577 0.083914243
13750000000 -0.053351346 0.044810932 -0.0072934483 -0.025462233 -0.0079144463 -0.025791813 0.062905438 0.076869622
13760000000 -0.036159892 0.075463548 -0.012833331 -0.022615489 -0.013114993 -0.022321686 0.05940187 0.075788341
13770000000 -0.010104053 0.096731313 -0.016846323 -0.018804362 -0.017015569 -0.018646358 0.057453245 0.08365418
13780000000 0.026765211 0.10736208 -0.019163961 -0.015171036 -0.019807605 -0.014978744 0.060529411 0.083780698
13790000000 0.064141393 0.10528746 -0.022107095 -0.011695248 -0.022312526 -0.011199512 0.059728842 0.078270622
13800000000 0.098378927 0.090788588 -0.025375424 -0.0069346996 -0.025347972 -0.0068126344 0.056770366 0.072395094
13810000000 0.12530249 0.064981669 -0.025749011 -0.00022013998 -0.025966024 0.00032601599 0.062351145 0.072142579
13820000000 0.14200906 0.03183715 -0.024191821 0.0047932738 -0.023943953 0.0050175409 0.066591144 0.070408769
13830000000 0.14335385 -0.008268483 -0.022665983 0.0086509651 -0.022765346 0.0086481469 0.069468737 0.072912142
13840000000 0.12903841 -0.042250328 -0.020983119 0.013127796 -0.020919453 0.013762033 0.068669282 0.07065323
13850000000 0.10346455 -0.074367911 -0.017915342 0.017913705 -0.017493617 0.017909983 0.065474041 0.065887474
13860000000 0.069729194 -0.094443321 -0.012900919 0.021433795 -0.012884762 0.021648509 0.062461302 0.066040769
13870000000 0.029141515 -0.10452174 -0.0085570505 0.023067206 -0.0081269126 0.023370882 0.073578916 0.063354857
13880000000 -0.011193531 -0.096039586 -0.0036959643 0.023310501 -0.0034115752 0.023247357 0.075298592 0.056097552
13890000000 -0.039974641 -0.071671665 0.0014128815 0.023860583 0.0016066385 0.023803463 0.074389517 0.059609197
13900000000 -0.055197418 -0.038787082 0.0054709585 0.022071997 0.0059436653 0.022333156 0.078913093 0.058675356
13910000000 -0.057890847 -0.0081148334 0.0085006617 0.02142043 0.008665815 0.021356259 0.075364694 0.052543059
13920000000 -0.050035868 0.024276711 0.013552638 0.019513685 0.014028538 0.019407311 0.072634913 0.049829863
13930000000 -0.035753183 0.051914819 0.016385779 0.016834578 0.016735341 0.016451988 0.077409454 0.043049254
13940000000 -0.0098183863 0.074034259 0.020068752 0.013586275 0.019847894 0.013109264 0.075434998 0.040993672
13950000000 0.019433379 0.083967648 0.022666132 0.0088788904 0.023139957 0.0090725534 0.080708541 0.045326289
13960000000 0.050696541 0.08142069 0.024370056 0.0040965294 0.024642028 0.0036399355 0.084375262 0.038095675
13970000000 0.07954029 0.066514179 0.025014456 -0.0016219132 0.024729628 -0.0017697793 0.074032292 0.032663859
13980000000 0.1031419 0.040069986 0.022840627 -0.0072179278 0.023165986 -0.0074464194 0.069445975 0.038215347
13990000000 0.11681801 0.0019796938 0.021136504 -0.01042765 0.021006329 -0.010853887 0.079087377 0.033467144
14000000000 0.11785027 -0.038375273 0.019510806 -0.014027569 0.018928802 -0.014190253 0.076777846 0.021232853
14010000000 0.1054283 -0.07801865 0.016860602 -0.018704392 0.017037427 -0.018753691 0.067672797 0.021175142
14020000000 0.082641855 -0.10820898 0.01194028 -0.022618633 0.011731701 -0.022988083 0.064550884 0.025100797
14030000000 0.051858451 -0.12832497 0.0064096572 -0.02376147 0.0059717875 -0.023774493 0.064747036 0.022212856
14040000000 0.013283703 -0.13486233 0.001729669 -0.024745481 0.0013673361 -0.024952386 0.065424368 0.020676164
14050000000 -0.026426166 -0.12576365 -0.0037686219 -0.024436118 -0.0041139284 -0.02438587 0.067251734 0.011380069
14060000000 -0.061192103 -0.10042282 -0.0081086084 -0.022706911 -0.0082018627 -0.022573726 0.058010153 0.0076511996
14070000000 -0.084458999 -0.065676711 -0.012999629 -0.020179348 -0.013600193 -0.020192944 0.053513043 0.015561299
14080000000 -0.094322093 -0.027348153 -0.016324585 -0.016776726 -0.016602606 -0.016446281 0.057418555 0.01239644
14090000000 -0.089755714 0.0067603458 -0.018358963 -0.012972476 -0.018259957 -0.012459648 0.050717402 -0.0014348086
14100000000 -0.074786268 0.034143552 -0.020504046 -0.010029145 -0.021166779 -0.010118186 0.040753074 -0.0020522866
14110000000 -0.051740989 0.050044764 -0.022065956 -0.006992728 -0.022277158 -0.006178597 0.046806373 0.0023195799
14120000000 -0.025648063 0.056933295 -0.025139786 -0.0019105664 -0.024748065 -0.0014968142 0.052351251 8.5104257e-05
14130000000 0.0045610629 0.051342908 -0.024791066 0.0046394547 -0.025110213 0.0046581542 0.047434643 -0.0011533443
14140000000 0.0314909 0.038201626 -0.021689868 0.0098305605 -0.021409648 0.010674205 0.043328565 0.0021515004
14150000000 0.05328555 0.014747946 -0.019036742 0.012808221 -0.018809834 0.013069881 0.037146404 -0.0046395939
14160000000 0.063498355 -0.015646892 -0.016752755 0.015486733 -0.016900776 0.015529959 0.032236002 -0.0032836879
14170000000 0.059987761 -0.047561228 -0.014281612 0.019585229 -0.013589043 0.020073459 0.037807588 -0.0069730338
14180000000 0.042512905 -0.07311853 -0.0091135995 0.022597846 -0.0089401212 0.022665791 0.034052048 -0.0052609975
14190000000 0.014582487 -0.089543492 -0.0044084345 0.023092803 -0.0041394816 0.023231819 0.034405187 0.0026608789
14200000000 -0.017653028 -0.095141701 -0.00039179856 0.023202306 0.00035834033 0.02309634 0.029793646 0.007180756
14210000000 -0.047867265 -0.091671005 0.0043525007 0.023511926 0.0046051899 0.023704521 0.02621197 0.0041963793
14220000000 -0.078834504 -0.082187235 0.0094231069 0.022551116 0.0099844988 0.022679377 0.01731845 -0.0040050223
14230000000 -0.1042465 -0.061927363 0.013637142 0.020975772 0.014231758 0.020306421 0.014200535 -0.0046031629
14240000000 -0.12256074 -0.030544039 0.019070728 0.017586682 0.019088592 0.017571457 0.018612666 -0.0016898508
14250000000 -0.1211745 0.0051498227 0.022178678 0.011747417 0.02260676 0.011191226 0.022313565 -0.0012297863
14260000000 -0.10430191 0.036828782 0.023021597 0.0073382752 0.02309569 0.0066386047 0.018988375 0.0023115836
14270000000 -0.078848988 0.057267383 0.023958623 0.0023947428 0.023913089 0.0024340474 0.012998333 0.0055938773
14280000000 -0.049427312 0.069817588 0.023838041 -0.0019816048 0.024151506 -0.0026027961 0.012555424 0.0068330886
14290000000 -0.016850181 0.072325215 0.023074692 -0.0067679472 0.022558806 -0.0074637127 0.016391389 0.00046399061
14300000000 0.010891899 0.063506067 0.021464176 -0.011198906 0.02146326 -0.011260055 0.015530233 -0.006387243
14310000000 0.032294128 0.042077374 0.018933579 -0.014897436 0.018640835 -0.015547145 0.0093083791 -0.00050029927
14320000000 0.04144229 0.014767389 0.016149847 -0.019436723 0.015788909 -0.019713875 0.010485891 0.011328106
14330000000 0.041165993 -0.014666236 0.010759439 -0.022889355 0.010550294 -0.022859834 0.01575909 0.015278989
14340000000 0.028496645 -0.045716539 0.0055163782 -0.023788763 0.0051951394 -0.024313161 0.017669573 0.0063530281
14350000000 0.0060307793 -0.070044294 0.00083069084 -0.024638111 -7.2635245e-05 -0.024514087 0.0053915754 -0.0017098384
14360000000 -0.025660388 -0.086326718 -0.004361718 -0.023440946 -0.0047292933 -0.023492988 0.0025143358 0.0093446858
14370000000 -0.058516566 -0.087638952 -0.0088122534 -0.022695869 -0.009368171 -0.02266746 0.014020782 0.013740277
14380000000 -0.090233982 -0.074443772 -0.013857011 -0.019683467 -0.014344892 -0.019227318 0.016986918 0.0041777822
14390000000 -0.11199278 -0.046614479 -0.01645587 -0.015945598 -0.016663695 -0.015674824 0.0074199704 0.0042660036
14400000000 -0.12356539 -0.015210453 -0.018225903 -0.013052875 -0.018662084 -0.012784582 0.0072226617 0.0088928426
14410000000 -0.12154679 0.021974351 -0.020954529 -0.010013464 -0.021274554 -0.0094594778 0.01341103 0.0061942991
14420000000 -0.11132526 0.055956952 -0.023532476 -0.0055541289 -0.023585601 -0.0051972801 0.0099370899 0.0013533175
14430000000 -0.087227196 0.08224047 -0.024297973 -8.9787725e-05 -0.024336284 0.00053237873 0.0090165548 0.0068636322
14440000000 -0.059955075 0.099882111 -0.023676846 0.0056950487 -0.023481088 0.0058768946 0.0087440535 0.0097240303
14450000000 -0.024993908 0.10137111 -0.021350294 0.010108748 -0.021323331 0.010640451 0.012012761 0.0088017881
14460000000 0.0064330101 0.09051156 -0.018827334 0.013145021 -0.018755686 0.013787424 0.013334588 -0.0024766978
14470000000 0.0339595 0.065210648 -0.016226532 0.016364822 -0.015561196 0.016594062 0.0043093585 -0.0069840178
14480000000 0.050946739 0.033086501 -0.013374887 0.020387627 -0.013191941 0.020400133 0.0037318149 0.00074435491
14490000000 0.05864447 -0.0052730786 -0.0085890926 0.022546763 -0.0083945636 0.02328283 0.010986449 0.0059818467
14500000000 0.052642353 -0.042611789 -0.0036150501 0.024751686 -0.0027699405 0.024712387 0.0086053563 -0.00087168562
14510000000 0.035430476 -0.075617768 0.0019307248 0.024900528 0.002073684 0.02469008 -0.00062371593 0.0010142886
14520000000 0.0034598708 -0.098831967 0.0069546578 0.023305396 0.00759177 0.023348192 0.0034902354 0.0011770931
14530000000 -0.034978248 -0.10856323 0.012413386 0.022198197 0.012659922 0.021985747 0.0082214512 -0.0096235611
14540000000 -0.07624238 -0.10223641 0.017125899 0.017326441 0.017489614 0.017065171 0.0038001258 -0.015824599
14550000000 -0.11643045 -0.082350776 0.018792372 0.01275733 0.019204075 0.012304477 -0.0027936974 -0.0076402705
14560000000 -0.14522001 -0.047205463 0.020046582 0.0093737813 0.020011367 0.0092070429 -0.0020564604 0.0014239905
14570000000 -0.16151641 -0.010004763 0.022146573 0.0055887336 0.022696432 0.005294092 -0.0014491067 0.00013379808
14580000000 -0.1623091 0.03216875 0.022436731 0.00058295857 0.022573132 -8.4381783e-05 -0.0054275407 -0.010181667
14590000000 -0.1459818 0.066370234 0.022127144 -0.0036817202 0.021854671 -0.0039326386 -0.013124567 -0.015695669
14600000000 -0.11765663 0.094683215 0.020782325 -0.0077098999 0.020807238 -0.0079073161 -0.012289204 -0.013850478
14610000000 -0.080406822 0.10350266 0.018418152 -0.011426037 0.018364048 -0.011994021 -0.0097856568 -0.014625529
14620000000 -0.045585051 0.10550199 0.016445126 -0.014056953 0.016042316 -0.01426379 -0.016847447 -0.0094248019
14630000000 -0.012613428 0.094526231 0.013860056 -0.01800096 0.013579767 -0.018133044 -0.016558213 -0.0020471734
14640000000 0.022485882 0.07200826 0.0093116732 -0.021413587 0.00917779 -0.021770345 -0.016966216 -0.009137243
14650000000 0.039605469 0.039295856 0.0034175653 -0.021987736 0.0030224018 -0.021924082 -0.023094418 -0.018203953
14660000000 0.042208336 0.0037856968 4.6840869e-05 -0.021613788 -0.00011722557 -0.021438511 -0.031282723 -0.02222202
14670000000 0.025058096 -0.028882867 -0.0036261338 -0.021587403 -0.0036224769 -0.021769837 -0.037034348 -0.012989953
14680000000 0.0033163764 -0.054319575 -0.0077278982 -0.021212377 -0.0083288364 -0.021257263 -0.033621527 -0.0010138173
14690000000 -0.030704305 -0.073737331 -0.012246611 -0.019744784 -0.012183935 -0.01921 -0.028408159 -0.00038761646
14700000000 -0.064502865 -0.082024962 -0.017311899 -0.016524117 -0.017350057 -0.016698517 -0.033494394 -0.0072526196
14710000000 -0.10623262 -0.081128791 -0.020335833 -0.012498701 -0.020730166 -0.012477237 -0.040247779 -0.0087920735
14720000000 -0.14021438 -0.063980184 -0.022532891 -0.0071108434 -0.022622695 -0.006706134 -0.041958809 -0.0089326724
14730000000 -0.17064378 -0.032200929 -0.022358235 -0.0017244406 -0.022163644 -0.0017143474 -0.04692791 -0.0088249091
14740000000 -0.178765 0.0088482425 -0.020857835 0.0013606558 -0.021161813 0.0011808546 -0.054787822 0.00040647388
14750000000 -0.17721787 0.050196663 -0.022272414 0.0046884082 -0.02247287 0.0052004261 -0.052822866 0.013153462
14760000000 -0.15823729 0.08669664 -0.021303758 0.010963323 -0.020976117 0.011080526 -0.045913648 0.0093533676
14770000000 -0.13466625 0.11922032 -0.017295334 0.015122246 -0.017476819 0.015081957 -0.051402897 0.0019122725
14780000000 -0.098388791 0.13775502 -0.013532162 0.017336614 -0.013770582 0.017512079 -0.054313067 0.0085542835
14790000000 -0.064111136 0.14468011 -0.0094375052 0.020115916 -0.0091951378 0.020259723 -0.050862294 0.0094501134
14800000000 -0.02889334 0.13195059 -0.0049304673 0.020907318 -0.0047600474 0.020817703 -0.059617478 0.012458707
14810000000 -0.0083971508 0.11109633 -0.0013814466 0.019677889 -0.0016319826 0.019879114 -0.062755026 0.021701589
14820000000 0.006603267 0.082927361 0.00059659127 0.020774182 0.0010592807 0.021032836 -0.062582657 0.022887893
14830000000 0.0069842469 0.053795096 0.0055594048 0.021637369 0.00578378 0.021361753 -0.061791405 0.022452408
14840000000 0.0032106175 0.022767425 0.011297856 0.020154348 0.010929966 0.020093258 -0.058761921 0.023921244
14850000000 -0.011434987 -0.00028392405 0.014725298 0.016134964 0.014880293 0.016387964 -0.055729952 0.026857853
14860000000 -0.034595404 -0.018575698 0.016781248 0.013020585 0.017155152 0.012881904 -0.058945782 0.033355467
14870000000 -0.061934978 -0.018485658 0.019046193 0.010146613 0.018834025 0.010017312 -0.059733797 0.042948488
14880000000 -0.083699353 -0.01007605 0.021046359 0.0060465722 0.0211493 0.0061996616 -0.056584693 0.0397816
14890000000 -0.10445197 0.010604501 0.022250939 0.0013980176 0.022402089 0.0012536235 -0.060354233 0.031780809
14900000000 -0.11663543 0.033937149 0.021807821 -0.0033121454 0.021691095 -0.0031830161 -0.062842257 0.035572391
14910000000 -0.12423544 0.065866455 0.020077817 -0.0077010412 0.020076485 -0.0075653903 -0.055040177 0.044463627
14920000000 -0.12009662 0.095468886 0.018197114 -0.010753606 0.018587567 -0.010716781 -0.050519664 0.049024753
14930000000 -0.10482236 0.12513675 0.016131986 -0.014283404 0.016271653 -0.014499173 -0.053458966 0.057118349
14940000000 -0.077958286 0.13896009 0.01334934 -0.016639899 0.013034619 -0.016746465 -0.047060117 0.060986213
14950000000 -0.047624838 0.14068265 0.010595564 -0.020212477 0.010839079 -0.019952677 -0.045675654 0.045954745
14960000000 -0.022902802 0.13014169 0.0046935021 -0.023490582 0.0049288464 -0.023723496 -0.052570004 0.040422685
14970000000 -0.00068851374 0.11530263 -0.0014798902 -0.021969071 -0.0016030772 -0.021894727 -0.053617999 0.047115359
14980000000 0.017042849 0.093759649 -0.0039902222 -0.02014879 -0.0038647824 -0.020104686 -0.046400402 0.059980284
14990000000 0.030300613 0.066555835 -0.0074941171 -0.019865917 -0.0073007694 -0.019982839 -0.041010462 0.065127045
15000000000 0.029638669 0.036677256 -0.011562234 -0.018354351 -0.011579206 -0.018619988 -0.040437274 0.065562114
15010000000 0.017385341 0.015441569 -0.014792864 -0.016419936 -0.014772821 -0.016267577 -0.038650017 0.060451165
15020000000 -0.0044582183 -0.0007889698 -0.018456172 -0.01406883 -0.018162725 -0.014331192 -0.037497632 0.048670281
15030000000 -0.028335817 -0.0014484692 -0.023179995 -0.0091879088 -0.023196429 -0.0095795412 -0.039356843 0.043819323
15040000000 -0.052722581 0.002232465 -0.024214586 -0.0015499862 -0.0244547 -0.0016845972 -0.04073355 0.048107959
15050000000 -0.075114459 0.015482716 -0.021715073 0.0038166181 -0.021687033 0.0037417966 -0.040002361 0.061697938
15060000000 -0.093934767 0.036368351 -0.019274589 0.0068127471 -0.019173436 0.0064102132 -0.035358757 0.068235785
15070000000 -0.10079757 0.062790371 -0.017049545 0.0087913703 -0.017457651 0.0086301696 -0.031362005 0.062077552
15080000000 -0.095447309 0.090730801 -0.016515784 0.0103679 -0.016789477 0.010542737 -0.033099502 0.047444418
15090000000 -0.073984869 0.10908853 -0.015726808 0.0150104 -0.015654515 0.014786838 -0.039821867 0.043764584
15100000000 -0.049528245 0.12031563 -0.012500001 0.019443547 -0.012815797 0.01935761 -0.033866547 0.046962831
15110000000 -0.019734088 0.12091983 -0.0069639981 0.022490913 -0.0072432384 0.02264923 -0.031210966 0.045796253
15120000000 0.0090500712 0.11086533 -0.00040301462 0.022965664 -0.00027125704 0.02299358 -0.037225608 0.049275413
15130000000 0.033923075 0.091539711 0.0042385431 0.019317031 0.0039678705 0.019238625 -0.041331276 0.058527306
15140000000 0.047532916 0.064488932 0.0052847709 0.017710401 0.0050410521 0.017854296 -0.036481369 0.056900598
15150000000 0.04821451 0.034798272 0.007501292 0.018135613 0.0073311678 0.018389257 -0.036384422 0.046223924
15160000000 0.03698897 0.0090861954 0.012050553 0.01799267 0.011917157 0.017957561 -0.042671707 0.047715686
15170000000 0.018012984 -0.012601702 0.016562471 0.015474536 0.016190542 0.015772983 -0.038233582 0.050875612
15180000000 -0.0085928049 -0.027699258 0.020406812 0.011258343 0.020401742 0.011536608 -0.039100341 0.048435673
15190000000 -0.038838614 -0.033898141 0.022227004 0.0054102652 0.022296602 0.0056065982 -0.04759749 0.048567031
15200000000 -0.072153203 -0.029035494 0.02157571 0.00065830396 0.021391796 0.0011168257 -0.052562706 0.052467015
15210000000 -0.099374808 -0.014940158 0.020709835 -0.0035321671 0.020966379 -0.003103361 -0.051949702 0.052834917
15220000000 -0.12108435 0.010589592 0.019812308 -0.0066245603 0.020060908 -0.0065453881 -0.053198341 0.055805773
15230000000 -0.13000724 0.040198933 0.018455761 -0.010731732 0.01848061 -0.010636572 -0.047667786 0.062562734
15240000000 -0.13001601 0.074324444 0.015904775 -0.014016047 0.016130269 -0.01352134 -0.044943735 0.05853764
15250000000 -0.11729263 0.10810675 0.013257211 -0.017608916 0.013902772 -0.017586173 -0.050470494 0.058953695
15260000000 -0.092367187 0.13989975 0.0087665059 -0.020072004 0.0089549422 -0.020213889 -0.051237259 0.060175665
15270000000 -0.055989549 0.15828891 0.003831483 -0.021330757 0.0040103998 -0.021080995 -0.052496165 0.059356343
15280000000 -0.01342614 0.16423815 -0.00077952072 -0.021358609 -0.00017910451 -0.021564379 -0.061451644 0.062830947
15290000000 0.024317902 0.14872752 -0.0047258162 -0.019582398 -0.0046539581 -0.019891562 -0.062615775 0.077961899
15300000000 0.054184381 0.12205953 -0.0075091356 -0.018774899 -0.007354138 -0.018716205 -0.056615084 0.08282093
15310000000 0.068564333 0.085998684 -0.011741605 -0.017429203 -0.01151857 -0.017679047 -0.055469465 0.079711057
15320000000 0.070263669 0.049560934 -0.015165939 -0.013958489 -0.015167939 -0.014214873 -0.052971017 0.077763818
15330000000 0.059799399 0.013858551 -0.016878564 -0.010421875 -0.016748579 -0.010681724 -0.047991205 0.07411243
15340000000 0.037505072 -0.014931927 -0.018205252 -0.0071766069 -0.018285019 -0.0072609959 -0.050943829 0.072712891
15350000000 0.0076317945 -0.034016483 -0.019093357 -0.0037130588 -0.018941185 -0.0040720245 -0.057264511 0.083834782
15360000000 -0.0233864 -0.038888831 -0.019583959 -0.00093079079 -0.019800421 -0.0011778455 -0.056659471 0.097761273
15370000000 -0.054897837 -0.033490933 -0.020131502 0.0033017155 -0.020122284 0.0032248329 -0.052441008 0.10110778
15380000000 -0.081047051 -0.016995961 -0.019378217 0.0074172071 -0.019395582 0.0070585613 -0.049182668 0.098214217
15390000000 -0.10312347 0.0067673288 -0.017478436 0.011472398 -0.017703293 0.011150933 -0.042135902 0.094406731
15400000000 -0.11506732 0.039115839 -0.014821872 0.0150933 -0.015054734 0.015034115 -0.038351558 0.089545764
15410000000 -0.11508528 0.075288787 -0.01093432 0.017749678 -0.011162562 0.017552942 -0.041571237 0.094450518
15420000000 -0.103098 0.10991016 -0.0069153709 0.019078089 -0.0074318298 0.018963389 -0.039972994 0.10439862
15430000000 -0.079206288 0.13774252 -0.0041174982 0.019950407 -0.0044662766 0.019720711 -0.039038748 0.10613322
15440000000 -0.045650203 0.15913066 0.00035680551 0.021109186 6.776955e-05 0.021271583 -0.04008095 0.10611723
15450000000 -0.0016988032 0.16433308 0.0051093679 0.020473886 0.0046920814 0.020518605 -0.032736175 0.10356798
15460000000 0.041620586 0.15551722 0.0088257473 0.018779041 0.0084933303 0.018909067 -0.024466742 0.098613776
15470000000 0.081125207 0.12777634 0.012857144 0.017013626 0.012559475 0.017437015 -0.023201765 0.099267967
15480000000 0.10507801 0.087246127 0.015803257 0.013185116 0.015628254 0.013430365 -0.021543197 0.10893107
15490000000 0.11442809 0.043365102 0.017612278 0.010539915 0.017452022 0.010909503 -0.015066698 0.11318359
15500000000 0.10509926 0.0014487244 0.02014393 0.0070297676 0.020153554 0.0072459797 -0.014089234 0.10552526
15510000000 0.086564139 -0.035094522 0.021508839 0.0019091126 0.021597547 0.0023159077 -0.019189831 0.10407144
15520000000 0.054808814 -0.058542848 0.020918513 -0.0028210264 0.021059116 -0.002539848 -0.013197977 0.10511892
15530000000 0.018079625 -0.073300086 0.018930748 -0.0070111067 0.019168245 -0.0067397449 -0.010701024 0.10135061
15540000000 -0.020529918 -0.070167951 0.017222803 -0.0097643975 0.017166626 -0.0096040647 -0.014343472 0.10649701
15550000000 -0.052021164 -0.058410253 0.014985851 -0.012469949 0.015132721 -0.012232503 -0.0084633157 0.11160814
15560000000 -0.075839132 -0.034215249 0.01270438 -0.015103876 0.01284554 -0.015045105 -0.0026377849 0.10399438
15570000000 -0.089104399 -0.007577911 0.0098062567 -0.017338313 0.010244979 -0.017182775 -0.0043890178 0.096644275
15580000000 -0.092273287 0.022050489 0.0059145759 -0.019829564 0.0063162157 -0.019850757 -0.0022409745 0.096699834
15590000000 -0.080895841 0.050939519 0.0016444246 -0.020365451 0.0017670975 -0.020439019 9.9495053e-05 0.094850332
15600000000 -0.061628394 0.076845907 -0.0023660907 -0.020230168 -0.0020485446 -0.020094192 -0.0033509657 0.095987506
15610000000 -0.028917421 0.090040565 -0.0066910256 -0.019300271 -0.0063540791 -0.019437527 -0.0049955677 0.10068945
15620000000 0.0031197369 0.092618659 -0.0096096164 -0.016820678 -0.009309506 -0.016914433 -0.00043827854 0.10072446
15630000000 0.036779847 0.079301782 -0.012699483 -0.015860682 -0.012483793 -0.016043274 0.0045090914 0.091967985
15640000000 0.060910016 0.058401607 -0.015899695 -0.012604507 -0.015945645 -0.012925874 0.0038377121 0.089829899
15650000000 0.078116365 0.024522573 -0.018231206 -0.0092817768 -0.01804702 -0.0095016081 0.0068193004 0.090506971
15660000000 0.079094887 -0.0096433256 -0.019814353 -0.006158933 -0.019684359 -0.0064764693 0.0039829612 0.085432947
15670000000 0.068960793 -0.04876624 -0.022012338 -0.0017422497 -0.02206549 -0.00198184 -0.0060009118 0.085202344
15680000000 0.043716721 -0.076785438 -0.021615408 0.0042087431 -0.021585938 0.0038306052 -0.0062235305 0.087217778
15690000000 0.011795783 -0.098143421 -0.018606413 0.0084177274 -0.018824603 0.0079953726 -0.002300214 0.081832722
15700000000 -0.02204646 -0.10245889 -0.017080028 0.010903984 -0.017401299 0.010661955 0.0024657696 0.083861254
15710000000 -0.055232942 -0.099021167 -0.014694595 0.014136798 -0.014833721 0.014053568 0.011391692 0.08562512
15720000000 -0.081973374 -0.082763255 -0.01174376 0.016523968 -0.012056003 0.016452767 0.0089257807 0.079929143
15730000000 -0.10065442 -0.060639121 -0.0084836595 0.018974429 -0.0086690634 0.018704848 -0.0050365981 0.078857251
15740000000 -0.10836726 -0.031768341 -0.0039465786 0.020560348 -0.0044674473 0.020357275 -0.0084472345 0.082411155
15750000000 -0.10581744 -0.0043156203 -0.0004895234 0.020188337 -0.00066098559 0.020315742 -0.0048850863 0.076476358
15760000000 -0.095343031 0.021700155 0.00338265 0.021180866 0.0032849642 0.021240834 -0.00359747 0.074160025
15770000000 -0.076483808 0.040965464 0.0091400202 0.020245017 0.0088111237 0.020336309 -0.0011175014 0.081880495
15780000000 -0.049913991 0.051805697 0.012898565 0.01672354 0.012741951 0.016927859 0.00239769 0.086484261
15790000000 -0.022193221 0.048984922 0.015589893 0.013713417 0.015349676 0.013759302 -0.0046523176 0.083353668
15800000000 0.0042051692 0.032869909 0.017822994 0.0099605583 0.017658731 0.010299891 -0.013725206 0.082663767
15810000000 0.021540862 0.0046044523 0.018735345 0.0066164793 0.018905945 0.0070723584 -0.0091388458 0.080334499
15820000000 0.027582353 -0.030206699 0.01977082 0.0033926396 0.01974114 0.0034489064 -0.0059120352 0.069380894
15830000000 0.018435206 -0.06531319 0.021266991 -0.0002057082 0.021351719 5.3002499e-05 -0.0085715726 0.072753534
15840000000 0.00065664202 -0.0940516 0.021230489 -0.0058814702 0.021429945 -0.0056411866 -0.0058945492 0.084020913
15850000000 -0.027632676 -0.11505473 0.01828498 -0.010462834 0.018305132 -0.010371926 -0.0065371878 0.087564349
15860000000 -0.060576309 -0.12221542 0.015228727 -0.012862186 0.015439093 -0.012612095 -0.012582649 0.090580441
15870000000 -0.093519539 -0.11640994 0.012759318 -0.015306611 0.013068341 -0.01528906 -0.0076950621 0.091492102
15880000000 -0.11962518 -0.098407865 0.0094529539 -0.017227925 0.0097002238 -0.017159063 -0.00070054084 0.081600718
15890000000 -0.13891551 -0.073364668 0.0067970683 -0.01921496 0.0071207355 -0.01909429 -0.0056972173 0.077305183
15900000000 -0.14810063 -0.045267355 0.0024184003 -0.021138012 0.002657895 -0.021123266 -0.0058836509 0.087092504
15910000000 -0.15119654 -0.017525993 -0.0022869073 -0.020530175 -0.001969025 -0.020592496 -0.0043871216 0.089104511
15920000000 -0.14412858 0.0085570663 -0.0058910907 -0.020028193 -0.0055990485 -0.020161171 -0.010423537 0.0919092
15930000000 -0.12787224 0.030536797 -0.010253323 -0.018546328 -0.010134829 -0.018559385 -0.0090985149 0.099184334
15940000000 -0.10296021 0.042418901 -0.013870299 -0.01577225 -0.013620001 -0.015972938 0.00036576018 0.097018272
15950000000 -0.074600704 0.043577749 -0.016983714 -0.013282062 -0.016827893 -0.013498289 0.00036325492 0.089191638
15960000000 -0.043118581 0.031342074 -0.020028535 -0.0091559589 -0.019807007 -0.0094080186 -0.0038662041 0.093272716
15970000000 -0.017889639 0.0073106471 -0.021131413 -0.0038133245 -0.021052623 -0.0041884347 -0.0016522575 0.094767101
15980000000 -0.00068886019 -0.026598893 -0.020965584 -9.7448006e-05 -0.02095332 -0.0005011661 -0.0026021488 0.089605786
15990000000 0.0031983275 -0.063511029 -0.020356888 0.0047690189 -0.020543862 0.0045178044 -0.0042011626 0.092242643
16000000000 -0.0095093213 -0.10318027 -0.018494163 0.0083786156 -0.01868704 0.0082325917 0.0032448173 0.097201534
16010000000 -0.037337046 -0.13251738 -0.016575903 0.011307646 -0.016743761 0.011009155 0.0092071593 0.095966376
16020000000 -0.076593369 -0.14829552 -0.014429406 0.014714204 -0.01473259 0.014612936 0.005222952 0.097549744
16030000000 -0.11854885 -0.14991826 -0.010718009 0.017380087 -0.010995114 0.017373389 0.0056393566 0.10042662
16040000000 -0.15585098 -0.13592333 -0.0069443854 0.01936356 -0.0072125751 0.019175189 0.0052341782 0.092797421
16050000000 -0.1849914 -0.11599115 -0.0024905 0.02021756 -0.0029289024 0.020144593 0.0043966584 0.090246342
16060000000 -0.20560396 -0.090408534 0.0019478956 0.019701652 0.0016437694 0.019912986 0.01068005 0.092367858
16070000000 -0.21673624 -0.062529936 0.0050260937 0.018270165 0.0048928121 0.018224329 0.016636856 0.092593759
16080000000 -0.21646433 -0.034169137 0.0079456083 0.017042715 0.0075549344 0.017281372 0.014826316 0.091474786
16090000000 -0.2040958 -0.010925936 0.011116453 0.016139979 0.011099054 0.016118085 0.0093161417 0.09424118
16100000000 -0.18493962 0.0071966005 0.014825789 0.013346176 0.014471095 0.013482981 0.0099534094 0.090515912
16110000000 -0.15903291 0.015511498 0.017281823 0.0099553 0.017012814 0.010231761 0.01127303 0.083325833
16120000000 -0.13253653 0.015878838 0.018198669 0.0060946024 0.018153943 0.0063599376 0.017484235 0.082133286
16130000000 -0.10693352 0.0055902302 0.019137874 0.0028667338 0.019050505 0.0030481545 0.025841726 0.084582053
16140000000 -0.088196129 -0.014050039 0.019693086 -0.00052157417 0.019695569 -0.0001799725 0.026721239 0.083311141
16150000000 -0.07695803 -0.042483881 0.020047328 -0.0044928668 0.019991318 -0.0041191066 0.015844753 0.085173562
16160000000 -0.080013394 -0.07845702 0.019225651 -0.0095792795 0.019503715 -0.0092079816 0.012411883 0.089237519
16170000000 -0.099453807 -0.11402169 0.015975021 -0.013799455 0.016334629 -0.013716044 0.014944786 0.079260714
16180000000 -0.13310406 -0.14360946 0.012524625 -0.017240889 0.012800809 -0.016995527 0.015012605 0.072003923
16190000000 -0.17687511 -0.16135579 0.0073581156 -0.019351853 0.0078501441 -0.019307874 0.019606704 0.075435266
16200000000 -0.22063611 -0.16122539 0.0027517024 -0.018534314 0.0030679828 -0.018663365 0.024936365 0.077246509
16210000000 -0.26089582 -0.14906587 0.0011170693 -0.01788687 0.0012103994 -0.017919416 0.018786428 0.075154349
16220000000 -0.29009128 -0.12354018 -0.0024423744 -0.019010052 -0.0020436719 -0.019166369 0.011640856 0.077353805
16230000000 -0.30782515 -0.09360493 -0.0064036213 -0.018216794 -0.0062701604 -0.018347407 0.013995433 0.070972808
16240000000 -0.31443432 -0.059908748 -0.010041934 -0.016883317 -0.009748105 -0.017033182 0.011354588 0.062160596
16250000000 -0.31304836 -0.030835867 -0.013954222 -0.014692875 -0.013916439 -0.014807209 0.013330868 0.068636544
16260000000 -0.30318004 -0.0013008714 -0.016592361 -0.010369198 -0.016520828 -0.010547817 0.020407515 0.073121831
16270000000 -0.28961799 0.019199744 -0.017041005 -0.0065906411 -0.016908161 -0.0069815437 0.016171526 0.070917919
16280000000 -0.26840532 0.035067759 -0.018013407 -0.0040188329 -0.018042177 -0.0042666914 0.0059023071 0.072115093
16290000000 -0.25067329 0.033711325 -0.018405059 -0.00035913265 -0.018365644 -0.00062096282 0.0052916221 0.069118083
16300000000 -0.23233913 0.025096236 -0.018467249 0.0028431027 -0.018553387 0.0025933699 0.0049161324 0.058934335
16310000000 -0.22515985 0.0029933639 -0.018220726 0.0067280559 -0.018327868 0.0064080837 0.0026523662 0.061420966
16320000000 -0.22371288 -0.020322353 -0.016260473 0.010773858 -0.016479248 0.010637492 0.0088170618 0.06792824
16330000000 -0.2353344 -0.047460712 -0.013541077 0.013930613 -0.01393607 0.01351867 0.0080749355 0.066604696
16340000000 -0.25189042 -0.068438351 -0.010774042 0.015954088 -0.010914715 0.015974097 -0.0036453605 0.066539064
16350000000 -0.28270483 -0.084755152 -0.0070093097 0.019034911 -0.0071867472 0.01882172 -0.0057406034 0.069547728
16360000000 -0.31622082 -0.086793877 -0.0021718873 0.019116133 -0.002657885 0.019222051 -0.0031559756 0.062986508
16370000000 -0.35501587 -0.073112532 0.0015684535 0.018529212 0.0013143379 0.018689441 -0.0043932586 0.062017422
16380000000 -0.38254374 -0.045294352 0.0043883487 0.017913194 0.0043265596 0.018000647 -0.0018967846 0.06752684
16390000000 -0.40368277 -0.012053624 0.0075582154 0.016902288 0.007377299 0.016951377 -0.0037649516 0.066281289
16400000000 -0.41113997 0.022695303 0.011035452 0.015487673 0.010973715 0.015656095 -0.013599532 0.066994831
16410000000 -0.41574275 0.053799942 0.01400876 0.01321974 0.013809952 0.013453302 -0.016794676 0.071466081
16420000000 -0.40994811 0.082665175 0.01726339 0.010207646 0.01717018 0.010413672 -0.010893553 0.069944412
16430000000 -0.39873874 0.10228539 0.018664166 0.0057523921 0.018592628 0.0059171463 -0.0085330177 0.068319067
16440000000 -0.38074356 0.11370149 0.019393682 0.0022056629 0.019366099 0.0025506504 -0.008015682 0.073777102
16450000000 -0.36611721 0.11560434 0.020069694 -0.0016164905 0.020158378 -0.0014839834 -0.010381773 0.07504613
16460000000 -0.34781188 0.11229963 0.019322108 -0.0067776674 0.019275907 -0.0065706614 -0.018152812 0.073277801
16470000000 -0.33649617 0.10063475 0.016784014 -0.010693782 0.016933516 -0.010295546 -0.021981975 0.074008547
16480000000 -0.3292073 0.084257409 0.014073695 -0.013234759 0.014384227 -0.013200466 -0.01807336 0.075922742
16490000000 -0.33704153 0.066655442 0.01151901 -0.016336456 0.011777978 -0.016212538 -0.011737544 0.074386902
16500000000 -0.35304636 0.053969875 0.0077194446 -0.018243456 0.0079553863 -0.018188844 -0.013186889 0.079284422
16510000000 -0.3826879 0.048633844 0.0036750208 -0.020003172 0.0039561829 -0.019988241 -0.01320165 0.088032879
16520000000 -0.41422489 0.055755962 -0.0014698941 -0.020041266 -0.0011443293 -0.02003096 -0.014646741 0.086002432
16530000000 -0.44875723 0.073420137 -0.0057056905 -0.018309385 -0.0054449528 -0.0184568 -0.01746442 0.079896502
16540000000 -0.47417864 0.10017805 -0.0087504918 -0.016226046 -0.0084023857 -0.016402602 -0.015781324 0.079462565
16550000000 -0.49433586 0.1321547 -0.011547783 -0.014242221 -0.011354848 -0.014649185 -0.0091228001 0.080067836
16560000000 -0.50021476 0.16568226 -0.013931946 -0.011764572 -0.014068108 -0.011992751 -0.0094860606 0.084861562
16570000000 -0.49856687 0.19851556 -0.016245194 -0.0087451804 -0.015943419 -0.0088660019 -0.010466332 0.095942736
16580000000 -0.48310524 0.22684398 -0.017433623 -0.0051724287 -0.017389538 -0.005602276 -0.0089866351 0.097137257
16590000000 -0.46369642 0.24687767 -0.01793916 -0.0018513342 -0.017960655 -0.0019022524 -0.01011128 0.088645346
16600000000 -0.44055781 0.25914124 -0.018279368 0.0018278896 -0.01824058 0.0015938506 -0.012077361 0.083153293
16610000000 -0.42077523 0.26415065 -0.017324042 0.0056301276 -0.017402861 0.0052954876 -0.005730737 0.086516961
16620000000 -0.40418345 0.26214597 -0.01639507 0.0092497263 -0.016481055 0.0089360802 0.00089091063 0.085844517
16630000000 -0.39653277 0.25677806 -0.014130729 0.012969677 -0.014439121 0.012682445 -0.0041575562 0.089262955
16640000000 -0.39822096 0.24648085 -0.010900864 0.015869372 -0.010946645 0.015722685 -0.005475169 0.094405599
16650000000 -0.41019103 0.23863706 -0.0068705212 0.017974449 -0.0073644761 0.017688869 -0.0037050529 0.089778751
16660000000 -0.42983568 0.23288213 -0.0022609902 0.019000893 -0.0028423127 0.018932048 -0.0068948325 0.084450208
16670000000 -0.45578939 0.23283049 0.0020519723 0.01883721 0.0017517623 0.018955901 -0.00094985589 0.089322224
16680000000 -0.48516417 0.24153313 0.0063299169 0.017010812 0.0058639692 0.016984303 0.010269489 0.086975656
16690000000 -0.51257342 0.262115 0.0092644002 0.01464407 0.008920854 0.015195854 0.0064425059 0.083725125
16700000000 -0.53193361 0.29178578 0.011933221 0.012534196 0.011805926 0.012773748 0.0017942041 0.088199563
16710000000 -0.54274559 0.32791084 0.014279823 0.0092562195 0.014191443 0.0094210152 0.0024120593 0.086777769
16720000000 -0.54359603 0.36765012 0.015399725 0.0054743751 0.015234902 0.0057681627 -0.00021056272 0.082687698
16730000000 -0.53416795 0.40776655 0.015416456 0.0024076407 0.015381314 0.0025728047 -0.00075907633 0.084535919
16740000000 -0.51765043 0.44334298 0.014975747 -0.00079274829 0.014971111 -0.00047992356 0.0049850792 0.083314523
16750000000 -0.49613383 0.47160298 0.014252686 -0.0034799133 0.01438741 -0.0032978193 0.004308261 0.075812034
16760000000 -0.47489625 0.49243125 0.013295526 -0.0056898035 0.013262138 -0.0056231786 -0.0027356371 0.075912572
16770000000 -0.45270348 0.50420827 0.011902198 -0.0082608033 0.012046659 -0.0080217635 0.0012463927 0.075525448
16780000000 -0.4367702 0.5093472 0.0098879868 -0.010408359 0.0099720601 -0.010412199 0.0036339108 0.069225788
16790000000 -0.42512798 0.50797659 0.0078415275 -0.012186945 0.0078007923 -0.011909135 6.3766725e-05 0.070094734
16800000000 -0.42060331 0.50713098 0.0051366286 -0.013582586 0.0054864553 -0.013330987 -0.00084919948 0.073893741
16810000000 -0.41938469 0.50579852 0.0019425708 -0.014649215 0.0022498947 -0.014846236 -0.0025837477 0.069649167
16820000000 -0.42355347 0.51120567 -0.001620403 -0.014537159 -0.0015044808 -0.014363715 -0.010858538 0.06716153
16830000000 -0.42980099 0.52045417 -0.0046406747 -0.013678183 -0.0043138126 -0.013769904 -0.0071645826 0.070695505
16840000000 -0.43617374 0.54091334 -0.0077887573 -0.011741455 -0.00763328 -0.012015494 0.00025232881 0.063956261
16850000000 -0.44053179 0.56449926 -0.0099020926 -0.0091562402 -0.0097717633 -0.0093380706 -0.0027209278 0.062511094
16860000000 -0.44121608 0.59587932 -0.01102361 -0.006678747 -0.011014656 -0.0068824277 -0.0063377423 0.07267677
16870000000 -0.43884194 0.62808257 -0.011839197 -0.00399647 -0.011802005 -0.0041647162 -0.0078426972 0.074787848
16880000000 -0.42993981 0.6636337 -0.011635294 -0.0013285754 -0.01167427 -0.0014855941 -0.017474851 0.070238493
16890000000 -0.41605431 0.6946705 -0.010746767 0.000703356 -0.010799291 0.00053132046 -0.022161365 0.070696406
16900000000 -0.3964166 0.7224074 -0.010479076 0.0022928559 -0.010524553 0.0023306147 -0.015432807 0.069134727
16910000000 -0.37451535 0.74316794 -0.010035063 0.0041824267 -0.010059725 0.0040379451 -0.013602596 0.065927163
16920000000 -0.34924847 0.76047611 -0.0087703485 0.0064432221 -0.0089048725 0.0063997414 -0.015703142 0.07275752
16930000000 -0.32335177 0.77248561 -0.0073385942 0.0079088854 -0.0072788075 0.0077401856 -0.016035898 0.078379691
16940000000 -0.29524428 0.78246742 -0.0050019454 0.0092485743 -0.0051766993 0.0090149166 -0.020338375 0.073205091
16950000000 -0.27005115 0.78869289 -0.0029527487 0.0092288423 -0.003177824 0.0093133673 -0.028761145 0.070229568
16960000000 -0.24672133 0.7953431 -0.0017810948 0.0097904876 -0.0017272579 0.0096839014 -0.026774308 0.072645031
16970000000 -0.22844377 0.80128068 0.0010757996 0.010494081 0.00081447186 0.010468479 -0.020992082 0.073840469
16980000000 -0.21318905 0.80992436 0.0036589156 0.0091516376 0.0034190468 0.009246273 -0.019567018 0.078348413
16990000000 -0.2012471 0.82177401 0.0049739666 0.0078620808 0.004894048 0.0079294555 -0.019221747 0.085882448
17000000000 -0.18947119 0.83573872 0.006460763 0.0064646285 0.0063834442 0.0065695206 -0.019716907 0.085017115
