!Keysight Technologies,P9374A,MY57211807,A.19.30.04
!Date: Friday, May 01, 2026 14:47:19
!Correction: S11(C  2-Port  ) 
!S21(C  2-Port  ) 
!S12(C  2-Port  ) 
!S22(C  2-Port  ) 
!S2P File: Measurements: S11, S21, S12, S22:
# Hz S  RI   R 50
13000000000 0.054271184 0.14559537 -0.33314073 -0.041247725 -0.3323161 -0.038716123 -0.0073565617 0.2199612
13010000000 0.073299572 0.14272022 -0.33593464 0.026618689 -0.33603942 0.02806671 0.011107095 0.20103471
13020000000 0.084926791 0.12980713 -0.32607621 0.096673422 -0.32654846 0.098460943 0.014277101 0.17807201
13030000000 0.094468035 0.11222753 -0.29992402 0.16344595 -0.30002469 0.16647083 0.0076306313 0.16612765
13040000000 0.091279052 0.091322012 -0.2591207 0.22363508 -0.25782633 0.22666693 -0.0008010827 0.16182616
13050000000 0.086550333 0.073333085 -0.20657651 0.27238435 -0.20422107 0.27452677 -0.0043201372 0.16573559
13060000000 0.071141005 0.060157169 -0.1442169 0.30854928 -0.14199908 0.30964667 -0.0018505044 0.16828263
13070000000 0.060434811 0.054807793 -0.0766709 0.3289586 -0.075488143 0.33003876 0.0038743168 0.16315436
13080000000 0.044193361 0.051919241 -0.010259569 0.33632305 -0.0073418468 0.33750343 0.0099662989 0.15225664
13090000000 0.036719162 0.057979114 0.056085229 0.33131713 0.059643269 0.33204532 0.014534514 0.13627991
13100000000 0.024461048 0.063752368 0.12189487 0.31578678 0.12511626 0.31421214 0.0038844198 0.11994443
13110000000 0.020364845 0.073571086 0.18540999 0.28604975 0.18726824 0.28441131 -0.014438688 0.11490367
13120000000 0.013054525 0.084391758 0.24359587 0.24075924 0.24437541 0.23983563 -0.042010296 0.12077251
13130000000 0.013707214 0.096162863 0.28860763 0.18272632 0.29042596 0.18212074 -0.063418746 0.14000346
13140000000 0.013583932 0.10963971 0.31820285 0.11860096 0.3200931 0.11749363 -0.070177384 0.1670941
13150000000 0.02383161 0.12197721 0.33316076 0.050444782 0.33514118 0.048057869 -0.059975535 0.19294754
13160000000 0.036327422 0.12817892 0.33480263 -0.01596573 0.33660641 -0.018770278 -0.035161562 0.21339472
13170000000 0.053553157 0.12728935 0.32425624 -0.082468927 0.32409576 -0.086581133 -0.0057958439 0.21875288
13180000000 0.067479685 0.11998685 0.30224559 -0.1447767 0.30117089 -0.14757465 0.016433563 0.21055958
13190000000 0.077776805 0.10744856 0.26812759 -0.20349295 0.2659232 -0.20505379 0.031040817 0.19296966
13200000000 0.081045352 0.096250325 0.22378413 -0.25538993 0.22338645 -0.25724098 0.03022396 0.1741641
13210000000 0.079682827 0.086399257 0.1675202 -0.29615906 0.16621438 -0.29809541 0.027598176 0.16065232
13220000000 0.075488351 0.082365997 0.10537469 -0.32713309 0.10328177 -0.32930127 0.018525988 0.15568112
13230000000 0.07214205 0.079742394 0.034826741 -0.34306303 0.032272726 -0.34338814 0.014731504 0.16349709
13240000000 0.070442617 0.078982055 -0.037735008 -0.34440586 -0.040581368 -0.34455848 0.024198182 0.17123532
13250000000 0.066232949 0.07607682 -0.10937547 -0.32915804 -0.11089161 -0.3283549 0.032987103 0.17296377
13260000000 0.063229606 0.076067798 -0.17601785 -0.29859903 -0.17739242 -0.29823691 0.044043582 0.16814257
13270000000 0.059470549 0.075281762 -0.23171428 -0.25476238 -0.23282441 -0.25481126 0.046706058 0.15486591
13280000000 0.058737986 0.076365687 -0.27890861 -0.2016359 -0.28071243 -0.20131357 0.037524756 0.14377244
13290000000 0.057971764 0.079506025 -0.31289959 -0.14182284 -0.31455395 -0.14092717 0.025407445 0.13492666
13300000000 0.063001178 0.080713823 -0.33675995 -0.074657179 -0.33793288 -0.072997317 0.012012437 0.136076
13310000000 0.069688573 0.082858644 -0.34524721 -0.0059951469 -0.34648594 -0.0042961165 0.01102861 0.14701977
13320000000 0.080126338 0.079679221 -0.33931732 0.064958811 -0.33991709 0.066681594 0.018605078 0.1588778
13330000000 0.087546036 0.074706294 -0.3193402 0.13194072 -0.31975812 0.13443603 0.031653985 0.17278898
13340000000 0.092566833 0.063104466 -0.28663859 0.19485164 -0.28581157 0.19686505 0.04622091 0.17638645
13350000000 0.087194338 0.052864861 -0.24253194 0.25036985 -0.24113147 0.25231189 0.053216152 0.16879985
13360000000 0.080127552 0.045971692 -0.18677726 0.29710233 -0.18503313 0.29750776 0.055484138 0.1541971
13370000000 0.070724316 0.046153799 -0.12263254 0.33140171 -0.12161639 0.33172801 0.053571578 0.13563806
13380000000 0.065260701 0.045295566 -0.051632658 0.34849626 -0.051545326 0.34917605 0.053474419 0.12748314
13390000000 0.058265124 0.047823239 0.02051403 0.35175589 0.021293886 0.35336357 0.055510502 0.12535949
13400000000 0.056357205 0.049267218 0.091174871 0.33944628 0.0934944 0.34103683 0.054261997 0.13251023
13410000000 0.052410446 0.054026004 0.15934533 0.31516734 0.16291592 0.3153404 0.052438371 0.14178604
13420000000 0.055797506 0.057367977 0.22199599 0.27580124 0.22477654 0.27438489 0.050214827 0.14359649
13430000000 0.058860779 0.064622335 0.27582183 0.22566441 0.27780542 0.22338276 0.049377687 0.14031306
13440000000 0.069103628 0.067052349 0.3168861 0.16428386 0.31787696 0.16241837 0.054356638 0.13461415
13450000000 0.077926248 0.071091533 0.34388849 0.09465003 0.34485996 0.092471123 0.061921075 0.1313493
13460000000 0.092814147 0.064989999 0.35483232 0.022783188 0.35529789 0.021030549 0.07215815 0.13522142
13470000000 0.10255942 0.057570778 0.35106984 -0.050311979 0.35131457 -0.052642789 0.079507083 0.13572247
13480000000 0.1113304 0.041915078 0.33453408 -0.12081618 0.33444563 -0.12281226 0.080533817 0.13489756
13490000000 0.10972805 0.025820926 0.30424663 -0.18652588 0.30372769 -0.18874525 0.088679306 0.12404365
13500000000 0.10647845 0.006546367 0.26167101 -0.24591996 0.26108229 -0.24793081 0.090706237 0.10403937
13510000000 0.094226204 -0.0073635615 0.20654789 -0.29459181 0.2056433 -0.29700029 0.093233436 0.086987674
13520000000 0.082268491 -0.021419782 0.14173864 -0.33193234 0.13999969 -0.33446687 0.090752169 0.069442488
13530000000 0.064908847 -0.026903782 0.069617353 -0.35450566 0.0666354 -0.35636908 0.07391347 0.066835739
13540000000 0.049754769 -0.030308016 -0.0061303899 -0.36173874 -0.0095812157 -0.36252832 0.059815079 0.071827389
13550000000 0.031852465 -0.026133869 -0.081238329 -0.35286281 -0.084687524 -0.35226911 0.041743465 0.07569021
13560000000 0.01808886 -0.015396816 -0.15278912 -0.32906896 -0.15534335 -0.32790744 0.035249643 0.08509548
13570000000 0.0056749946 0.0010781338 -0.21745928 -0.29016665 -0.21889035 -0.28884384 0.037969299 0.087036975
13580000000 0.0024648136 0.019828148 -0.27190876 -0.23852226 -0.27371368 -0.23770565 0.041154176 0.092698649
13590000000 0.0023540277 0.040071633 -0.31484601 -0.17725155 -0.31665066 -0.17582233 0.049690839 0.094039805
13600000000 0.011647106 0.056667384 -0.34497759 -0.10855703 -0.34662813 -0.1061809 0.046637602 0.092066869
13610000000 0.025403623 0.067782022 -0.35935301 -0.034151152 -0.36032951 -0.03236264 0.040052745 0.095780693
13620000000 0.044210844 0.069942333 -0.35792053 0.039881974 -0.35903838 0.042596444 0.036314268 0.097441323
13630000000 0.058517836 0.063619211 -0.3410815 0.11161153 -0.3410061 0.11484469 0.035297755 0.10640495
13640000000 0.07457149 0.053612214 -0.30970085 0.17719392 -0.30853117 0.18038121 0.045261472 0.12055995
13650000000 0.082825474 0.038067888 -0.26733127 0.23384182 -0.26572576 0.23684868 0.065615505 0.12473609
13660000000 0.093222804 0.022985192 -0.21469772 0.28265953 -0.21198015 0.28465727 0.084118307 0.12085421
13670000000 0.092604443 0.0048286747 -0.15524781 0.3198384 -0.15232392 0.3213433 0.10015163 0.10652182
13680000000 0.091143087 -0.011297479 -0.088409089 0.34534988 -0.086016908 0.34532732 0.10741489 0.080713354
13690000000 0.077236474 -0.025284419 -0.01886332 0.35866651 -0.016232356 0.35951465 0.10343458 0.059031922
13700000000 0.064976461 -0.034192763 0.056526721 0.35657343 0.059189975 0.35744935 0.090341285 0.041969351
13710000000 0.040960595 -0.036736209 0.12886626 0.3409653 0.13353543 0.34070855 0.066518053 0.036462042
13720000000 0.023144783 -0.033419065 0.20042038 0.30589321 0.20385198 0.30438912 0.0454107 0.042331036
13730000000 0.0010141956 -0.023003737 0.26084226 0.25850171 0.26415935 0.25555861 0.03079056 0.0516093
13740000000 -0.0077324742 -0.0068366304 0.30720028 0.19683346 0.30957973 0.19435897 0.029655775 0.065304175
13750000000 -0.01548529 0.0080268765 0.34237948 0.1288565 0.34398869 0.1255908 0.036317304 0.071719877
13760000000 -0.0093843043 0.02414991 0.35683411 0.055079207 0.35900676 0.051617742 0.043729123 0.076580696
13770000000 -0.0036584083 0.03412047 0.36105728 -0.019338325 0.36125717 -0.02400054 0.047620565 0.079892032
13780000000 0.010773249 0.043222502 0.34685943 -0.092188157 0.34590164 -0.09613277 0.044384733 0.07773307
13790000000 0.022190616 0.048766468 0.31983232 -0.16122974 0.31786647 -0.16456731 0.038983818 0.079516336
13800000000 0.038617019 0.050698388 0.28092098 -0.22048697 0.2787708 -0.22325733 0.037854929 0.082023278
13810000000 0.04998735 0.047799364 0.22780329 -0.27223605 0.22606121 -0.27440077 0.040325031 0.090926573
13820000000 0.06450972 0.044350185 0.16894153 -0.31046373 0.16635042 -0.31260329 0.055143014 0.10422131
13830000000 0.07133016 0.034690067 0.10131407 -0.3363477 0.098563939 -0.33808708 0.071527645 0.11168549
13840000000 0.079082943 0.022059206 0.031587616 -0.34965238 0.02857624 -0.35103241 0.088982925 0.11203295
13850000000 0.075759374 0.0044344012 -0.038254522 -0.34643772 -0.041848235 -0.34681144 0.10545228 0.093718618
13860000000 0.072195679 -0.0086929938 -0.10596783 -0.33313972 -0.10922723 -0.33261839 0.10902648 0.069940604
13870000000 0.060273271 -0.021598877 -0.1673007 -0.30526382 -0.17119427 -0.30391413 0.11038069 0.046359055
13880000000 0.05199416 -0.028008159 -0.2252508 -0.26884225 -0.22830121 -0.26678431 0.10043902 0.027673716
13890000000 0.040831782 -0.032513686 -0.27411136 -0.22076963 -0.27669173 -0.21785849 0.085967347 0.024547745
13900000000 0.034759924 -0.030959144 -0.31744239 -0.16179748 -0.31872284 -0.15881693 0.070957214 0.024731757
13910000000 0.027131278 -0.027339548 -0.34539619 -0.09527915 -0.34610149 -0.092243753 0.058301412 0.0353484
13920000000 0.026467221 -0.022263424 -0.36026329 -0.020410225 -0.36089259 -0.017740466 0.059005536 0.043776274
13930000000 0.022260668 -0.019364774 -0.3571876 0.052818127 -0.35752589 0.055798788 0.069665276 0.045972712
13940000000 0.020688049 -0.014369534 -0.33872285 0.12615037 -0.33875334 0.12984993 0.079889901 0.045430645
13950000000 0.016211635 -0.01014575 -0.30575535 0.19317625 -0.30467504 0.19687846 0.085335225 0.039619423
13960000000 0.0171932 -0.005812807 -0.25759274 0.25298834 -0.255108 0.25617078 0.082623877 0.033001021
13970000000 0.016612276 -0.005437532 -0.19985926 0.29997134 -0.19723764 0.30254722 0.071449786 0.030213181
13980000000 0.01984743 -0.0072918562 -0.13285992 0.33286309 -0.12957713 0.33479881 0.062067889 0.029658815
13990000000 0.021127783 -0.013090879 -0.063320428 0.35190806 -0.059565719 0.35360435 0.057666842 0.034203682
14000000000 0.022732534 -0.019815855 0.0081303716 0.35541049 0.01202932 0.35537484 0.06056606 0.043211661
14010000000 0.02246266 -0.027316725 0.078595795 0.34673861 0.082735896 0.34557667 0.068197899 0.043895949
14020000000 0.021919066 -0.032893706 0.14627759 0.32491383 0.14854014 0.32319686 0.076988772 0.042310644
14030000000 0.017698798 -0.036162712 0.20960064 0.28925738 0.21147975 0.28780141 0.083919242 0.032073528
14040000000 0.013951224 -0.035634402 0.26355258 0.24061704 0.26549187 0.24018481 0.086856022 0.015808199
14050000000 0.010146497 -0.031393625 0.30484223 0.18281579 0.30758366 0.18168759 0.083821326 0.0019795559
14060000000 0.0071930792 -0.026819652 0.33507341 0.1194777 0.33870479 0.11705393 0.072553903 -0.0064775888
14070000000 0.0055458243 -0.022506634 0.35310212 0.050416753 0.35454768 0.045730084 0.058130749 -0.0076478627
14080000000 0.0032763174 -0.02079008 0.35841367 -0.022196047 0.35847205 -0.026448097 0.041221596 -0.0031501702
14090000000 0.00058881054 -0.021418229 0.34739205 -0.094664544 0.34609079 -0.097979397 0.032820188 0.0079233786
14100000000 -0.0028704982 -0.021202121 0.32299295 -0.1629734 0.32209194 -0.16614233 0.036910653 0.011753341
14110000000 -0.0047314875 -0.024079228 0.28421563 -0.22525191 0.28261817 -0.22783306 0.044603381 0.018483415
14120000000 -0.0068956995 -0.027340299 0.23393643 -0.27915534 0.23169082 -0.2819742 0.058539942 0.019306745
14130000000 -0.0062350817 -0.031443223 0.17244767 -0.32254544 0.16919693 -0.32389662 0.065695986 0.013428792
14140000000 -0.007701532 -0.034878127 0.10245404 -0.3536022 0.099657275 -0.35437682 0.063170448 0.0067004878
14150000000 -0.0071337325 -0.038586903 0.027126051 -0.36693415 0.024764068 -0.36714169 0.058400836 -0.0078469152
14160000000 -0.010664469 -0.043227542 -0.048204713 -0.36539108 -0.050808333 -0.36574525 0.048272099 -0.01895378
14170000000 -0.015468169 -0.045845844 -0.1204628 -0.34752899 -0.12329315 -0.34765151 0.044081412 -0.018232293
14180000000 -0.026034988 -0.046750825 -0.18851414 -0.31548083 -0.19201824 -0.31508443 0.043127656 -0.018056959
14190000000 -0.036675461 -0.042765494 -0.24733903 -0.27098101 -0.25092402 -0.26971459 0.03932517 -0.0074454714
14200000000 -0.049302693 -0.034694836 -0.29929554 -0.21445982 -0.30226439 -0.21132892 0.038141403 -0.001871461
14210000000 -0.05670872 -0.026007105 -0.33562309 -0.14951995 -0.33757725 -0.14648126 0.03040302 -0.0078498945
14220000000 -0.063095294 -0.017464146 -0.36015186 -0.077351898 -0.36121166 -0.073895872 0.024316058 -0.011896763
14230000000 -0.064114027 -0.0079033021 -0.36902657 -0.0049707443 -0.36952317 -0.0014432371 0.018973261 -0.022194074
14240000000 -0.064214095 0.00018129312 -0.36197844 0.071275182 -0.36191988 0.074922308 0.0080084763 -0.024525078
14250000000 -0.058438115 0.0093012843 -0.34166792 0.14181046 -0.34067672 0.1453813 -0.00018042931 -0.012840897
14260000000 -0.050673828 0.015719807 -0.30566987 0.20860252 -0.30377179 0.21155289 -0.011052623 -0.0005525779
14270000000 -0.039017074 0.020095296 -0.25889069 0.2679455 -0.25659552 0.27012315 -0.017737292 0.016968636
14280000000 -0.028206404 0.022118758 -0.19868195 0.31596461 -0.19682896 0.31799942 -0.013550428 0.031457581
14290000000 -0.016159853 0.022557396 -0.1309039 0.35176483 -0.12813151 0.35350022 -0.0011862187 0.037417196
14300000000 -0.0092641553 0.018698977 -0.05516234 0.3714208 -0.052400671 0.37249148 0.018644653 0.042349238
14310000000 -0.00038556522 0.012326231 0.022500739 0.37500656 0.025470316 0.37556204 0.040812932 0.040779486
14320000000 0.00081809168 -0.00046618975 0.098244667 0.36074626 0.10108647 0.3604655 0.051601082 0.029976368
14330000000 -0.0024962104 -0.01328138 0.1706142 0.3319338 0.17327955 0.33124059 0.056228593 0.021521434
14340000000 -0.011836475 -0.025330737 0.23324765 0.28813735 0.23557729 0.28713447 0.05515841 0.0049590208
14350000000 -0.023086609 -0.033510588 0.28566852 0.23513764 0.28799659 0.23352182 0.046040632 -0.0086600389
14360000000 -0.03546299 -0.038799129 0.32561502 0.17284986 0.32767767 0.171001 0.041067157 -0.014906093
14370000000 -0.04493871 -0.038694177 0.3537024 0.10471788 0.35485607 0.10216869 0.033810601 -0.020013474
14380000000 -0.056638807 -0.035392143 0.36801487 0.033080623 0.36870158 0.030801266 0.023800204 -0.020855166
14390000000 -0.062484607 -0.026473854 0.36887646 -0.043107659 0.36900032 -0.045228451 0.015662361 -0.022033408
14400000000 -0.070442751 -0.017864838 0.35303903 -0.11693509 0.3527503 -0.11891972 0.0050486503 -0.026473455
14410000000 -0.07247363 -0.0021140743 0.322981 -0.18673247 0.32268488 -0.18910998 -0.0054154359 -0.026288761
14420000000 -0.074784979 0.012104162 0.27890173 -0.248974 0.27790532 -0.25086355 -0.014079462 -0.023265112
14430000000 -0.070381112 0.027742 0.22236189 -0.29986948 0.22093847 -0.30160129 -0.025226379 -0.013167926
14440000000 -0.065314978 0.038264189 0.15814748 -0.33938858 0.15624565 -0.34056208 -0.031967141 0.004052965
14450000000 -0.055083737 0.047336303 0.08510229 -0.36469311 0.083540976 -0.36506701 -0.03085343 0.018947475
14460000000 -0.043852866 0.049408551 0.0091923624 -0.37578261 0.007775858 -0.37610251 -0.026422352 0.031540859
14470000000 -0.028553719 0.0470066 -0.066904679 -0.36972046 -0.068266243 -0.37038141 -0.0088475533 0.044837158
14480000000 -0.015282806 0.037145834 -0.1418618 -0.34955135 -0.14383787 -0.3494795 0.013469631 0.047516093
14490000000 -0.0043541142 0.023364302 -0.21026562 -0.31284645 -0.21220729 -0.31266418 0.027053859 0.046175011
14500000000 0.00092566747 0.0068262783 -0.27213338 -0.26153308 -0.27365097 -0.26067811 0.041316908 0.040709563
14510000000 0.0017721348 -0.0051980778 -0.31947771 -0.19847943 -0.32089174 -0.19787785 0.04436285 0.022040958
14520000000 -0.0012464421 -0.019038275 -0.3515259 -0.12519002 -0.35285774 -0.12451046 0.042246521 0.007802669
14530000000 -0.0090454351 -0.026749169 -0.36640054 -0.05218935 -0.3683396 -0.050957352 0.045503169 -0.009521246
14540000000 -0.021021653 -0.035227176 -0.3654691 0.022016764 -0.36703783 0.02386187 0.039270166 -0.023753587
14550000000 -0.035402253 -0.035957325 -0.35317835 0.092225805 -0.35389262 0.095209301 0.034294661 -0.026369482
14560000000 -0.051647175 -0.037008028 -0.32597265 0.15934515 -0.32547355 0.16177201 0.025498908 -0.03423769
14570000000 -0.067578159 -0.033215664 -0.2885544 0.2214008 -0.2871809 0.2227505 0.008076557 -0.038282052
14580000000 -0.082187623 -0.02684202 -0.23815939 0.2735 -0.23739935 0.27454111 -0.0029503522 -0.042839721
14590000000 -0.093261577 -0.016045624 -0.17907026 0.31656736 -0.17854755 0.31709605 -0.015858028 -0.051621877
14600000000 -0.098823212 -0.0047570504 -0.11443849 0.34452069 -0.11422857 0.34531313 -0.026414786 -0.046630226
14610000000 -0.098225757 0.0084707625 -0.043281212 0.36253977 -0.042958513 0.36318231 -0.033188578 -0.03793177
14620000000 -0.093636267 0.01956401 0.029984623 0.36392155 0.030199081 0.3647418 -0.04568347 -0.025550937
14630000000 -0.086569965 0.031762831 0.10346294 0.35039693 0.10369035 0.35052544 -0.055911683 -0.0045302296
14640000000 -0.074539512 0.041051671 0.17231487 0.32343081 0.17190158 0.32418799 -0.056382317 0.010347364
14650000000 -0.062773004 0.04555241 0.23526397 0.28167307 0.23464401 0.28277594 -0.052068692 0.018706184
14660000000 -0.052718341 0.044198424 0.28747362 0.23047827 0.28757352 0.23215304 -0.039306097 0.026922453
14670000000 -0.048247002 0.041665234 0.32952148 0.16778624 0.32922614 0.16924831 -0.023412393 0.026530357
14680000000 -0.042634785 0.035620626 0.35822725 0.096781418 0.35818109 0.098872446 -0.015162165 0.025362272
14690000000 -0.044301581 0.027912259 0.37018186 0.020857543 0.37065238 0.02338092 -0.0070676608 0.021399409
14700000000 -0.044269651 0.0192338 0.36693698 -0.056193136 0.3683545 -0.053801641 -0.0055253003 0.0072595864
14710000000 -0.050261836 0.0097365808 0.34619948 -0.1300696 0.34829891 -0.1281458 -0.0090841921 -0.002172187
14720000000 -0.055189952 0.0016055629 0.31178385 -0.1958763 0.31420994 -0.19486593 -0.0081794597 -0.012003787
14730000000 -0.065453343 -0.0015879758 0.26447609 -0.25440571 0.26658207 -0.25343361 -0.015302997 -0.019933751
14740000000 -0.070937283 -0.0018655434 0.207362 -0.30011559 0.20986998 -0.29966623 -0.023608364 -0.017808696
14750000000 -0.081768662 0.0020347983 0.14256224 -0.33509052 0.14490616 -0.33512276 -0.032791693 -0.019747136
14760000000 -0.087667763 0.01038802 0.072901383 -0.35554922 0.075148918 -0.35603598 -0.047837533 -0.018493967
14770000000 -0.095046982 0.022882799 0.00056304038 -0.36240843 0.0027895048 -0.36315578 -0.056276843 -0.010958375
14780000000 -0.095082596 0.03506368 -0.071341202 -0.35475218 -0.069412895 -0.35618725 -0.059979204 -0.0076274644
14790000000 -0.098879375 0.047646798 -0.13913186 -0.33314297 -0.13762656 -0.33489978 -0.068502359 0.002934251
14800000000 -0.094304875 0.058049779 -0.20267884 -0.30002454 -0.20209345 -0.30155504 -0.069226637 0.016203208
14810000000 -0.093291007 0.066470154 -0.25895891 -0.25435627 -0.25806805 -0.25535694 -0.071958579 0.020396262
14820000000 -0.085596934 0.070691332 -0.30565548 -0.19832098 -0.30446652 -0.19998264 -0.074759811 0.028301818
14830000000 -0.081490248 0.072644502 -0.34048375 -0.13384762 -0.33980367 -0.13643764 -0.065356277 0.030545782
14840000000 -0.070884965 0.071711972 -0.36153191 -0.063398667 -0.36169624 -0.066098519 -0.060864385 0.029550167
14850000000 -0.065429248 0.069502629 -0.36815521 0.010230353 -0.36921892 0.0077559529 -0.053387944 0.038256943
14860000000 -0.05569974 0.065934047 -0.35884568 0.084094718 -0.36047277 0.082280129 -0.04567581 0.039340347
14870000000 -0.052755445 0.062128875 -0.3359178 0.15568149 -0.33774656 0.15401317 -0.051271021 0.040110432
14880000000 -0.047353264 0.05993605 -0.29703918 0.22140259 -0.29925698 0.22006029 -0.051447492 0.043135367
14890000000 -0.050579898 0.060801242 -0.24636798 0.27793342 -0.24867012 0.27709427 -0.051232822 0.036793169
14900000000 -0.047965903 0.063687786 -0.18520084 0.3224785 -0.18743832 0.32229781 -0.053404849 0.037908517
14910000000 -0.051222492 0.066685602 -0.11613746 0.35422584 -0.11820765 0.35397261 -0.047196828 0.043173455
14920000000 -0.051405858 0.070921563 -0.041856125 0.36954659 -0.04448811 0.3695071 -0.050209753 0.046087533
14930000000 -0.054504439 0.073719487 0.034661517 0.37024051 0.031842709 0.37092075 -0.054858446 0.057969559
14940000000 -0.051046513 0.077739649 0.10887802 0.35462147 0.10622384 0.35603571 -0.054648172 0.061022177
14950000000 -0.049857195 0.077099435 0.17830563 0.32515222 0.17586029 0.32730642 -0.056945972 0.059815083
14960000000 -0.043774381 0.076129735 0.24032415 0.28378519 0.23904189 0.28680116 -0.047914132 0.062917359
14970000000 -0.042194366 0.072414123 0.29274395 0.23064959 0.29220983 0.23328051 -0.034569055 0.058903459
14980000000 -0.032909892 0.070361257 0.33381918 0.1677665 0.33415321 0.17032816 -0.029110165 0.060769394
14990000000 -0.02801948 0.065015838 0.36066923 0.096799538 0.36159423 0.09873537 -0.021632135 0.064923361
15000000000 -0.020088745 0.061090648 0.37336564 0.021371514 0.37394834 0.022728711 -0.021089956 0.056816682
15010000000 -0.018712612 0.053678762 0.36971027 -0.055628076 0.3705385 -0.054264352 -0.027463401 0.05246485
15020000000 -0.018256955 0.048629727 0.35171205 -0.1306625 0.35249978 -0.12927251 -0.022231095 0.044885796
15030000000 -0.025276916 0.045268789 0.31679356 -0.19859929 0.31836969 -0.19701374 -0.024271941 0.032995097
15040000000 -0.029438594 0.046124265 0.27173001 -0.25786841 0.27359611 -0.25712675 -0.02962428 0.036785997
15050000000 -0.037966352 0.045582082 0.21259566 -0.3066321 0.21447358 -0.30646005 -0.0312769 0.040050019
15060000000 -0.044680331 0.050596155 0.14574459 -0.34262711 0.14733207 -0.34300271 -0.047676712 0.041232135
15070000000 -0.050947703 0.052699942 0.073144853 -0.36491185 0.074618667 -0.36530936 -0.056997124 0.049269132
15080000000 -0.051699251 0.060504049 -0.0028134137 -0.37240642 -0.001352787 -0.37318236 -0.060329307 0.047474857
15090000000 -0.050081857 0.062964179 -0.076647595 -0.36417526 -0.075412825 -0.3653098 -0.063296415 0.050814848
15100000000 -0.043661453 0.068419322 -0.14810531 -0.34275138 -0.14739752 -0.34417069 -0.053394504 0.06065936
15110000000 -0.037672877 0.067859545 -0.21366374 -0.30614185 -0.21341804 -0.3074618 -0.046657778 0.06513954
15120000000 -0.027436573 0.069077291 -0.27100694 -0.25724384 -0.27070197 -0.25854397 -0.042222843 0.078144468
15130000000 -0.020090541 0.066639915 -0.31817374 -0.19738221 -0.31834525 -0.1985808 -0.032591306 0.081143782
15140000000 -0.011861548 0.06541831 -0.35301095 -0.12818176 -0.35329056 -0.12930939 -0.02907094 0.077528715
15150000000 -0.0069432296 0.058433611 -0.37174907 -0.053814098 -0.37227142 -0.054483399 -0.020191992 0.077100173
15160000000 -0.0047155544 0.052307438 -0.37562841 0.023281693 -0.37616712 0.02219303 -0.0085884519 0.06612289
15170000000 -0.0054265372 0.041320566 -0.36255062 0.099564195 -0.36342314 0.098660335 -0.0088993078 0.058636297
15180000000 -0.010753078 0.034211121 -0.33341333 0.17162694 -0.33478752 0.17086688 -0.0080220308 0.054258391
15190000000 -0.019800361 0.024351459 -0.29031563 0.23516819 -0.29188421 0.23533478 -0.014952887 0.039763872
15200000000 -0.031893294 0.021101408 -0.23556024 0.28929424 -0.23689885 0.2899963 -0.029704195 0.034086749
15210000000 -0.044254728 0.017432548 -0.17042914 0.32973206 -0.17128462 0.3313027 -0.036641207 0.029559208
15220000000 -0.055365372 0.024634209 -0.099676147 0.35595697 -0.099603266 0.35739267 -0.048215829 0.024861615
15230000000 -0.062139519 0.028677069 -0.025539681 0.36713079 -0.024996862 0.36814976 -0.058615126 0.03348887
15240000000 -0.067125261 0.041895688 0.04890734 0.36233956 0.049696431 0.36288771 -0.062268659 0.038798533
15250000000 -0.066438489 0.050688211 0.11963113 0.3419762 0.12039626 0.34246373 -0.072642773 0.045473538
15260000000 -0.063628919 0.065372452 0.18283004 0.30967665 0.18362094 0.30998224 -0.073874295 0.059377052
15270000000 -0.056862462 0.07287246 0.23924357 0.26707184 0.23994616 0.26707998 -0.071009196 0.066175878
15280000000 -0.048012197 0.084119752 0.2849558 0.21353236 0.28548852 0.21374509 -0.071871832 0.078925364
15290000000 -0.038088284 0.084858529 0.32006645 0.1546979 0.32100579 0.15468308 -0.065645151 0.091894813
15300000000 -0.0290932 0.088295221 0.34409785 0.089304559 0.34514228 0.089114465 -0.063319594 0.096250191
15310000000 -0.020130403 0.082007185 0.35546857 0.019935854 0.35662004 0.019169949 -0.060196549 0.10277376
15320000000 -0.013693097 0.079364806 0.35425335 -0.049548034 0.35506782 -0.050615683 -0.050060865 0.10252348
15330000000 -0.0091118701 0.068280242 0.34006134 -0.12038436 0.3403815 -0.12166419 -0.041165259 0.096848026
15340000000 -0.0071355179 0.062243953 0.31054342 -0.18647744 0.31053099 -0.18773651 -0.036053028 0.097683251
15350000000 -0.0074507724 0.05105681 0.26735228 -0.24599406 0.26750898 -0.24706778 -0.02823025 0.095625713
15360000000 -0.010281615 0.046907306 0.2125539 -0.29650182 0.21209359 -0.29792929 -0.032858226 0.091286838
15370000000 -0.014881213 0.040503703 0.14659521 -0.33395869 0.14607532 -0.33506262 -0.036547214 0.090439834
15380000000 -0.020791525 0.042745996 0.076053649 -0.35696059 0.075241826 -0.35799694 -0.03723963 0.081780873
15390000000 -0.025226651 0.04296764 0.0012563393 -0.36506203 0.0002701059 -0.36575565 -0.042221241 0.079191789
15400000000 -0.028055983 0.050579101 -0.071668297 -0.35710922 -0.072565332 -0.35761026 -0.038315196 0.08484327
15410000000 -0.028306771 0.054201823 -0.14182404 -0.33548969 -0.14270496 -0.33571199 -0.038073577 0.088936783
15420000000 -0.026964046 0.06250266 -0.20624043 -0.29853082 -0.20658135 -0.29874438 -0.04240784 0.10146469
15430000000 -0.021896536 0.065637566 -0.26093578 -0.24960974 -0.26122424 -0.2501359 -0.038667694 0.10875013
15440000000 -0.014034571 0.071352012 -0.3048524 -0.19054487 -0.30589539 -0.19161347 -0.040218562 0.10509786
15450000000 -0.00360463 0.067150578 -0.33449197 -0.12486299 -0.33614221 -0.12533209 -0.037108529 0.10773302
15460000000 0.0037122052 0.063734643 -0.35251534 -0.056720193 -0.35415584 -0.056359358 -0.02680359 0.10397454
15470000000 0.010654374 0.054867268 -0.35579079 0.014233368 -0.35679269 0.014817119 -0.025187362 0.10555009
15480000000 0.015141761 0.048141472 -0.3455826 0.082414821 -0.34601784 0.082861252 -0.020382062 0.11290303
15490000000 0.017553961 0.038403217 -0.32215798 0.1486305 -0.32288158 0.14897127 -0.017834391 0.11123958
15500000000 0.017005932 0.030712897 -0.28634989 0.20874904 -0.28720072 0.20903999 -0.021349199 0.11072323
15510000000 0.013590726 0.021497831 -0.24120761 0.26192325 -0.24158208 0.2623235 -0.01506092 0.10924111
15520000000 0.0075203995 0.017143259 -0.18561248 0.30643833 -0.1859102 0.3067899 -0.012358438 0.10328158
15530000000 -0.0001344902 0.013008565 -0.12291642 0.33904788 -0.12312119 0.33883983 -0.010765218 0.10682991
15540000000 -0.0090586804 0.013334604 -0.052949302 0.35857892 -0.053674087 0.35893759 -0.0060680038 0.10911308
15550000000 -0.013361354 0.016302118 0.020839676 0.36323932 0.020080611 0.36332554 -0.0097074062 0.10790558
15560000000 -0.018678464 0.021315455 0.094342247 0.35184273 0.093141094 0.35261127 -0.0097467862 0.11125052
15570000000 -0.017076824 0.025782203 0.16466185 0.32658511 0.1638957 0.3275905 -0.0058111325 0.10808554
15580000000 -0.014443711 0.030597769 0.2273986 0.28750834 0.22692463 0.28865471 -0.005190108 0.10709671
15590000000 -0.005059205 0.033547059 0.28135434 0.23627454 0.28119132 0.23768272 -0.00089935958 0.11251651
15600000000 0.0032555107 0.033838857 0.32315689 0.17500041 0.3237012 0.17619976 0.0029421952 0.11108166
15610000000 0.017117608 0.028416198 0.35255551 0.10561895 0.35310876 0.10621212 0.0013089667 0.11099599
15620000000 0.023993837 0.018851513 0.36725923 0.031314097 0.36801183 0.031952575 0.007177284 0.10701095
15630000000 0.031423628 0.0053425012 0.36657456 -0.044481963 0.36706644 -0.044376828 0.010373073 0.097993053
15640000000 0.028956903 -0.0095941518 0.35070971 -0.11751159 0.35090905 -0.11715086 0.013623778 0.094459407
15650000000 0.025018685 -0.023995858 0.31936502 -0.18564835 0.32002071 -0.18514279 0.018397659 0.090499789
15660000000 0.013195453 -0.036510263 0.27570769 -0.24632144 0.27639413 -0.24615139 0.014244968 0.085001707
15670000000 0.00020729192 -0.048157584 0.21949533 -0.29689765 0.2205195 -0.29681367 0.0096554914 0.082273737
15680000000 -0.019100189 -0.053604372 0.15525058 -0.33610243 0.15613239 -0.33643585 0.0080980249 0.073985748
15690000000 -0.034111179 -0.054361913 0.083816163 -0.36104825 0.084477998 -0.36163625 0.0031282157 0.066361912
15700000000 -0.051180206 -0.049961798 0.0090740621 -0.37074512 0.0096330941 -0.37128136 0.0020574015 0.068367608
15710000000 -0.061593074 -0.040934727 -0.064901069 -0.36429775 -0.064652681 -0.36523601 -0.0019675829 0.070354998
15720000000 -0.069746733 -0.028919671 -0.13780628 -0.34274864 -0.13795233 -0.3440097 -0.013348646 0.078633368
15730000000 -0.069449246 -0.014380533 -0.20309909 -0.30610543 -0.20399857 -0.3068307 -0.021743782 0.086776316
15740000000 -0.064573638 -0.00090786908 -0.26120603 -0.25842887 -0.26161346 -0.25854111 -0.027438305 0.08795958
15750000000 -0.054704774 0.0089306943 -0.30701753 -0.19969183 -0.3073912 -0.20003021 -0.027310476 0.09352529
15760000000 -0.044055611 0.014359178 -0.34085748 -0.13511029 -0.34109488 -0.13517597 -0.014774196 0.099156231
15770000000 -0.031263128 0.015645694 -0.36007464 -0.065356299 -0.36077267 -0.065417424 -0.0046945512 0.10302386
15780000000 -0.020006523 0.010303231 -0.36700952 0.0063243955 -0.36714223 0.0065513104 0.0013067201 0.11049675
15790000000 -0.010129437 0.00072063413 -0.35893539 0.079630867 -0.35892758 0.079804406 0.0090522766 0.10745877
15800000000 -0.0050566779 -0.017114755 -0.33700129 0.1512711 -0.33713287 0.15131101 0.0067631863 0.097330287
15810000000 -0.0071692052 -0.034867592 -0.30094528 0.21726871 -0.30083323 0.21714914 0.012256836 0.087756075
15820000000 -0.014757803 -0.054005921 -0.25273389 0.27620444 -0.2531642 0.2758978 0.016759887 0.073695406
15830000000 -0.026520269 -0.069123551 -0.19145048 0.32315269 -0.19187301 0.32318693 0.013550814 0.07118009
15840000000 -0.042653471 -0.08150623 -0.12189682 0.355813 -0.12280852 0.35618204 0.012357948 0.076471791
15850000000 -0.060008854 -0.08547195 -0.046245247 0.37310505 -0.046353459 0.37443554 0.003037475 0.074852675
15860000000 -0.079315729 -0.084453844 0.031861871 0.37394178 0.032550424 0.37494752 -0.0096265338 0.079313993
15870000000 -0.094023712 -0.073777258 0.10870067 0.35923153 0.10987436 0.35971981 -0.01144487 0.077560894
15880000000 -0.10562238 -0.06140219 0.18139663 0.32868537 0.18241307 0.32853618 -0.016384637 0.073829241
15890000000 -0.11183392 -0.042680051 0.24470967 0.2835173 0.2455208 0.28293389 -0.01629539 0.080759116
15900000000 -0.11321429 -0.027669014 0.29648852 0.22660509 0.29697439 0.22608322 -0.013601838 0.083246112
15910000000 -0.10912548 -0.011579145 0.33496436 0.16026653 0.33525464 0.15987173 -0.020132899 0.090253413
15920000000 -0.10126537 -0.0031182393 0.35786617 0.087886468 0.35828787 0.087433547 -0.019278936 0.098235831
15930000000 -0.089378029 0.0028306991 0.36614358 0.013375491 0.36653838 0.013222992 -0.017690364 0.10024654
15940000000 -0.077491164 -0.00200608 0.35987654 -0.060049057 0.3603785 -0.06043528 -0.014045354 0.10834444
15950000000 -0.066366613 -0.0090616886 0.33899555 -0.12979439 0.33972949 -0.13027745 -0.0026086215 0.11254971
15960000000 -0.057868127 -0.024213612 0.30517331 -0.19310923 0.30594712 -0.19393627 0.0033829492 0.11183452
15970000000 -0.05434674 -0.040673241 0.25998768 -0.24827418 0.26052013 -0.24961069 0.0080443975 0.1115316
15980000000 -0.057234466 -0.057785265 0.20590317 -0.29409903 0.2057156 -0.29558969 0.01257444 0.10314308
15990000000 -0.063435599 -0.070088424 0.14343539 -0.32943845 0.14269939 -0.33076075 0.010249488 0.094418526
16000000000 -0.074885763 -0.080843054 0.07551378 -0.35205254 0.074418604 -0.35270053 0.0086251236 0.09373416
16010000000 -0.088412374 -0.085636236 0.0039159209 -0.35991687 0.002715081 -0.36003301 0.0054470673 0.093271852
16020000000 -0.10477419 -0.086148068 -0.067755997 -0.35390586 -0.068442158 -0.35343042 -0.0025189221 0.099166542
16030000000 -0.12148328 -0.081899732 -0.13783279 -0.33366793 -0.13778198 -0.33308563 -0.0037366766 0.10521539
16040000000 -0.13546345 -0.072909556 -0.2038542 -0.30014819 -0.20309305 -0.29993504 -0.00023187324 0.10293856
16050000000 -0.14462735 -0.06237603 -0.2623283 -0.25259325 -0.26157174 -0.25333339 0.0042651705 0.10117839
16060000000 -0.14924137 -0.053034563 -0.30965933 -0.19461069 -0.30981773 -0.19571422 0.018474583 0.09985622
16070000000 -0.14810558 -0.046798326 -0.34337103 -0.12773708 -0.3443256 -0.12846503 0.023651198 0.095885262
16080000000 -0.14523873 -0.043455645 -0.3628822 -0.054404929 -0.36401945 -0.054088324 0.024568524 0.098216787
16090000000 -0.13934484 -0.044483185 -0.36525574 0.02143725 -0.36551455 0.022220239 0.022847325 0.092366487
16100000000 -0.13342948 -0.048242871 -0.35157749 0.097101219 -0.35148397 0.097269975 0.013707362 0.085011281
16110000000 -0.12938312 -0.055956762 -0.32232079 0.16685288 -0.32254761 0.16662249 0.012564346 0.083654806
16120000000 -0.1284332 -0.063419223 -0.2798968 0.22782053 -0.28031871 0.22811958 0.014538193 0.080500886
16130000000 -0.1321644 -0.072388425 -0.22750652 0.27763373 -0.22812164 0.27799237 0.014988702 0.087794192
16140000000 -0.13985808 -0.08098802 -0.16694228 0.31532505 -0.16735283 0.31594512 0.018921185 0.097014621
16150000000 -0.15389094 -0.087747708 -0.099925607 0.34065804 -0.10029332 0.34159753 0.016187489 0.0942313
16160000000 -0.16964063 -0.091292702 -0.02885169 0.3517696 -0.028684804 0.35270819 0.0097716842 0.091358632
16170000000 -0.18986328 -0.090987355 0.042773668 0.34969127 0.042879887 0.3506563 0.011783721 0.079580456
16180000000 -0.20682901 -0.08821281 0.11336374 0.33356947 0.11393566 0.33412063 0.0096942075 0.069910415
16190000000 -0.2243564 -0.082651392 0.17628613 0.30381662 0.17644656 0.30437437 0.011321483 0.073770776
16200000000 -0.23525837 -0.072854877 0.23301898 0.2632612 0.23336056 0.26389211 0.012720264 0.079583377
16210000000 -0.24311848 -0.06340085 0.27969953 0.21209329 0.27999377 0.21263817 0.0072475374 0.08923617
16220000000 -0.24453527 -0.051510666 0.31643936 0.15209255 0.31683162 0.15275565 0.009882221 0.09613461
16230000000 -0.24290012 -0.042567618 0.34237888 0.086160906 0.34247556 0.086889699 0.015994322 0.091315426
16240000000 -0.2376304 -0.033158589 0.35412133 0.014667064 0.35424146 0.015586309 0.02395579 0.086479567
16250000000 -0.23150519 -0.030080989 0.35150373 -0.057583064 0.35209462 -0.056085512 0.03466849 0.080967277
16260000000 -0.22433278 -0.028403506 0.33297971 -0.12830672 0.33436635 -0.12668943 0.034400873 0.072970912
16270000000 -0.22410133 -0.034359701 0.29946208 -0.19415817 0.30122006 -0.19320306 0.022738742 0.069190145
16280000000 -0.22672692 -0.040544413 0.25107476 -0.25213358 0.25292251 -0.25137401 0.0081078615 0.063253969
16290000000 -0.23939808 -0.05107446 0.19174324 -0.29819754 0.19397473 -0.29747579 -0.0068190764 0.05827193
16300000000 -0.25293282 -0.057150487 0.12485735 -0.3304258 0.12725522 -0.33027431 -0.012735744 0.060420021
16310000000 -0.27304375 -0.065092362 0.0528033 -0.34717238 0.055380572 -0.34732628 -0.0095352642 0.066902414
16320000000 -0.29215825 -0.066122733 -0.017520286 -0.34864599 -0.014653735 -0.34961596 -0.0043729711 0.077909738
16330000000 -0.31570572 -0.065265357 -0.086630248 -0.33528861 -0.083942704 -0.33730149 0.0031719431 0.086087577
16340000000 -0.33282697 -0.055283859 -0.15024176 -0.31166241 -0.1484331 -0.31410301 0.0060693175 0.083884306
16350000000 -0.3508327 -0.042043261 -0.20866233 -0.2738331 -0.20759955 -0.27639747 0.0072940383 0.077496357
16360000000 -0.36171651 -0.022853225 -0.26053002 -0.22880168 -0.25982362 -0.23119187 0.011169912 0.069450542
16370000000 -0.37112689 -0.00029133447 -0.30149937 -0.17233613 -0.3013033 -0.174428 0.01105693 0.062045358
16380000000 -0.3723557 0.025148325 -0.3336764 -0.1084055 -0.33310854 -0.11076614 0.0069096647 0.06274119
16390000000 -0.37028694 0.046289764 -0.34897366 -0.037942693 -0.34869272 -0.040517509 8.0145895e-05 0.063428663
16400000000 -0.36254066 0.06570892 -0.3503747 0.0363653 -0.35089508 0.033139482 -0.012536692 0.060989253
16410000000 -0.3570267 0.07542485 -0.33363712 0.10863048 -0.33485433 0.10582945 -0.020602219 0.061301373
16420000000 -0.34845456 0.082848191 -0.3029848 0.17706919 -0.30499339 0.17460909 -0.022977969 0.057455834
16430000000 -0.34272918 0.08034239 -0.25919205 0.23585868 -0.26140431 0.2339626 -0.027371377 0.059530184
16440000000 -0.33693895 0.074323177 -0.20240267 0.28477028 -0.20530431 0.28330702 -0.030074082 0.066150494
16450000000 -0.33959058 0.062794887 -0.13831414 0.31852582 -0.14178893 0.31783026 -0.039435074 0.071614765
16460000000 -0.34394917 0.05369138 -0.06833341 0.33817133 -0.071734607 0.33896923 -0.049325787 0.082403615
16470000000 -0.35659322 0.045174286 0.0042007118 0.34324819 0.0013183951 0.34481311 -0.049107872 0.093308657
16480000000 -0.36894453 0.044426203 0.074769437 0.33247468 0.072962001 0.33481374 -0.041571442 0.1052153
16490000000 -0.38920796 0.045758307 0.14053547 0.30774683 0.13952138 0.30983442 -0.024243869 0.122633
16500000000 -0.40778643 0.057583988 0.19762203 0.27045909 0.19714464 0.27243429 -0.0028243959 0.13395433
16510000000 -0.42887741 0.073855914 0.24488698 0.22301453 0.24452919 0.22494031 0.012825745 0.13585529
16520000000 -0.44393346 0.096277721 0.2825014 0.16867925 0.28221095 0.17044191 0.026824957 0.1267186
16530000000 -0.45824873 0.119606 0.30829561 0.107172 0.30819923 0.10912386 0.03850681 0.10137478
16540000000 -0.46451142 0.14331706 0.32324949 0.043708354 0.32354867 0.045866936 0.041886825 0.074117117
16550000000 -0.46960849 0.16629066 0.32609457 -0.021288335 0.32711667 -0.019591048 0.040522628 0.051366642
16560000000 -0.46470356 0.18662389 0.31758803 -0.087004498 0.31814411 -0.085789494 0.026334533 0.034298055
16570000000 -0.45893365 0.20245971 0.29460871 -0.15130746 0.29505602 -0.14965284 -0.00026274379 0.027147632
16580000000 -0.44732404 0.21536508 0.25902253 -0.21168785 0.25951406 -0.20929535 -0.028455084 0.025245789
16590000000 -0.43680203 0.22324437 0.20748095 -0.26500404 0.2092663 -0.26204839 -0.057328362 0.028604699
16600000000 -0.42510197 0.22723651 0.14446481 -0.30609888 0.14816236 -0.30327651 -0.075379096 0.044301286
16610000000 -0.41869438 0.22944403 0.072514281 -0.33073884 0.077262685 -0.32949868 -0.082265988 0.0705036
16620000000 -0.41650596 0.22824404 -0.0036354512 -0.33635274 0.0019269586 -0.33711895 -0.081336595 0.10387588
16630000000 -0.42315125 0.2303524 -0.076531053 -0.32284072 -0.072075702 -0.32593375 -0.071744584 0.14044753
16640000000 -0.43412724 0.2332795 -0.14363399 -0.29195702 -0.14078259 -0.29638702 -0.052489214 0.16467173
16650000000 -0.44916442 0.24139771 -0.19805677 -0.24704054 -0.19779891 -0.25131637 -0.028316997 0.17576861
16660000000 -0.46492788 0.25140184 -0.23945731 -0.19499448 -0.24032709 -0.19816285 0.0040235594 0.17552727
16670000000 -0.48038656 0.26591143 -0.26820388 -0.13774058 -0.26980758 -0.13932559 0.036099851 0.16325471
16680000000 -0.49382028 0.28272131 -0.28362167 -0.079279236 -0.28466487 -0.080012903 0.061059054 0.14728649
16690000000 -0.50254053 0.30366594 -0.28784394 -0.021161824 -0.28808695 -0.021271259 0.079311401 0.12253411
16700000000 -0.50682062 0.32487363 -0.28143531 0.035367325 -0.28112918 0.034747951 0.081343338 0.091687419
16710000000 -0.50634718 0.34913296 -0.26506075 0.088373341 -0.26482832 0.087507889 0.076867603 0.060385354
16720000000 -0.50238681 0.37250009 -0.24065168 0.13793717 -0.24086584 0.13671865 0.062853828 0.026769966
16730000000 -0.49446857 0.39603233 -0.20764716 0.18149033 -0.20792772 0.18037534 0.038626663 0.0041053845
16740000000 -0.48661602 0.41709337 -0.16751057 0.2188157 -0.16821581 0.21788457 0.010098711 -0.0080447588
16750000000 -0.47728249 0.43585664 -0.11999711 0.24882464 -0.12077449 0.24791275 -0.026900869 -0.010239485
16760000000 -0.47163728 0.45176035 -0.065454409 0.26791096 -0.066440441 0.26751626 -0.062988013 0.0045741908
16770000000 -0.46508211 0.46634877 -0.00865338 0.27665195 -0.0095568746 0.27646285 -0.087719217 0.030045023
16780000000 -0.4627161 0.47936028 0.052472219 0.27135268 0.051802836 0.27147639 -0.10323165 0.067270428
16790000000 -0.45947799 0.49076736 0.10946906 0.25228828 0.10876465 0.25266972 -0.10049707 0.11048952
16800000000 -0.45892349 0.50370497 0.16113661 0.21902612 0.1604934 0.2198465 -0.084313303 0.14804782
16810000000 -0.45551994 0.51793039 0.20226601 0.17536682 0.20243931 0.17659287 -0.057351395 0.17411661
16820000000 -0.45246994 0.53525794 0.23088156 0.12277522 0.23164427 0.12356775 -0.016564667 0.18232489
16830000000 -0.4461309 0.5540247 0.24759449 0.066382907 0.24846706 0.066804357 0.027350828 0.16737866
16840000000 -0.44035441 0.57608151 0.24750531 0.0092133358 0.24837504 0.0092263594 0.064634115 0.13896006
16850000000 -0.4305411 0.59853441 0.23723023 -0.042289726 0.23800838 -0.04257483 0.087835483 0.10555268
16860000000 -0.42105204 0.62298048 0.21572083 -0.087005191 0.21602814 -0.087441213 0.090466775 0.071366869
16870000000 -0.40908021 0.64501143 0.18856496 -0.12540011 0.18885833 -0.12557714 0.076880984 0.038689718
16880000000 -0.39872703 0.66746926 0.15431803 -0.15527478 0.15449208 -0.15557337 0.049894009 0.0088640722
16890000000 -0.38646472 0.68696344 0.11728613 -0.17888477 0.11737622 -0.17929381 0.018842604 -0.01608922
16900000000 -0.37398121 0.70527202 0.07753545 -0.19339517 0.077396736 -0.19372712 -0.016352173 -0.025302162
16910000000 -0.35962233 0.7206682 0.037379026 -0.2019362 0.037261486 -0.2021642 -0.048401635 -0.018560767
16920000000 -0.34413224 0.73522586 -0.0030802712 -0.20177433 -0.0031617135 -0.20167278 -0.08202447 0.0012875646
16930000000 -0.32719547 0.74802762 -0.043580409 -0.19379094 -0.043295719 -0.19396707 -0.11385483 0.03466551
16940000000 -0.30813 0.76208919 -0.08072748 -0.17791729 -0.080609702 -0.17832543 -0.13376758 0.069183744
16950000000 -0.28841847 0.77546757 -0.1156162 -0.15385824 -0.11581439 -0.15429994 -0.13978851 0.11035349
16960000000 -0.26816222 0.78995454 -0.14356533 -0.12338862 -0.143608 -0.12349366 -0.11934501 0.15049066
16970000000 -0.24868718 0.80452728 -0.1641918 -0.08662793 -0.16437992 -0.086932823 -0.08040005 0.18398422
16980000000 -0.22971776 0.82039231 -0.17468929 -0.0473185 -0.17476308 -0.047557965 -0.030873075 0.20721211
16990000000 -0.21117707 0.83635151 -0.17477867 -0.0078224167 -0.17517769 -0.0080752671 0.023091301 0.20642102
17000000000 -0.19283149 0.85180473 -0.16648462 0.029109158 -0.16679756 0.029001467 0.065148138 0.18040559
