!Keysight Technologies,P9374A,MY57211807,A.19.30.04
!Date: Friday, May 01, 2026 14:06:19
!Correction: S11(C  2-Port  ) 
!S21(C  2-Port  ) 
!S12(C  2-Port  ) 
!S22(C  2-Port  ) 
!S2P File: Measurements: S11, S21, S12, S22:
# Hz S  RI   R 50
13000000000 0.049949184 0.098895356 -0.11163029 0.063573122 -0.11087036 0.065585271 0.010418579 0.18169051
13010000000 0.053922601 0.10399187 -0.079174533 0.099110782 -0.077790357 0.10038306 -0.0051846206 0.15775643
13020000000 0.050559394 0.095920876 -0.033139534 0.1231322 -0.031421967 0.12385742 -0.034157362 0.15446979
13030000000 0.048280634 0.096931815 0.013353333 0.12625101 0.015381414 0.12619179 -0.040684409 0.17793296
13040000000 0.041766599 0.091053456 0.061460719 0.11030355 0.063060656 0.10980748 -0.026723562 0.19680251
13050000000 0.041654464 0.095079534 0.09796302 0.080529638 0.099621333 0.079277866 -0.0015067793 0.19317663
13060000000 0.038494505 0.091488242 0.12174047 0.035864737 0.12246081 0.034105502 0.0053746179 0.17016396
13070000000 0.039294403 0.096789576 0.12727092 -0.013911333 0.12731877 -0.01601778 -0.012242597 0.1548564
13080000000 0.040705662 0.094483063 0.11201785 -0.060957026 0.11123034 -0.062691979 -0.03216707 0.16280738
13090000000 0.044089265 0.097862095 0.079360433 -0.099125966 0.078167707 -0.10047949 -0.032115467 0.1864699
13100000000 0.045980014 0.096466228 0.036772937 -0.12046617 0.035222769 -0.12138813 -0.0049971044 0.20221151
13110000000 0.04871165 0.10025643 -0.012426825 -0.1253861 -0.014425954 -0.1254418 0.015975825 0.19048886
13120000000 0.049124885 0.093042485 -0.05916477 -0.11114632 -0.060927667 -0.11066449 0.011841542 0.16509901
13130000000 0.045961432 0.098026253 -0.097956769 -0.080466986 -0.099367827 -0.079149812 -0.016778477 0.15397374
13140000000 0.048116401 0.09273845 -0.12078992 -0.036271304 -0.12165705 -0.034850303 -0.037506424 0.16886392
13150000000 0.044103447 0.097898006 -0.12486963 0.01093851 -0.1250855 0.012670513 -0.031939529 0.19329837
13160000000 0.047157753 0.093025789 -0.11135846 0.057062458 -0.11079633 0.05883795 -0.0029472485 0.20325743
13170000000 0.044662599 0.099271372 -0.081887335 0.095459454 -0.080743529 0.09675286 0.022674032 0.19092096
13180000000 0.04988122 0.095068105 -0.039501347 0.11949892 -0.037817568 0.12036153 0.023359668 0.16740926
13190000000 0.052255012 0.099629961 0.009574702 0.12699583 0.011277894 0.12700325 0.0075481897 0.155186
13200000000 0.057336345 0.095264241 0.056815464 0.11326487 0.058357604 0.11285797 -0.013558604 0.16443308
13210000000 0.061674315 0.09762457 0.095659241 0.082971618 0.096766412 0.082047351 -0.012255028 0.18433675
13220000000 0.063659206 0.09044309 0.11903709 0.040987715 0.11997543 0.039573781 0.0063151866 0.19656378
13230000000 0.061318893 0.092815265 0.12621173 -0.0079358928 0.12630838 -0.0097152628 0.030496009 0.18924499
13240000000 0.06453412 0.088151306 0.11445186 -0.054834489 0.11401434 -0.056205779 0.03334767 0.17102285
13250000000 0.059985004 0.090145431 0.084732667 -0.095481418 0.083927415 -0.096569039 0.025359366 0.16197316
13260000000 0.060642246 0.089312106 0.042144101 -0.12016789 0.041012496 -0.12119015 0.008973388 0.16669707
13270000000 0.061634913 0.09164536 -0.0065326877 -0.12559779 -0.0082578082 -0.12586629 0.0092079714 0.18401606
13280000000 0.065163895 0.088934191 -0.053273305 -0.11497025 -0.054878458 -0.11434579 0.024996616 0.18721056
13290000000 0.069192663 0.088866897 -0.093129724 -0.084855355 -0.093975648 -0.08418636 0.03755562 0.180136
13300000000 0.078142509 0.083111152 -0.12016983 -0.044563375 -0.12095859 -0.043294463 0.046707559 0.15782365
13310000000 0.078108951 0.076591931 -0.1273234 0.0041276366 -0.12769732 0.0056596547 0.036001373 0.14933884
13320000000 0.080269277 0.07111977 -0.11778312 0.052779436 -0.11724423 0.054373085 0.034895297 0.15574509
13330000000 0.078595713 0.067616746 -0.087520614 0.092358455 -0.086955808 0.093266778 0.037166435 0.16994925
13340000000 0.076047152 0.065238014 -0.045003299 0.12026665 -0.043964464 0.12107252 0.052150607 0.17818832
13350000000 0.071070254 0.069500811 0.0034954697 0.12745433 0.0047247522 0.12794213 0.056900766 0.16679646
13360000000 0.075644895 0.071747832 0.052810445 0.11779231 0.054469652 0.11755635 0.051189203 0.15437555
13370000000 0.075335495 0.070922099 0.092398942 0.089947551 0.093502976 0.089048587 0.043192022 0.14238645
13380000000 0.083529115 0.071565717 0.1197145 0.046942629 0.12045897 0.045713983 0.041563146 0.14746091
13390000000 0.085647397 0.062185694 0.12800793 -0.00069361203 0.12828597 -0.00213004 0.053558692 0.14955409
13400000000 0.088729866 0.055126518 0.11783623 -0.050570495 0.11761791 -0.052046709 0.061806194 0.15459466
13410000000 0.081063434 0.042204339 0.09204828 -0.090932094 0.090986557 -0.092207 0.068598866 0.14805005
13420000000 0.082300864 0.039966609 0.049347751 -0.12132362 0.047898222 -0.12179405 0.06004899 0.1382156
13430000000 0.071486108 0.034333952 0.00052786618 -0.13072853 -0.00065103546 -0.13091181 0.0533338 0.13079894
13440000000 0.072549887 0.042314999 -0.049830064 -0.11936371 -0.051310796 -0.11942661 0.050264526 0.12501842
13450000000 0.068634093 0.043047648 -0.092228763 -0.092612818 -0.093597844 -0.091560349 0.057035144 0.12655869
13460000000 0.078016452 0.046806708 -0.11947469 -0.050175175 -0.12018765 -0.048962887 0.066115409 0.12677839
13470000000 0.078206584 0.043077089 -0.13157517 -0.001263503 -0.13182652 0.00013967603 0.069251224 0.1281645
13480000000 0.087947704 0.037538618 -0.12049188 0.047549494 -0.12041405 0.049213275 0.065086424 0.12406343
13490000000 0.079787664 0.027434563 -0.094431415 0.091271691 -0.093386151 0.092685267 0.060924023 0.12162054
13500000000 0.078351505 0.019804442 -0.053476647 0.11933467 -0.05189319 0.12025066 0.05761978 0.1145788
13510000000 0.065365091 0.012669201 -0.0022492334 0.13202311 -0.00072997063 0.13237008 0.060330868 0.10966617
13520000000 0.06209559 0.015129942 0.046018682 0.12354479 0.047983725 0.12304772 0.062861711 0.1043857
13530000000 0.052514438 0.017032787 0.091405205 0.0953857 0.092796803 0.094434246 0.060922828 0.10479349
13540000000 0.05907128 0.025169671 0.12034952 0.054790877 0.1212295 0.053086892 0.057897411 0.10249827
13550000000 0.061275832 0.023776842 0.13172409 0.003165815 0.13196413 0.0015456378 0.052025165 0.10416809
13560000000 0.069807038 0.025093962 0.12428696 -0.046102691 0.12397674 -0.047800582 0.053096592 0.10202943
13570000000 0.070865944 0.017494312 0.096706122 -0.090048537 0.0955538 -0.091849416 0.055619858 0.098223016
13580000000 0.070579514 0.012400645 0.056120627 -0.12020567 0.054350313 -0.12137397 0.061014805 0.09709084
13590000000 0.060184777 0.0045390232 0.0056168544 -0.13248715 0.0038022306 -0.13265693 0.05914478 0.096292779
13600000000 0.050734218 0.0068741646 -0.045187779 -0.12503028 -0.047088705 -0.12452011 0.05917044 0.095772631
13610000000 0.041258868 0.006695671 -0.089646474 -0.098821931 -0.091495901 -0.097598627 0.056695115 0.090188712
13620000000 0.037709344 0.01673634 -0.12137894 -0.057021584 -0.12231725 -0.055036601 0.04931223 0.088646442
13630000000 0.036421172 0.017736671 -0.13324341 -0.0062638782 -0.13344993 -0.0041729808 0.044842526 0.083150946
13640000000 0.044928785 0.024910297 -0.12594929 0.045395367 -0.12534945 0.047170814 0.037462704 0.088048518
13650000000 0.049079295 0.013592307 -0.098354809 0.089179412 -0.097119793 0.090918779 0.043675698 0.097704925
13660000000 0.054812513 0.013467862 -0.057397455 0.12014128 -0.05539716 0.12122635 0.047048677 0.097658776
13670000000 0.052555181 0.0015435899 -0.007447511 0.13114215 -0.0054166317 0.13132611 0.059531309 0.091544293
13680000000 0.04873392 0.002376819 0.042044118 0.12541156 0.044024445 0.12526858 0.057472512 0.076013327
13690000000 0.039615542 0.0023452751 0.0858557 0.10034256 0.087946542 0.098740801 0.049387366 0.0755485
13700000000 0.037711311 0.011073276 0.11962992 0.060003817 0.12076391 0.058012899 0.041948661 0.078373328
13710000000 0.032915805 0.016671099 0.13189778 0.01074853 0.13211071 0.0083717369 0.039201047 0.094800852
13720000000 0.037448589 0.025386162 0.12625296 -0.041612331 0.1257738 -0.043965563 0.050517395 0.097190037
13730000000 0.040694173 0.021165047 0.10218348 -0.084531747 0.10078033 -0.086448915 0.051133979 0.087261163
13740000000 0.043554079 0.022703644 0.060847923 -0.11942421 0.058809243 -0.12043995 0.053418383 0.075071134
13750000000 0.045504808 0.013159605 0.012837913 -0.13386104 0.010776583 -0.13433498 0.045047469 0.070842355
13760000000 0.043328844 0.0083689 -0.040595088 -0.12704939 -0.042980283 -0.12676959 0.042288102 0.085468255
13770000000 0.039581433 0.00062282197 -0.084572546 -0.10402346 -0.086373024 -0.10251972 0.048539933 0.09505032
13780000000 0.035860512 0.0038725068 -0.11649536 -0.060965024 -0.11775061 -0.058997452 0.063417427 0.098005354
13790000000 0.036683839 0.0044587376 -0.13294862 -0.012831638 -0.13344881 -0.010485081 0.069187894 0.080372885
13800000000 0.036442172 0.01087673 -0.12594536 0.036594912 -0.12538895 0.039080776 0.06159094 0.061179325
13810000000 0.043038465 0.012142211 -0.10483218 0.083776265 -0.10344735 0.085901037 0.048722789 0.054211166
13820000000 0.046362802 0.013241403 -0.065506026 0.11410917 -0.063645311 0.11582821 0.039673816 0.073042668
13830000000 0.049520776 0.0096989255 -0.015061907 0.13205174 -0.012458559 0.13250485 0.047968186 0.094106182
13840000000 0.048291653 0.0064090528 0.034157045 0.12754728 0.036341563 0.12734762 0.065578848 0.096015796
13850000000 0.045226492 -0.00083673559 0.08199966 0.10366589 0.084015451 0.1023456 0.077511229 0.079517499
13860000000 0.03958419 -0.0018255846 0.11453804 0.067853808 0.11573365 0.065925516 0.072724387 0.056942433
13870000000 0.038534775 -0.0052344343 0.13072094 0.017266572 0.13136792 0.014950849 0.05758838 0.045064215
13880000000 0.033780072 -0.006299973 0.12946548 -0.03105174 0.12907512 -0.033368833 0.051784068 0.05455244
13890000000 0.03867545 -0.0059696557 0.10609949 -0.078550048 0.10486097 -0.080529459 0.059246108 0.070757985
13900000000 0.037230756 -0.0083159851 0.070468619 -0.11357553 0.068517655 -0.11514613 0.071061641 0.073074624
13910000000 0.042738967 -0.0099809375 0.021886289 -0.13109688 0.019448042 -0.13158715 0.080365144 0.057657234
13920000000 0.039770622 -0.01183122 -0.030254509 -0.13146268 -0.032586876 -0.13119353 0.07197053 0.037649069
13930000000 0.044468801 -0.013895993 -0.076967373 -0.10883617 -0.079071678 -0.10742811 0.056943949 0.033458218
13940000000 0.036202371 -0.017952628 -0.11406482 -0.07209073 -0.11540792 -0.07020355 0.050069101 0.044812754
13950000000 0.036048606 -0.016152695 -0.1310648 -0.022811696 -0.13145964 -0.020415306 0.060235281 0.062914453
13960000000 0.027840802 -0.019126534 -0.13020322 0.028824534 -0.12965007 0.031195339 0.081888825 0.062613606
13970000000 0.02631839 -0.020738799 -0.10960729 0.075599313 -0.10836084 0.077402659 0.087125786 0.040492047
13980000000 0.019025525 -0.022655712 -0.072621554 0.11169374 -0.070935331 0.11318591 0.078362167 0.015197869
13990000000 0.022434697 -0.026250239 -0.024952445 0.13033597 -0.022706589 0.13107191 0.053054348 0.0056910627
14000000000 0.013756005 -0.031627368 0.027009591 0.13029209 0.029154664 0.13035823 0.038315605 0.024876991
14010000000 0.017942281 -0.032277368 0.071518108 0.10952599 0.073778078 0.10867579 0.04518979 0.039855808
14020000000 0.013551245 -0.036811527 0.1083476 0.075081855 0.10994375 0.073262334 0.063298054 0.047567282
14030000000 0.017490786 -0.036889479 0.1293759 0.030575879 0.13035764 0.028331358 0.074989803 0.026985297
14040000000 0.010759493 -0.035409134 0.13226227 -0.021988329 0.13213804 -0.024722464 0.063267566 0.0057742465
14050000000 0.01586665 -0.032735944 0.11599419 -0.070600167 0.11481607 -0.072831772 0.047440823 -0.00061876699
14060000000 0.0074817194 -0.034180045 0.077594638 -0.10873184 0.075658709 -0.11053389 0.033258438 0.01352046
14070000000 0.0080737974 -0.031314351 0.031948786 -0.13081799 0.029278478 -0.13145319 0.040738441 0.027736124
14080000000 -0.00032890914 -0.030838063 -0.019424278 -0.13075092 -0.021732727 -0.13059707 0.051966641 0.020604268
14090000000 -0.0030762432 -0.030299917 -0.068453439 -0.11717173 -0.070864201 -0.11609943 0.054119356 0.0028838627
14100000000 -0.013280015 -0.030891221 -0.10664844 -0.081900127 -0.10837235 -0.07989195 0.037417322 -0.018930571
14110000000 -0.015357833 -0.02965758 -0.13284165 -0.035425976 -0.13371535 -0.032955255 0.019140717 -0.015446944
14120000000 -0.020139337 -0.031713694 -0.13486727 0.01652215 -0.13464312 0.019239787 0.01574537 0.0035590469
14130000000 -0.019278239 -0.029749725 -0.11830806 0.069611281 -0.11713316 0.0718816 0.027325381 0.023369117
14140000000 -0.021867886 -0.032043785 -0.083289228 0.10575734 -0.081336878 0.10760124 0.045840017 0.021350358
14150000000 -0.019605089 -0.029566403 -0.036572658 0.1307746 -0.033997059 0.13171771 0.050256543 0.00046667783
14160000000 -0.021294829 -0.032974608 0.013028488 0.13499701 0.015939586 0.13505352 0.037573975 -0.02177874
14170000000 -0.022433445 -0.02795805 0.064964145 0.11992977 0.067714579 0.11894665 0.015417523 -0.026077386
14180000000 -0.025865605 -0.029050175 0.10607359 0.088035181 0.10816942 0.085888669 0.0040969644 -0.0073076794
14190000000 -0.031514965 -0.020440746 0.1300009 0.038876984 0.13130401 0.035971928 0.008337805 0.017374311
14200000000 -0.034114283 -0.020951465 0.13731116 -0.011546552 0.13722992 -0.014966141 0.020726575 0.02441849
14210000000 -0.03800096 -0.012165247 0.11998848 -0.062010009 0.11846626 -0.064697251 0.024525484 0.0088793328
14220000000 -0.03813855 -0.016106021 0.090324469 -0.10518046 0.088051371 -0.1072308 0.01261463 -0.0067962422
14230000000 -0.039613444 -0.0093055284 0.043629445 -0.13031843 0.040795948 -0.13135071 -0.0038612133 -0.011725711
14240000000 -0.036872044 -0.015935872 -0.011140544 -0.14076474 -0.014206413 -0.14067887 -0.008550535 0.0026178341
14250000000 -0.037946638 -0.011949767 -0.061326973 -0.12372217 -0.064151645 -0.12258337 0.0080463942 0.015278597
14260000000 -0.038180526 -0.020064374 -0.10586875 -0.089654453 -0.1080138 -0.087555379 0.020468235 0.013803826
14270000000 -0.039308731 -0.01130381 -0.12861992 -0.045708198 -0.13003749 -0.042628925 0.019365197 -0.0027907691
14280000000 -0.040165808 -0.017661307 -0.13771133 0.0086542908 -0.13797802 0.011969298 0.00044132397 -0.017495312
14290000000 -0.041484378 -0.0031810589 -0.1266233 0.056948632 -0.12541176 0.060147341 -0.017779922 -0.0084495237
14300000000 -0.041134886 -0.0059489012 -0.094665393 0.1035119 -0.092189915 0.10605849 -0.022675389 0.0099968519
14310000000 -0.041798811 0.0073179221 -0.049985692 0.13232431 -0.046791524 0.13362414 -0.004567869 0.029290587
14320000000 -0.040146895 0.00053269789 0.0073726699 0.13821593 0.010657676 0.13814779 0.017711092 0.025641549
14330000000 -0.03876169 0.0088204518 0.058895096 0.12713426 0.061893653 0.12584727 0.018925369 0.011269336
14340000000 -0.038518377 -0.0012946334 0.10034731 0.093227178 0.1025454 0.091239855 0.0065062982 -0.0086598443
14350000000 -0.040283728 0.0026341034 0.13043475 0.050971642 0.13186707 0.04821562 -0.015300082 -0.0082014911
14360000000 -0.040644959 -0.0063386811 0.13872306 -0.0012848948 0.13899383 -0.0046410775 -0.01725 0.0079952665
14370000000 -0.043008365 -0.0018690452 0.12946974 -0.055337876 0.12838905 -0.058398016 -0.011288055 0.017771672
14380000000 -0.043563932 -0.0065126345 0.098482609 -0.10035445 0.096056379 -0.10300374 0.0062407129 0.018086977
14390000000 -0.040732842 0.0051645376 0.05146512 -0.13096964 0.048346166 -0.13222636 0.0085494239 0.0020457113
14400000000 -0.038797319 0.00090422854 -0.00012231618 -0.14005189 -0.003279984 -0.14005339 -0.005425984 -0.0011740976
14410000000 -0.036381569 0.012272593 -0.053404927 -0.12978645 -0.056487713 -0.12880924 -0.01333768 -0.00010366738
14420000000 -0.031793833 0.008297327 -0.097497232 -0.10148972 -0.099961095 -0.099422097 -0.01331085 0.016993465
14430000000 -0.030442331 0.010123676 -0.13034035 -0.055940896 -0.13186952 -0.053061116 0.0037397025 0.02687156
14440000000 -0.031713471 0.0039483942 -0.14241861 -0.001323618 -0.14276437 0.0019596126 0.013823694 0.015012661
14450000000 -0.036985435 0.0041978024 -0.13050248 0.053722978 -0.12954341 0.056970529 0.012274855 -0.0044773514
14460000000 -0.043569874 -0.0020286907 -0.10064789 0.098216474 -0.098557748 0.10074551 -0.0076796883 -0.018726889
14470000000 -0.047726393 -0.00053378008 -0.055849902 0.12670763 -0.052831776 0.12823644 -0.02565201 -0.011901265
14480000000 -0.051036831 -7.5615942e-05 -0.0061370172 0.14079131 -0.0027478933 0.1411771 -0.02734866 0.0046982421
14490000000 -0.04963579 0.0039647631 0.048182763 0.13230565 0.051292535 0.13126178 -0.013004977 0.021553166
14500000000 -0.042729978 0.0039610136 0.096488886 0.10539371 0.098968491 0.103303 0.0052949777 0.018222317
14510000000 -0.040219799 0.0050964402 0.12861969 0.059484337 0.13027368 0.056699254 0.0081025595 -0.00068348343
14520000000 -0.034086023 -0.00039952621 0.14215426 0.0051826537 0.14277807 0.0018325411 -0.0025865713 -0.01628967
14530000000 -0.035900474 -0.001215579 0.13172196 -0.047390766 0.13104494 -0.050661374 -0.015209572 -0.018892124
14540000000 -0.038495798 -0.0051850621 0.10511798 -0.093400478 0.10294545 -0.09633521 -0.019515216 -0.0083118752
14550000000 -0.047191702 -0.0030697994 0.063203216 -0.12558538 0.060189527 -0.12717098 -0.011067703 0.00084927119
14560000000 -0.053574089 -0.00031192973 0.0092440378 -0.14138602 0.0059277564 -0.14176795 -0.011511184 -0.00061636325
14570000000 -0.060805161 0.0038615246 -0.045454096 -0.1342711 -0.048331253 -0.1334264 -0.016955795 -0.0047963168
14580000000 -0.061143786 0.0083719455 -0.093624368 -0.10562339 -0.096275367 -0.10395467 -0.029611256 -0.011876687
14590000000 -0.061447442 0.0098550776 -0.12489395 -0.06358172 -0.12682699 -0.06088613 -0.036085207 -0.0090186018
14600000000 -0.056756333 0.0097514521 -0.13868907 -0.011995807 -0.13940986 -0.0086815134 -0.029840186 -0.0058613997
14610000000 -0.054722387 0.0034813304 -0.13509262 0.040449187 -0.13437468 0.043756023 -0.021121066 -0.0043275114
14620000000 -0.054445039 -0.00037747622 -0.10884672 0.089654505 -0.10680783 0.092239566 -0.01565925 -0.0081585264
14630000000 -0.059528522 -0.0038268752 -0.067606881 0.12571476 -0.065099232 0.12731294 -0.023238897 -0.016395865
14640000000 -0.061794136 6.5542758e-05 -0.01317503 0.14029939 -0.01013676 0.14096092 -0.039368846 -0.019762561
14650000000 -0.070329688 0.0036601932 0.040296525 0.13481481 0.043181919 0.13434413 -0.050130595 -0.018160732
14660000000 -0.069967493 0.013170775 0.085837789 0.10831223 0.088579722 0.10680937 -0.054548472 -0.0083390847
14670000000 -0.076930985 0.017900072 0.12209515 0.069074988 0.12385421 0.066708103 -0.044565644 -0.001302328
14680000000 -0.070583925 0.026801813 0.13880178 0.018478565 0.13926053 0.015614152 -0.0432944 -0.0027971696
14690000000 -0.074133195 0.024079926 0.13736975 -0.035781603 0.13691573 -0.038422722 -0.042803276 -0.0035693822
14700000000 -0.070019655 0.026417874 0.11288723 -0.084422521 0.11149919 -0.086696394 -0.054012436 -0.010702747
14710000000 -0.074779429 0.01925759 0.071398899 -0.12115555 0.069412187 -0.12267556 -0.060248137 -0.0037786625
14720000000 -0.074497476 0.020292846 0.020971142 -0.13839024 0.018301109 -0.13919364 -0.058441322 -0.0056493534
14730000000 -0.079779401 0.017277192 -0.033208549 -0.13642536 -0.035908505 -0.13618824 -0.057639621 0.00067879446
14740000000 -0.080472231 0.023669878 -0.081507042 -0.11565799 -0.08388824 -0.11443238 -0.054533262 -0.0035086684
14750000000 -0.083476961 0.027128322 -0.11953092 -0.075904422 -0.12115535 -0.073690891 -0.065887354 -0.0028537028
14760000000 -0.078709662 0.038876317 -0.13938096 -0.024700005 -0.14013052 -0.022275034 -0.072199091 0.0015444048
14770000000 -0.0799606 0.041819114 -0.13702348 0.030170796 -0.13676126 0.032763384 -0.077930659 0.0091367085
14780000000 -0.072104789 0.052767169 -0.11614043 0.080334909 -0.11488753 0.082577512 -0.071753867 0.019469311
14790000000 -0.073081963 0.049139697 -0.077740461 0.11684304 -0.07578738 0.1185364 -0.065121435 0.021762274
14800000000 -0.070889793 0.054402139 -0.02836439 0.1393051 -0.025866199 0.14015287 -0.062678359 0.021480992
14810000000 -0.075031459 0.049409844 0.025840987 0.13881296 0.028327458 0.13862258 -0.06678465 0.014910277
14820000000 -0.076467261 0.054776341 0.077849172 0.11928074 0.08006829 0.11806356 -0.076994687 0.0134179
14830000000 -0.079946816 0.050404754 0.11672363 0.080461532 0.11838794 0.078657888 -0.078569442 0.015900616
14840000000 -0.079058863 0.057863649 0.13910179 0.030277591 0.14002517 0.027936315 -0.07879664 0.019953456
14850000000 -0.076865256 0.05601028 0.13968359 -0.022799 0.13975736 -0.025435846 -0.074428275 0.030522613
14860000000 -0.071774483 0.06408044 0.12149566 -0.074094556 0.12038716 -0.076584801 -0.068415806 0.03678019
14870000000 -0.065816313 0.064310372 0.084613964 -0.11375988 0.082782455 -0.11542459 -0.072536811 0.043406043
14880000000 -0.056200039 0.070969731 0.034315694 -0.13880783 0.031992495 -0.13974154 -0.068826474 0.044520505
14890000000 -0.05255137 0.066953674 -0.020150807 -0.14074059 -0.022594087 -0.14092159 -0.071066648 0.039237522
14900000000 -0.046862796 0.073265962 -0.07315924 -0.12352981 -0.075533211 -0.12263923 -0.067828491 0.040380336
14910000000 -0.047072653 0.067887023 -0.11256528 -0.087233126 -0.11443494 -0.085422002 -0.064370893 0.039383024
14920000000 -0.050742645 0.073242113 -0.13853957 -0.038260832 -0.13941111 -0.035888754 -0.064565808 0.046454199
14930000000 -0.051645674 0.071287431 -0.14232042 0.016843107 -0.14237052 0.019234123 -0.064636208 0.047610737
14940000000 -0.053059645 0.07673388 -0.12517348 0.070204608 -0.12433529 0.072415739 -0.071592607 0.049320817
14950000000 -0.052807912 0.074525259 -0.089605592 0.11310851 -0.087906964 0.11497568 -0.070947468 0.04918566
14960000000 -0.049043052 0.080424443 -0.040519454 0.13812843 -0.038317326 0.13929479 -0.066321656 0.047679171
14970000000 -0.041210338 0.073121637 0.01435253 0.14444196 0.016940359 0.14453493 -0.056579627 0.052179202
14980000000 -0.03655747 0.072332069 0.066828817 0.12781861 0.06921196 0.12686296 -0.048338335 0.054175939
14990000000 -0.029683491 0.063182302 0.11081903 0.093060076 0.11255388 0.091391042 -0.047419939 0.060159624
15000000000 -0.02788526 0.062168792 0.13756131 0.043936908 0.13867199 0.041740529 -0.045509994 0.059962183
15010000000 -0.027934581 0.05528884 0.14477681 -0.012125194 0.14492989 -0.014827762 -0.051788211 0.052351404
15020000000 -0.029286724 0.060390621 0.12976009 -0.065926671 0.12876657 -0.068519838 -0.05303891 0.048700076
15030000000 -0.029867223 0.058281403 0.095049724 -0.11047443 0.093094677 -0.11234377 -0.057089396 0.041077822
15040000000 -0.031659439 0.066910468 0.047011271 -0.13729042 0.044694412 -0.13838112 -0.056320041 0.05396463
15050000000 -0.029209096 0.064901203 -0.009083828 -0.14493254 -0.01171154 -0.14517523 -0.049089197 0.057130609
15060000000 -0.027241293 0.069957092 -0.063419342 -0.13042332 -0.066044837 -0.12961334 -0.051741395 0.063554034
15070000000 -0.023814971 0.06018357 -0.10867587 -0.097262911 -0.11084417 -0.095377803 -0.041143466 0.057070605
15080000000 -0.025845051 0.058065481 -0.13774435 -0.049021542 -0.13881984 -0.046553794 -0.047794007 0.044524498
15090000000 -0.024701022 0.048583899 -0.1457967 0.0065325201 -0.14597082 0.0092631876 -0.041191339 0.040844973
15100000000 -0.02956496 0.045732129 -0.13297261 0.060555138 -0.13208739 0.063332275 -0.045319259 0.034462366
15110000000 -0.031718977 0.041810445 -0.099935293 0.10684885 -0.097971037 0.10896613 -0.044129379 0.047053266
15120000000 -0.033974048 0.045232404 -0.0519544 0.13682212 -0.049425796 0.13823609 -0.04520132 0.047365732
15130000000 -0.033622149 0.04582151 0.0041378047 0.14596957 0.0070975255 0.14616127 -0.05098398 0.054847546
15140000000 -0.032399133 0.052540801 0.059906874 0.13354772 0.062711343 0.13265102 -0.050860837 0.048954032
15150000000 -0.028918521 0.052343644 0.10502552 0.099905089 0.1072499 0.097978719 -0.058509398 0.048829075
15160000000 -0.027634989 0.053342301 0.1352291 0.053572141 0.13680266 0.051070314 -0.053616893 0.049766973
15170000000 -0.027049061 0.048692364 0.1451049 -0.001216583 0.14531332 -0.0044280812 -0.053044371 0.04962641
15180000000 -0.032160696 0.048618779 0.13366953 -0.056238279 0.13268168 -0.059112467 -0.049015619 0.050415698
15190000000 -0.034887269 0.046074584 0.10273533 -0.10208602 0.10083923 -0.10447966 -0.051353626 0.041304152
15200000000 -0.041874319 0.046844535 0.055711605 -0.13385594 0.052916769 -0.13560827 -0.060177632 0.037628941
15210000000 -0.043158688 0.049743731 0.0010906793 -0.14458466 -0.0022838116 -0.14490488 -0.065702386 0.038881071
15220000000 -0.044014186 0.051536411 -0.053303163 -0.13435261 -0.056314211 -0.13333932 -0.070496373 0.047171548
15230000000 -0.041851379 0.055158425 -0.099838398 -0.10501938 -0.1024372 -0.10295872 -0.064151704 0.059744451
15240000000 -0.037153892 0.055690549 -0.13092493 -0.058143456 -0.1327498 -0.055274844 -0.058550097 0.063166738
15250000000 -0.033957258 0.055887759 -0.14286263 -0.004699368 -0.14332904 -0.0013058838 -0.054502647 0.064612754
15260000000 -0.0330684 0.054062087 -0.13450676 0.049311627 -0.13352132 0.052618816 -0.052955616 0.055840615
15270000000 -0.03256559 0.055969179 -0.10531294 0.09619917 -0.10327003 0.098879755 -0.062447865 0.054032356
15280000000 -0.034024775 0.055348005 -0.062232967 0.1280618 -0.059225682 0.12976162 -0.068370901 0.058415487
15290000000 -0.035790488 0.061026137 -0.0085454434 0.1421331 -0.0051406547 0.14266708 -0.075660236 0.065675259
15300000000 -0.036723487 0.061121713 0.045414507 0.13506559 0.048711717 0.13406649 -0.074628353 0.075889498
15310000000 -0.03456863 0.068021014 0.093927406 0.10721029 0.096558973 0.10530865 -0.07168439 0.073610082
15320000000 -0.032085042 0.063685954 0.1266783 0.064460173 0.12847714 0.06168269 -0.06843476 0.073592335
15330000000 -0.030169886 0.069504678 0.14135034 0.011929357 0.14195448 0.0085939784 -0.059204537 0.071352214
15340000000 -0.027123811 0.062348984 0.13557638 -0.041357595 0.13477044 -0.044684108 -0.056363717 0.073014468
15350000000 -0.02525739 0.066511035 0.10933221 -0.0897521 0.10741147 -0.092458442 -0.051410407 0.080914751
15360000000 -0.023682555 0.059946932 0.068460092 -0.123776 0.065861881 -0.12559238 -0.054408725 0.082031697
15370000000 -0.019874441 0.065580904 0.016560286 -0.1396345 0.013029173 -0.14052935 -0.059787702 0.088726021
15380000000 -0.018084129 0.06072408 -0.036337059 -0.13570282 -0.03970531 -0.13500354 -0.059984062 0.086279362
15390000000 -0.014470887 0.065391205 -0.085250467 -0.11218894 -0.088169165 -0.1103247 -0.063830063 0.089667022
15400000000 -0.012319522 0.059585214 -0.12173313 -0.072048716 -0.12374314 -0.069277957 -0.052612416 0.09455587
15410000000 -0.0084104147 0.064109258 -0.14038967 -0.021485899 -0.14122793 -0.018043008 -0.05045221 0.097910285
15420000000 -0.0079824235 0.056015879 -0.13802887 0.032726817 -0.13742629 0.036187448 -0.03903053 0.10315226
15430000000 -0.0053328462 0.060535617 -0.11475177 0.082167178 -0.11281152 0.0852267 -0.040365227 0.09206742
15440000000 -0.006166555 0.052390132 -0.074755386 0.11922143 -0.071785629 0.12120233 -0.04360107 0.09028355
15450000000 -0.0041507613 0.056244843 -0.024575388 0.13909338 -0.02101402 0.13993958 -0.043395523 0.08017204
15460000000 -0.0010187589 0.048317261 0.028700428 0.13827971 0.032371406 0.13770582 -0.045346603 0.089728437
15470000000 0.002305994 0.051040065 0.078317381 0.11861826 0.081525572 0.11684461 -0.030898973 0.095915079
15480000000 0.0041727875 0.043076597 0.11670434 0.080838926 0.1189623 0.077880144 -0.027987022 0.10429481
15490000000 0.0078286165 0.043882858 0.1391498 0.030211743 0.14013217 0.026569348 -0.017593298 0.1094413
15500000000 0.0070795966 0.035220318 0.13963157 -0.024558034 0.13925235 -0.028253216 -0.020284239 0.1011693
15510000000 0.0089395959 0.034633774 0.12123422 -0.076281309 0.11928528 -0.079751857 -0.019581269 0.10171992
15520000000 0.0054574339 0.029874237 0.08371076 -0.11623582 0.080678925 -0.11853598 -0.017617594 0.092649043
15530000000 0.0057186815 0.031436071 0.033636115 -0.13901533 0.029969767 -0.1401559 -0.018651526 0.093185931
15540000000 0.0029115954 0.0265981 -0.02066467 -0.14127448 -0.024591854 -0.1408086 -0.01528962 0.091408335
15550000000 0.0066634165 0.028219795 -0.073302664 -0.12293594 -0.076698124 -0.12126679 -0.022218145 0.088602744
15560000000 0.0059539326 0.021459047 -0.11407509 -0.086579986 -0.11652372 -0.083499864 -0.022531949 0.09204416
15570000000 0.011172556 0.018140076 -0.13890402 -0.037773326 -0.1401681 -0.034145579 -0.021184411 0.091581628
15580000000 0.0081314947 0.0080426177 -0.14312553 0.016774543 -0.14284787 0.020814735 -0.012410797 0.09911371
15590000000 0.0074540926 0.0034532426 -0.12699455 0.070156828 -0.12519585 0.073542506 0.0036897175 0.094176136
15600000000 0.0019780439 -0.0022426075 -0.090506449 0.1134129 -0.087666124 0.11596891 0.0061024595 0.08751303
15610000000 -0.00082337315 -0.0023160286 -0.041015536 0.13948911 -0.037272692 0.14077596 0.0078380797 0.077308618
15620000000 -0.0044617695 -0.00176101 0.015080163 0.14443359 0.018855754 0.14403634 -0.0090739746 0.067603782
15630000000 -0.002181927 -0.00084849383 0.068378597 0.12765092 0.071591295 0.12610298 -0.015583556 0.07529474
15640000000 -0.0038619293 -0.0015604639 0.1111659 0.092366301 0.11387973 0.089648187 -0.017814122 0.079415306
15650000000 -0.00044610538 -0.0042791246 0.137971 0.044365067 0.13936295 0.040787123 -0.012228172 0.093641877
15660000000 -0.0025374151 -0.010603463 0.14471216 -0.010962173 0.14478438 -0.014655083 0.00016918033 0.090193845
15670000000 -0.0062980698 -0.017727697 0.13047072 -0.064841114 0.12895648 -0.068529658 -6.9504604e-06 0.081399225
15680000000 -0.012141825 -0.02206843 0.096249178 -0.11017127 0.093306877 -0.11299539 0.0024309291 0.069072351
15690000000 -0.021212501 -0.028411584 0.046689492 -0.13878436 0.043013778 -0.14026824 -0.0033245049 0.058263909
15700000000 -0.027017666 -0.023835514 -0.0085438341 -0.14642876 -0.012552798 -0.14612778 -0.0042015444 0.061936527
15710000000 -0.030180521 -0.025050689 -0.062989511 -0.13296936 -0.066563204 -0.1314254 -0.0021200851 0.064735137
15720000000 -0.028434705 -0.020828618 -0.10818335 -0.099190488 -0.11080605 -0.096298046 -0.0059312563 0.071631134
15730000000 -0.026752781 -0.024865381 -0.13804036 -0.050375927 -0.13937004 -0.046989989 -0.0069937389 0.071000382
15740000000 -0.022596601 -0.024614695 -0.14627491 0.0062438771 -0.14638759 0.0099847522 -0.016226817 0.068526633
15750000000 -0.024784587 -0.034502182 -0.13413922 0.061456162 -0.13263111 0.065112315 -0.014471523 0.071706653
15760000000 -0.029717969 -0.035165586 -0.10118814 0.1070495 -0.098406248 0.11003248 -0.008075824 0.072269909
15770000000 -0.039121211 -0.041280381 -0.053424828 0.13752025 -0.049851838 0.13904676 0.00096144713 0.077821076
15780000000 -0.045560744 -0.034023575 0.0022665411 0.14719501 0.0064506605 0.14739341 0.0075681992 0.070674308
15790000000 -0.055000432 -0.034741599 0.058991574 0.13555604 0.062478006 0.13395211 -0.0047591906 0.064156771
15800000000 -0.054673199 -0.026009854 0.10613687 0.1035517 0.10899214 0.1006961 -0.013030618 0.056528892
15810000000 -0.058152098 -0.030036217 0.13791004 0.054652162 0.13950394 0.051185265 -0.028941004 0.05268006
15820000000 -0.051424675 -0.026719136 0.1478655 -0.00093851332 0.14798427 -0.0049451431 -0.025672205 0.065614969
15830000000 -0.054204363 -0.040348753 0.1356775 -0.057081454 0.13438945 -0.060796931 -0.018473633 0.071510576
15840000000 -0.054299779 -0.039720096 0.10435871 -0.10368228 0.1018896 -0.10671661 -0.0072297566 0.085666731
15850000000 -0.06206331 -0.052107014 0.05862565 -0.13589209 0.05474782 -0.13785779 0.0010885485 0.078904122
15860000000 -0.065837227 -0.04437907 0.0021528453 -0.14827159 -0.0020788163 -0.14829478 -0.0066793077 0.075555213
15870000000 -0.073259212 -0.048644237 -0.054012891 -0.13663378 -0.057879999 -0.13551457 -0.0065148361 0.067343608
15880000000 -0.072014011 -0.034201082 -0.10186303 -0.10616213 -0.10509174 -0.10326621 -0.014550588 0.063192897
15890000000 -0.072349466 -0.036930647 -0.1346231 -0.059157748 -0.13622893 -0.055386744 -0.010242794 0.067488849
15900000000 -0.067314021 -0.028499328 -0.14768879 -0.0039513558 -0.14824857 0.00017772987 -0.013683918 0.066633336
15910000000 -0.068957567 -0.038537666 -0.13812767 0.051707312 -0.13661118 0.055890635 -0.016631424 0.07732255
15920000000 -0.06962315 -0.039101671 -0.10766561 0.10045514 -0.10487483 0.10348942 -0.015371565 0.080552883
15930000000 -0.081207246 -0.049546558 -0.061089307 0.13221261 -0.057513088 0.13414197 -0.013435222 0.08899501
15940000000 -0.084441505 -0.046401195 -0.0061820596 0.14632002 -0.0019658878 0.146622 0.0010785051 0.087491393
15950000000 -0.096964039 -0.053471614 0.049056757 0.13789111 0.053000167 0.13664505 0.0028649233 0.082743548
15960000000 -0.096988305 -0.043454427 0.097626492 0.10890446 0.1009082 0.10623836 0.0059777917 0.07958255
15970000000 -0.099072456 -0.048365787 0.13122176 0.064701051 0.13313156 0.061001878 -0.0027698502 0.070023932
15980000000 -0.09084706 -0.043389395 0.14494398 0.0091594085 0.14541939 0.0051578917 -0.011855768 0.074564472
15990000000 -0.09185937 -0.052798979 0.13806166 -0.046265718 0.1370308 -0.050366264 -0.011826567 0.075490862
16000000000 -0.087861069 -0.052910365 0.10945579 -0.095057257 0.10687077 -0.098414741 -0.0087267533 0.086327717
16010000000 -0.096532986 -0.064145908 0.066531636 -0.12929967 0.062830053 -0.13138554 0.0044251159 0.088074155
16020000000 -0.10196694 -0.060918488 0.012456413 -0.14427322 0.0082801152 -0.14475176 0.006805148 0.083784342
16030000000 -0.11475752 -0.063031428 -0.043103836 -0.13824001 -0.047079355 -0.13718104 0.005978833 0.079542682
16040000000 -0.11922442 -0.053418256 -0.092436962 -0.11092415 -0.095823422 -0.10837825 0.0028064717 0.074472271
16050000000 -0.12592712 -0.053951602 -0.12757444 -0.067432046 -0.12960157 -0.063934013 0.0057580769 0.075112343
16060000000 -0.12407525 -0.049993467 -0.14337495 -0.014724426 -0.14406681 -0.010651723 0.017041717 0.075107798
16070000000 -0.12578748 -0.059398092 -0.13834932 0.040567741 -0.13736349 0.044539358 0.020717699 0.074083298
16080000000 -0.12723336 -0.062252954 -0.11349605 0.089209832 -0.11096299 0.092430584 0.018346084 0.07598792
16090000000 -0.13467517 -0.074563704 -0.069917731 0.12495287 -0.066488475 0.12733437 0.0082106581 0.073772967
16100000000 -0.14217888 -0.076124452 -0.018062463 0.14223088 -0.013808658 0.14290969 -0.00095010642 0.077322237
16110000000 -0.15344013 -0.080218941 0.037403043 0.13753051 0.041408807 0.13659899 0.0047180802 0.076584183
16120000000 -0.16018705 -0.071665563 0.08658652 0.11368534 0.09022551 0.11138158 0.014165612 0.075500563
16130000000 -0.16411534 -0.067787081 0.12315549 0.072910741 0.12540944 0.06914226 0.029882004 0.07218843
16140000000 -0.16569901 -0.060794741 0.14238639 0.020871405 0.1432644 0.016724423 0.028146125 0.06250976
16150000000 -0.16672529 -0.06191428 0.13791159 -0.034491602 0.13724358 -0.038595885 0.019513737 0.062695146
16160000000 -0.17019454 -0.063641168 0.11504471 -0.084324457 0.11258846 -0.087856777 0.0093310587 0.057317447
16170000000 -0.17873584 -0.06998603 0.072797395 -0.12077767 0.069497891 -0.12325322 0.006646811 0.064707004
16180000000 -0.19313066 -0.073491924 0.022833146 -0.14030762 0.018597472 -0.14116874 0.021062564 0.060568426
16190000000 -0.20565447 -0.074848905 -0.031967729 -0.13774469 -0.035912383 -0.13712975 0.026432704 0.061507791
16200000000 -0.218591 -0.071819603 -0.080708206 -0.11638813 -0.084265091 -0.11427421 0.032723583 0.060333744
16210000000 -0.22531042 -0.068087958 -0.11851218 -0.077011749 -0.12105897 -0.073699832 0.016973058 0.059017893
16220000000 -0.2306378 -0.060745019 -0.13878635 -0.025508069 -0.13974853 -0.021472214 0.0087688826 0.06461443
16230000000 -0.22700201 -0.05789962 -0.13745779 0.029003926 -0.13688634 0.032955181 0.0039168121 0.058957711
16240000000 -0.23120509 -0.057289902 -0.11621498 0.078431047 -0.11415923 0.081888027 0.0099128475 0.058461081
16250000000 -0.23143256 -0.05930686 -0.07857091 0.11674142 -0.075529605 0.11925972 0.020431694 0.050260302
16260000000 -0.24337164 -0.059855208 -0.02819274 0.13776189 -0.024259117 0.13886571 0.017282151 0.047288194
16270000000 -0.25316483 -0.055757403 0.025794584 0.13815102 0.02956694 0.13755937 0.013339903 0.046903368
16280000000 -0.27056956 -0.049023923 0.076425023 0.11721715 0.079868399 0.11542325 0.0016530734 0.047521077
16290000000 -0.28002751 -0.040824927 0.11523486 0.079581231 0.11747996 0.076588005 0.0022579581 0.052341159
16300000000 -0.2926715 -0.031309545 0.13609526 0.029334968 0.13721372 0.026048962 0.010522407 0.045841839
16310000000 -0.29391783 -0.023674369 0.13767627 -0.024184613 0.13731569 -0.028029792 0.014958717 0.045513798
16320000000 -0.30053607 -0.020274214 0.11780782 -0.073581792 0.11616652 -0.076863632 0.016090851 0.043292269
16330000000 -0.30041516 -0.019716963 0.081555992 -0.11404065 0.078827374 -0.1165029 0.00023230352 0.050484359
16340000000 -0.30865407 -0.021151364 0.032567617 -0.13500181 0.029042669 -0.13613546 -0.0048935972 0.061113242
16350000000 -0.31091106 -0.020510063 -0.022324298 -0.13739906 -0.025790364 -0.13696142 -0.0071309377 0.060567014
16360000000 -0.32625175 -0.016721137 -0.071368635 -0.11783431 -0.074558407 -0.11644112 0.0020157127 0.056601107
16370000000 -0.33096701 -0.004844076 -0.11225868 -0.082127035 -0.11472666 -0.079391323 0.0062129353 0.041570656
16380000000 -0.34284779 0.0055527315 -0.13478598 -0.034197707 -0.13582034 -0.030704502 0.00020453753 0.039314792
16390000000 -0.34362817 0.019927308 -0.13755696 0.020766072 -0.13747732 0.024319813 -0.0099589694 0.039237797
16400000000 -0.35263938 0.031282276 -0.11927944 0.070211336 -0.11758887 0.073493786 -0.019596245 0.048509318
16410000000 -0.35031843 0.039724305 -0.081243962 0.11098495 -0.078673437 0.11319869 -0.016338551 0.056591127
16420000000 -0.36154515 0.044688195 -0.03451642 0.13298103 -0.030974712 0.13422279 -0.0074268244 0.056786694
16430000000 -0.36236098 0.047069579 0.019578379 0.13603665 0.023091994 0.13576701 0.00290321 0.058734301
16440000000 -0.37712839 0.048718352 0.068337828 0.11931819 0.071515262 0.11785743 0.004937747 0.05713461
16450000000 -0.38103452 0.05402356 0.10874814 0.083146267 0.11133176 0.080479056 -0.0058387183 0.061200913
16460000000 -0.39466316 0.061567649 0.13220441 0.034900859 0.13324782 0.031601403 -0.009159049 0.065431952
16470000000 -0.39441821 0.071743801 0.13478979 -0.018594202 0.13465112 -0.022088133 -0.013067871 0.060262978
16480000000 -0.4017747 0.084202245 0.11734824 -0.068520449 0.11578322 -0.07162033 -0.010808263 0.055887595
16490000000 -0.3981576 0.095360771 0.083061777 -0.10696032 0.080617227 -0.10941035 -0.012212293 0.047241829
16500000000 -0.40258044 0.1071983 0.035669278 -0.13101701 0.032183941 -0.13218102 -0.022366302 0.057714105
16510000000 -0.40035799 0.11538078 -0.017091883 -0.13439769 -0.020363277 -0.134076 -0.023681352 0.072010092
16520000000 -0.40843326 0.1239895 -0.068890922 -0.11692914 -0.071771801 -0.11562345 -0.022247214 0.085849114
16530000000 -0.41325036 0.13048792 -0.10739936 -0.081007242 -0.10955481 -0.078535646 -7.8517944e-05 0.084949285
16540000000 -0.42451873 0.1392981 -0.12941401 -0.03259743 -0.13032958 -0.029698331 0.014171056 0.065228812
16550000000 -0.43279842 0.14845431 -0.13096158 0.01822814 -0.13093445 0.021374747 0.019033711 0.052584793
16560000000 -0.4411099 0.15950797 -0.11319015 0.066983081 -0.11207719 0.069640949 0.0056440998 0.042803071
16570000000 -0.44279873 0.16947062 -0.080371328 0.10467871 -0.078060292 0.1069255 -0.017881555 0.061099265
16580000000 -0.44684058 0.18068324 -0.032598875 0.12713371 -0.029912051 0.12799822 -0.025979567 0.078694724
16590000000 -0.44454709 0.19103402 0.017722338 0.12942511 0.020659154 0.12940662 -0.024140641 0.095130794
16600000000 -0.44547433 0.20037688 0.066242218 0.11079738 0.068707876 0.10947614 -0.00066173822 0.093733847
16610000000 -0.44534928 0.21177587 0.10353527 0.077689797 0.10546926 0.075699985 0.0115132 0.079339661
16620000000 -0.4493171 0.22231063 0.12482958 0.030833807 0.12549718 0.028204709 0.019761866 0.072863758
16630000000 -0.4537735 0.23667142 0.12754494 -0.019228797 0.12739207 -0.021548185 0.016046684 0.062258374
16640000000 -0.46115202 0.24982151 0.10837027 -0.066326566 0.10712415 -0.068714485 0.0046199169 0.064813882
16650000000 -0.46757773 0.2660816 0.073152617 -0.10287566 0.071269028 -0.10413478 0.0044731963 0.061492484
16660000000 -0.47407806 0.28124022 0.027364219 -0.12009489 0.025301766 -0.12084272 -0.0026800791 0.059291217
16670000000 -0.47788942 0.29661694 -0.020670326 -0.1208889 -0.023030311 -0.12064141 0.00029635057 0.064152926
16680000000 -0.48002675 0.31012982 -0.06378676 -0.10301393 -0.065718487 -0.10213092 -0.0015689209 0.072532877
16690000000 -0.47969282 0.32230836 -0.098203026 -0.070806481 -0.099677242 -0.068940356 0.0073419325 0.092021674
16700000000 -0.48072815 0.33287045 -0.11729634 -0.027032511 -0.11794161 -0.024897613 0.022535337 0.092244886
16710000000 -0.47983012 0.34707746 -0.11662243 0.021154299 -0.11664809 0.023576718 0.0323474 0.083431363
16720000000 -0.48051178 0.35979408 -0.098697618 0.064155042 -0.097407043 0.066178106 0.036209196 0.059592053
16730000000 -0.48115134 0.37896228 -0.064584337 0.095258504 -0.062700346 0.096802302 0.018129425 0.041402113
16740000000 -0.4809486 0.39759183 -0.023043137 0.11182879 -0.020707469 0.11238609 -0.00059869327 0.040892906
16750000000 -0.48136169 0.41929847 0.021752343 0.10930748 0.024021953 0.10899481 -0.019570643 0.052830644
16760000000 -0.47900361 0.43934089 0.061101787 0.092686825 0.063284159 0.091477431 -0.017394131 0.076068565
16770000000 -0.47673047 0.46027935 0.090317667 0.060229197 0.091641672 0.058195468 0.0053234361 0.082579628
16780000000 -0.47282201 0.47689876 0.10582492 0.021240525 0.10646784 0.018849324 0.02490373 0.077654555
16790000000 -0.46991947 0.4936204 0.10350733 -0.0206839 0.10314796 -0.023193821 0.039088339 0.059516657
16800000000 -0.46518159 0.50774902 0.087215237 -0.058071557 0.085828833 -0.060174972 0.029091261 0.040229052
16810000000 -0.46149558 0.52442378 0.057418056 -0.085847408 0.055322602 -0.087248512 0.011535882 0.035430234
16820000000 -0.45410484 0.54088265 0.018733777 -0.10037826 0.016424838 -0.10108054 -0.0076570306 0.032890938
16830000000 -0.44772443 0.56225222 -0.020735275 -0.097382821 -0.023299459 -0.096840963 -0.016604982 0.048178937
16840000000 -0.43690008 0.582847 -0.056448285 -0.079606399 -0.058377732 -0.078330249 -0.0088526523 0.058982983
16850000000 -0.4267197 0.6064257 -0.080267429 -0.051204212 -0.081786484 -0.049053684 -0.0018016659 0.072430842
16860000000 -0.41223732 0.62633848 -0.092384033 -0.016358793 -0.092865914 -0.013997227 0.014395927 0.077925645
16870000000 -0.4019866 0.64771402 -0.090125047 0.019144997 -0.089694314 0.0214913 0.015978869 0.067715921
16880000000 -0.38918442 0.66552091 -0.074729398 0.051637374 -0.073248945 0.053520814 0.014145183 0.05498229
16890000000 -0.38102821 0.68339837 -0.047537427 0.075238384 -0.045659915 0.076678187 0.0031051748 0.031782057
16900000000 -0.36991429 0.69787264 -0.014077138 0.085726492 -0.011573464 0.086050272 -0.014237405 0.032218013
16910000000 -0.36092979 0.71493804 0.019762531 0.082882553 0.021991208 0.082553491 -0.019876989 0.040355034
16920000000 -0.34658271 0.7294727 0.048363935 0.067311041 0.050269082 0.065918185 -0.02706336 0.063627809
16930000000 -0.3327592 0.74699342 0.068660632 0.04250107 0.07006976 0.040805459 -0.014218714 0.08346045
16940000000 -0.3124477 0.76228189 0.077794105 0.012974509 0.078159004 0.010665173 -0.0058289599 0.082240678
16950000000 -0.29247051 0.77971816 0.074691705 -0.018470086 0.07425122 -0.020346947 0.0082245283 0.074477114
16960000000 -0.26901439 0.79430026 0.060677309 -0.044172302 0.059423286 -0.046131268 0.011160677 0.052068233
16970000000 -0.24797571 0.8110857 0.037642635 -0.062781654 0.035833392 -0.063734755 0.0011329092 0.044837266
16980000000 -0.22557011 0.82440686 0.010866027 -0.070425838 0.0088353474 -0.070756428 -0.0094695836 0.044422936
16990000000 -0.20694037 0.83995742 -0.017439531 -0.067202657 -0.019261971 -0.066703781 -0.029523695 0.056576412
17000000000 -0.18728861 0.85265315 -0.040753923 -0.053897545 -0.042353611 -0.052851312 -0.034206208 0.074730068
