!Keysight Technologies,P9374A,MY57211807,A.19.30.04
!Date: Friday, May 01, 2026 14:08:26
!Correction: S11(C  2-Port  ) 
!S21(C  2-Port  ) 
!S12(C  2-Port  ) 
!S22(C  2-Port  ) 
!S2P File: Measurements: S11, S21, S12, S22:
# Hz S  RI   R 50
13000000000 0.035576001 0.10038567 -0.033451885 0.072047628 -0.034055375 0.072171643 0.00060740113 0.16621371
13010000000 0.045645297 0.1147581 -0.007473968 0.076413855 -0.0080177337 0.076391056 -0.02500429 0.16472578
13020000000 0.051507592 0.10752384 0.024996867 0.073797986 0.024248365 0.074101917 -0.036187954 0.17115912
13030000000 0.056378216 0.10653301 0.048427269 0.061521783 0.048202552 0.062268011 -0.028362367 0.19018151
13040000000 0.054047443 0.092269041 0.070359156 0.037130784 0.070256479 0.037634332 -0.010790473 0.18942904
13050000000 0.050783936 0.087685205 0.080422834 0.0076360297 0.080420285 0.0082837483 0.00038838215 0.17867795
13060000000 0.039127178 0.080137499 0.073278785 -0.024977103 0.073723368 -0.023969477 -0.0092998445 0.1659625
13070000000 0.033401083 0.089683846 0.060293045 -0.050486028 0.060926136 -0.050222833 -0.020348284 0.16308689
13080000000 0.032003868 0.090788931 0.037336126 -0.067760065 0.037930772 -0.067600816 -0.031310946 0.17765081
13090000000 0.034687724 0.1028672 0.0085773058 -0.080390468 0.0092416741 -0.080517024 -0.015570171 0.18916994
13100000000 0.04175083 0.10475123 -0.023341347 -0.075779997 -0.022778193 -0.076048449 0.0030755401 0.19066663
13110000000 0.052190073 0.10910484 -0.051267885 -0.060239397 -0.050744597 -0.060352415 0.0097399168 0.17439635
13120000000 0.057075199 0.097157836 -0.069033414 -0.035049692 -0.068673261 -0.036296252 -0.0048966799 0.16369858
13130000000 0.056240365 0.097210854 -0.076666996 -0.0062235193 -0.076778345 -0.006908156 -0.027101323 0.16768858
13140000000 0.053601742 0.083580635 -0.074054949 0.021288093 -0.074554473 0.020532217 -0.029088698 0.18371022
13150000000 0.043133289 0.087403521 -0.061655924 0.048442859 -0.062076759 0.047905914 -0.016176693 0.19648817
13160000000 0.036950141 0.08632049 -0.038922034 0.069081016 -0.039756 0.068665996 0.011094362 0.19081056
13170000000 0.034661364 0.10238273 -0.0073269457 0.078669593 -0.0083955601 0.078593664 0.020229496 0.1752128
13180000000 0.044148318 0.10373595 0.022469001 0.074740723 0.021501536 0.075315915 0.0094100684 0.15803498
13190000000 0.053973235 0.11047679 0.049778178 0.059863996 0.049061541 0.060551547 -0.0076502883 0.16808346
13200000000 0.067776464 0.10056818 0.06702695 0.037542917 0.066917136 0.03829734 -0.012578376 0.18234225
13210000000 0.071575157 0.094194055 0.076203391 0.010933166 0.076186463 0.011803884 0.0046993643 0.19160283
13220000000 0.067566484 0.081089407 0.075977147 -0.01980447 0.076294199 -0.019068623 0.018760972 0.18669933
13230000000 0.05867558 0.083802067 0.062257901 -0.047820009 0.063052341 -0.04728549 0.029305786 0.17298892
13240000000 0.055527192 0.082741916 0.038626436 -0.069043733 0.039389998 -0.068706289 0.018145479 0.1665329
13250000000 0.050362349 0.094419114 0.0090212841 -0.077326894 0.0098261507 -0.077383026 0.012741672 0.17094103
13260000000 0.057495665 0.096821681 -0.019304231 -0.074791342 -0.018523935 -0.07528612 0.012972945 0.18408746
13270000000 0.063245848 0.10052752 -0.047064658 -0.062448949 -0.046444423 -0.063082956 0.024860401 0.18583752
13280000000 0.073413119 0.093564905 -0.067194328 -0.03885375 -0.066796273 -0.039686058 0.035458505 0.17733923
13290000000 0.077962637 0.087711014 -0.077295877 -0.011262514 -0.077492371 -0.012081027 0.03551282 0.16465423
13300000000 0.083429947 0.074439719 -0.076208249 0.020427464 -0.076547742 0.0196977 0.030907538 0.15281531
13310000000 0.076002121 0.068335861 -0.062691405 0.046335153 -0.063197672 0.045826919 0.026728038 0.16146161
13320000000 0.07328371 0.063314207 -0.041172456 0.067317873 -0.041980252 0.067038603 0.038304877 0.16703179
13330000000 0.066116661 0.069303513 -0.012775341 0.077023 -0.013722549 0.076837771 0.049539991 0.17391193
13340000000 0.069775939 0.07495895 0.018506672 0.076494917 0.017714409 0.077029869 0.056945834 0.1658034
13350000000 0.072613373 0.082122274 0.046770282 0.063532226 0.046470426 0.063957073 0.051840164 0.16189538
13360000000 0.087752886 0.078465298 0.067560427 0.040247008 0.067332782 0.041013353 0.042055521 0.15430614
13370000000 0.087284319 0.069851346 0.076999269 0.012647694 0.076997936 0.0133997 0.043108229 0.15312266
13380000000 0.092340603 0.059598587 0.076499812 -0.016926926 0.0769054 -0.016538816 0.047909699 0.14830013
13390000000 0.08250872 0.049927894 0.063604988 -0.044844572 0.064021811 -0.044310708 0.057666294 0.14589752
13400000000 0.078366831 0.045622703 0.041822005 -0.06644208 0.042273156 -0.066130057 0.064024732 0.1479512
13410000000 0.066330522 0.046590969 0.013748519 -0.076295756 0.014559805 -0.075989254 0.061252162 0.14304727
13420000000 0.074553043 0.049242005 -0.017522488 -0.078018419 -0.016900828 -0.07853882 0.055835113 0.14268102
13430000000 0.071360953 0.050047427 -0.045011774 -0.064466827 -0.044568442 -0.065002337 0.051947378 0.13660142
13440000000 0.084015138 0.04963037 -0.065477461 -0.042237625 -0.065255992 -0.042991228 0.057001654 0.13064671
13450000000 0.081520431 0.043691508 -0.07741493 -0.014996659 -0.077613004 -0.015557505 0.062112924 0.1231217
13460000000 0.088744454 0.037245642 -0.076377928 0.016437348 -0.076761477 0.015845537 0.06751091 0.12187803
13470000000 0.080100887 0.030441124 -0.066031739 0.044194452 -0.066526398 0.043825373 0.065921083 0.12679118
13480000000 0.081458971 0.023758134 -0.043310806 0.064846553 -0.043643549 0.064562857 0.065428808 0.12546037
13490000000 0.065343946 0.024387779 -0.015945073 0.078108542 -0.016717397 0.078199536 0.059344538 0.12225485
13500000000 0.065234743 0.024391547 0.015174571 0.077006079 0.01465673 0.077213585 0.05905918 0.11281155
13510000000 0.058626812 0.028983133 0.044609264 0.065940484 0.044128567 0.066357523 0.056999579 0.1091513
13520000000 0.067584842 0.029290868 0.064651743 0.044297099 0.06447836 0.044976074 0.059520163 0.10513594
13530000000 0.067275196 0.025751378 0.077752799 0.015474156 0.078017376 0.016016837 0.060500786 0.10914068
13540000000 0.075700499 0.020141393 0.077148944 -0.013696257 0.077352256 -0.013249197 0.062466189 0.10702351
13550000000 0.070630446 0.0097388811 0.065547191 -0.043268353 0.065924227 -0.043039352 0.056511357 0.10244191
13560000000 0.066382423 0.0060021728 0.045833711 -0.064942554 0.046384014 -0.064572893 0.056851581 0.097141787
13570000000 0.056261901 0.0070423242 0.016182752 -0.077417232 0.016874317 -0.077510759 0.052034318 0.093958288
13580000000 0.052264936 0.013616158 -0.013407914 -0.078195445 -0.013009433 -0.078549452 0.059707209 0.097330242
13590000000 0.048378009 0.018376214 -0.042311441 -0.066123277 -0.042097967 -0.066376328 0.059052039 0.097320542
13600000000 0.051660806 0.024507277 -0.064681433 -0.045901053 -0.064536028 -0.046433058 0.062572211 0.094344728
13610000000 0.053578097 0.019611545 -0.077435605 -0.017648626 -0.077332862 -0.018081188 0.05209861 0.086887985
13620000000 0.056384541 0.016667861 -0.078404151 0.013764912 -0.078722261 0.013306715 0.044523813 0.089696012
13630000000 0.048388947 0.0073210914 -0.066690341 0.042126141 -0.066938773 0.041699033 0.038670871 0.09136121
13640000000 0.047427185 0.0085608503 -0.045352288 0.06431672 -0.045590397 0.0642756 0.047136597 0.098133966
13650000000 0.039763 0.00028228806 -0.018428463 0.075787231 -0.0190988 0.075505503 0.05331102 0.094795361
13660000000 0.038531348 0.0090256874 0.012000273 0.078296274 0.011343922 0.078610778 0.056564182 0.088644542
13670000000 0.038424831 0.0096588582 0.041408978 0.067195617 0.041246228 0.067580044 0.053127289 0.076841384
13680000000 0.044575527 0.016725346 0.063216925 0.045317978 0.062877357 0.045783587 0.045450319 0.075473227
13690000000 0.044400513 0.015673507 0.075394616 0.018674567 0.075500846 0.019296963 0.041184545 0.080552846
13700000000 0.050511986 0.018574039 0.076295875 -0.011018187 0.076665968 -0.010705978 0.04554154 0.092511803
13710000000 0.047537588 0.012530807 0.067152768 -0.038294092 0.067453161 -0.038136322 0.050248541 0.093689442
13720000000 0.044920661 0.013322799 0.047805298 -0.061645038 0.047958612 -0.061551969 0.054291412 0.093372747
13730000000 0.038672976 0.0079345154 0.021482764 -0.075413406 0.021761309 -0.075186349 0.050219037 0.080764107
13740000000 0.033538513 0.014911707 -0.010400891 -0.078100026 -0.0097749494 -0.078101397 0.044931658 0.079223685
13750000000 0.032130934 0.013352004 -0.039176065 -0.068386763 -0.038542893 -0.068710119 0.04843108 0.079133719
13760000000 0.035424087 0.017842231 -0.060586665 -0.047910213 -0.060620625 -0.048666563 0.051151067 0.087026298
13770000000 0.038865551 0.012083657 -0.074545257 -0.023089198 -0.074708544 -0.023489498 0.058560662 0.087395929
13780000000 0.043141611 0.012907646 -0.077239759 0.0088720843 -0.077344105 0.0087260064 0.057616822 0.083436243
13790000000 0.047458936 0.0060295425 -0.06929516 0.038000785 -0.069378629 0.037545413 0.05373475 0.073259376
13800000000 0.04626745 0.0052590542 -0.048773654 0.060898848 -0.049237318 0.060686979 0.044638261 0.073931783
13810000000 0.045349456 -0.00029161479 -0.021870263 0.074672334 -0.022511443 0.074836522 0.050606571 0.076777272
13820000000 0.041278414 0.0050753709 0.0063011404 0.076484673 0.0056804549 0.076702744 0.056956746 0.083902806
13830000000 0.040502742 0.0049574152 0.035765179 0.068435118 0.035636023 0.068670474 0.070344277 0.08363533
13840000000 0.03789762 0.010524101 0.05773931 0.050448015 0.057405159 0.0510168 0.069632024 0.076830149
13850000000 0.04183593 0.008451594 0.074982695 0.024549371 0.07495068 0.025018765 0.062327839 0.06483826
13860000000 0.044191714 0.0079297312 0.078892387 -0.0057820873 0.079251155 -0.00527253 0.054999411 0.061994743
13870000000 0.046430826 -0.0033368883 0.068792254 -0.03539294 0.069173366 -0.035033964 0.054672882 0.060193412
13880000000 0.042217501 -0.008127423 0.05132034 -0.057643667 0.051575229 -0.057689227 0.061170422 0.066259056
13890000000 0.041120283 -0.015060542 0.025966821 -0.071898341 0.026591673 -0.071498871 0.071656972 0.065479726
13900000000 0.034192715 -0.015283522 -0.0026172511 -0.078202546 -0.0019457825 -0.078506954 0.071025997 0.061082143
13910000000 0.033950903 -0.013004293 -0.032251172 -0.070783973 -0.031991206 -0.071209222 0.069923699 0.053962283
13920000000 0.034361146 -0.0061998712 -0.058043372 -0.054328591 -0.057616461 -0.054630131 0.059567384 0.046769373
13930000000 0.041303314 -0.0088233743 -0.073962487 -0.02744589 -0.074054204 -0.02808035 0.064856716 0.050776314
13940000000 0.039788481 -0.010191672 -0.078113124 0.003573885 -0.078133471 0.0029247329 0.068564229 0.046766192
13950000000 0.043192666 -0.015523367 -0.070589833 0.031272594 -0.071011737 0.030821044 0.076722309 0.048197404
13960000000 0.033576626 -0.023528129 -0.054502472 0.057027746 -0.054928809 0.056840982 0.073898725 0.036786094
13970000000 0.026506597 -0.027150963 -0.028251057 0.073223874 -0.028825862 0.073108055 0.066117898 0.032987438
13980000000 0.016273567 -0.026821047 0.0014824979 0.079013444 0.0010493509 0.079138361 0.054753751 0.030109888
13990000000 0.014651421 -0.029431675 0.032631461 0.071357735 0.032185558 0.071705744 0.05413999 0.036326647
14000000000 0.0081919562 -0.026249612 0.055781055 0.05332084 0.055467013 0.053853627 0.064465985 0.037947979
14010000000 0.016226333 -0.026250932 0.069618486 0.029289126 0.069693521 0.029938471 0.067591794 0.030205917
14020000000 0.016697966 -0.030522766 0.07787963 0.0012377426 0.077958032 0.0015925243 0.067581996 0.024628412
14030000000 0.023096565 -0.033556163 0.073133633 -0.028058939 0.073322557 -0.02776658 0.056752339 0.013029661
14040000000 0.019968389 -0.037909467 0.056903813 -0.054690335 0.057433732 -0.054359119 0.045973279 0.010493198
14050000000 0.018975819 -0.041523866 0.032370146 -0.07317929 0.032706458 -0.072847374 0.043147791 0.018652467
14060000000 0.0054833889 -0.042615455 -0.00021769293 -0.077646784 0.00030518323 -0.077950016 0.048849199 0.020928165
14070000000 -0.00061060418 -0.035859905 -0.027345594 -0.072468795 -0.026979685 -0.072864488 0.050315373 0.01761134
14080000000 -0.010042372 -0.028703881 -0.051748663 -0.056006372 -0.051770724 -0.0562432 0.047171403 0.0066419207
14090000000 -0.0089830179 -0.020030851 -0.07219854 -0.035295941 -0.072035246 -0.035533518 0.03730233 0.0040013194
14100000000 -0.0099674342 -0.019652897 -0.079088882 -0.0038211904 -0.079330288 -0.0040801726 0.03019893 -0.0045026839
14110000000 -0.0051657045 -0.02343294 -0.075323813 0.028203024 -0.075589001 0.027972138 0.030492809 0.0013143793
14120000000 -0.0088792862 -0.033863064 -0.058755137 0.051837206 -0.058882572 0.051872261 0.037285525 0.0034545707
14130000000 -0.011188803 -0.039926086 -0.0332461 0.071788788 -0.033615924 0.07172057 0.039905135 0.0056440597
14140000000 -0.023112863 -0.044547081 -0.0061132805 0.077987425 -0.0061615128 0.078083619 0.036654167 0.0011646034
14150000000 -0.029700717 -0.037227139 0.025221102 0.075394526 0.025140984 0.07566455 0.027244758 -0.0039999401
14160000000 -0.033477321 -0.033577822 0.052172482 0.061689597 0.052277401 0.061671868 0.022080079 -0.0056564435
14170000000 -0.032121431 -0.020145891 0.071138024 0.034919236 0.071460158 0.035041403 0.016459845 -0.0043510934
14180000000 -0.028245779 -0.016405605 0.079739481 0.0055443347 0.080006123 0.005567681 0.022771489 0.0027132994
14190000000 -0.023252213 -0.0095970398 0.073884457 -0.024258183 0.074210316 -0.024425227 0.023643557 0.0077165696
14200000000 -0.022700625 -0.017754607 0.061110992 -0.050442524 0.060863495 -0.050741859 0.021633936 0.0072572595
14210000000 -0.0257609 -0.016499216 0.03719857 -0.069144323 0.036958545 -0.069524705 0.0080084847 0.0031281747
14220000000 -0.031926475 -0.028806027 0.0081918743 -0.079921596 0.0079236934 -0.079985254 0.0035711695 0.0037477298
14230000000 -0.042433083 -0.022773925 -0.023119155 -0.076461129 -0.023468034 -0.076488048 0.00078701531 0.000793855
14240000000 -0.050509609 -0.024875773 -0.051113419 -0.061606314 -0.051543552 -0.061551064 0.0095280008 0.0023233395
14250000000 -0.052592076 -0.01044761 -0.069601402 -0.03910242 -0.069756486 -0.038670376 0.012437571 0.00033175293
14260000000 -0.049633779 -0.0071091354 -0.079116672 -0.0082180947 -0.079315923 -0.0077450015 0.0079581309 0.00059311767
14270000000 -0.038002342 0.004575409 -0.076446086 0.020472279 -0.076327235 0.02091852 -6.3382729e-05 0.0020568706
14280000000 -0.030328507 -0.0059505627 -0.063433498 0.049934052 -0.063212141 0.050528564 -0.0077939634 0.0063092057
14290000000 -0.023299979 -0.0013619575 -0.039187592 0.07024391 -0.038709402 0.07042338 -0.002689366 0.0074946135
14300000000 -0.029951457 -0.016467396 -0.009509841 0.078675874 -0.0091409963 0.079001613 -0.00073604146 0.0096864905
14310000000 -0.03723076 -0.0090957591 0.0199735 0.076511592 0.020542186 0.076511942 0.0078636417 0.0096301176
14320000000 -0.050553296 -0.0126624 0.046994723 0.062981993 0.047398441 0.062732883 0.0075254776 0.0068250089
14330000000 -0.053241272 0.0052419137 0.068420373 0.041589905 0.068793111 0.041381184 -0.00044336286 0.0080328165
14340000000 -0.052751943 0.0062608737 0.07879357 0.011351841 0.079025015 0.010658383 -0.0059023444 0.0050737374
14350000000 -0.043988291 0.016724734 0.077639416 -0.019309774 0.077817015 -0.019843014 -0.010246684 0.0069754692
14360000000 -0.037273142 0.0077203726 0.063738249 -0.046465497 0.063458286 -0.047069699 -0.0052126078 0.011050455
14370000000 -0.029301345 0.0047295839 0.041619778 -0.066958562 0.041315511 -0.06728176 -0.00010090298 0.010127225
14380000000 -0.031065887 -0.0083792647 0.013713613 -0.078752659 0.013068398 -0.078967899 0.00031273137 0.0073489291
14390000000 -0.031537883 -0.0067920228 -0.01746127 -0.077410325 -0.01799066 -0.077336922 -0.0042550024 0.0056807837
14400000000 -0.040055431 -0.012131644 -0.045723617 -0.065192655 -0.046122111 -0.064900115 -0.0067779222 0.0091298884
14410000000 -0.04400466 0.0014343187 -0.066986144 -0.043438617 -0.067346357 -0.043231189 -0.0034378108 0.012738276
14420000000 -0.046211589 0.0060897041 -0.07694646 -0.01395273 -0.077292442 -0.013717024 0.0044939434 0.0095426189
14430000000 -0.040583227 0.017457575 -0.078082703 0.014631244 -0.07813108 0.015210906 0.0067913914 0.0066928337
14440000000 -0.036631983 0.017467946 -0.066665873 0.043882415 -0.066549674 0.044450048 -0.001474869 0.0021419565
14450000000 -0.029174864 0.01626057 -0.045317158 0.067276858 -0.0450578 0.067552887 -0.010055307 0.00048806192
14460000000 -0.032158665 0.0023945067 -0.015295897 0.07882221 -0.014890712 0.079196982 -0.018525925 0.003154288
14470000000 -0.03514247 -0.0056414194 0.015950192 0.077975973 0.016187243 0.078049526 -0.014056185 0.0094221001
14480000000 -0.047472842 -0.011509622 0.042566217 0.066429883 0.043026082 0.066484332 -0.0025780899 0.0088142175
14490000000 -0.052912395 -0.0071284752 0.064844683 0.044318631 0.065197349 0.044240944 0.0025192501 0.0039477306
14500000000 -0.053768832 -0.00090911798 0.077097178 0.019247944 0.077281706 0.018589864 0.0015284013 -0.001827004
14510000000 -0.049876548 0.0080028791 0.078423746 -0.013087157 0.078468226 -0.013457212 -0.0090973955 -0.0073724641
14520000000 -0.039832141 0.0088932551 0.068669111 -0.042348612 0.068708144 -0.042515106 -0.016359687 -0.0086986106
14530000000 -0.032319449 0.007472069 0.04589384 -0.064345151 0.045757346 -0.064863995 -0.014393227 -0.0054825023
14540000000 -0.032313049 -2.8418377e-05 0.01903992 -0.077609539 0.018797029 -0.077643409 -0.011067957 -0.0067273737
14550000000 -0.037628949 -0.0045609651 -0.010659123 -0.077924356 -0.01107352 -0.077949792 -0.0081807123 -0.0029602926
14560000000 -0.05039943 -0.0067682844 -0.041348014 -0.068591282 -0.041543014 -0.068701617 -0.013732066 -0.0040191719
14570000000 -0.061713919 -0.0028211097 -0.062733188 -0.047328569 -0.063008823 -0.046981174 -0.022956295 -0.0016491893
14580000000 -0.066388138 0.0053344443 -0.07768593 -0.019241609 -0.077726208 -0.01916495 -0.026964517 -0.0030169482
14590000000 -0.066901706 0.0095727742 -0.0770844 0.010320153 -0.077294789 0.01063698 -0.026845954 -0.0062790373
14600000000 -0.061254367 0.015671359 -0.068590499 0.037939962 -0.068656974 0.038341437 -0.019617915 -0.014339097
14610000000 -0.052493833 0.0084951334 -0.050560325 0.062050607 -0.050250664 0.062357765 -0.021643901 -0.018322915
14620000000 -0.050144047 0.0023125634 -0.022019573 0.076072425 -0.021494003 0.076193556 -0.027788877 -0.01911981
14630000000 -0.054258525 -0.0049818773 0.0086484682 0.080287673 0.0087473374 0.080202311 -0.041995779 -0.010954645
14640000000 -0.058994599 -0.0043387837 0.038705505 0.06898436 0.038996756 0.069140494 -0.04373486 -0.0022829864
14650000000 -0.071575999 -0.0029419838 0.061057344 0.050351176 0.061426666 0.050301269 -0.041196667 -0.0035287542
14660000000 -0.077223405 0.012366047 0.074694417 0.022226324 0.07511308 0.021963861 -0.035008103 -0.0076461574
14670000000 -0.079839692 0.021647815 0.077503413 -0.0069530495 0.077804096 -0.0073389411 -0.037628826 -0.016007546
14680000000 -0.071365073 0.031187752 0.06957116 -0.035097949 0.069591574 -0.035358705 -0.045758024 -0.013525834
14690000000 -0.071337029 0.028972331 0.051932231 -0.059318863 0.051814552 -0.059633091 -0.05502525 -0.0059539825
14700000000 -0.063255005 0.028654136 0.026499839 -0.074325815 0.026198318 -0.074513219 -0.057051048 -0.00017891824
14710000000 -0.069357902 0.013720453 -0.0050817793 -0.07913509 -0.0053091319 -0.07928589 -0.055790737 -0.0012592139
14720000000 -0.07436838 0.014011445 -0.034355562 -0.071051344 -0.034583971 -0.071119942 -0.053643249 -0.0057032425
14730000000 -0.083678104 0.010797175 -0.058885887 -0.052331064 -0.059157617 -0.052319407 -0.058327559 -0.0091918763
14740000000 -0.08859586 0.021091605 -0.073904485 -0.026980946 -0.074339122 -0.026722968 -0.066242047 -0.0021145325
14750000000 -0.092206866 0.030809104 -0.078696914 0.0024184845 -0.078720562 0.0027619526 -0.069338247 0.0063577592
14760000000 -0.082020923 0.048093058 -0.072121963 0.032300383 -0.072094828 0.032594167 -0.067749895 0.012816813
14770000000 -0.075684689 0.051016562 -0.053637497 0.057127282 -0.053566154 0.057545189 -0.063094437 0.011874016
14780000000 -0.061765004 0.05689865 -0.028163306 0.073284335 -0.027771033 0.073610589 -0.060709238 0.0082556028
14790000000 -0.061833933 0.045841154 0.0011986401 0.078758083 0.001799956 0.079217672 -0.066582002 0.0065620039
14800000000 -0.063783757 0.043383323 0.030055422 0.072487511 0.030785818 0.072234988 -0.075616658 0.01255261
14810000000 -0.078929946 0.035993654 0.055357698 0.05609544 0.055733718 0.055761781 -0.080040343 0.022400532
14820000000 -0.088179469 0.04760652 0.073033258 0.031511165 0.07330709 0.031042501 -0.078353927 0.027655704
14830000000 -0.094866179 0.053170335 0.07986965 -0.00031257235 0.080051914 -0.00084744953 -0.071454935 0.024904961
14840000000 -0.088124447 0.069835201 0.073420793 -0.030057523 0.073352039 -0.030759718 -0.066609383 0.020738345
14850000000 -0.076191612 0.07303068 0.05684521 -0.054685973 0.056251705 -0.05546638 -0.070356436 0.022565024
14860000000 -0.058760073 0.075019449 0.032717913 -0.071856253 0.032062054 -0.072299361 -0.071389399 0.032004505
14870000000 -0.049859118 0.062861145 0.0027225874 -0.077994771 0.0017769225 -0.078204058 -0.076030165 0.041566968
14880000000 -0.044743162 0.060757503 -0.027272815 -0.074569181 -0.028082658 -0.074417405 -0.071352854 0.046993263
14890000000 -0.049259771 0.050313231 -0.053561028 -0.057663996 -0.054388057 -0.057191208 -0.067182936 0.041191153
14900000000 -0.056950696 0.058361154 -0.072111316 -0.033898436 -0.072750211 -0.033031382 -0.066120796 0.037211478
14910000000 -0.063094467 0.064205877 -0.079026774 -0.0046698051 -0.079204574 -0.0037957667 -0.066041842 0.035363212
14920000000 -0.065049186 0.079959944 -0.074954487 0.026270177 -0.074706852 0.027267188 -0.071187459 0.046572208
14930000000 -0.059972562 0.087070547 -0.059689544 0.051589206 -0.059257731 0.05242369 -0.067550145 0.055326208
14940000000 -0.04795029 0.094961569 -0.034780174 0.071553499 -0.033913091 0.072358333 -0.067898735 0.057205848
14950000000 -0.03670235 0.085027531 -0.0055533573 0.07975138 -0.0044355057 0.079937793 -0.060888231 0.051564801
14960000000 -0.02915344 0.075911514 0.025736313 0.075264245 0.026738973 0.07499101 -0.060414128 0.041183889
14970000000 -0.030601632 0.058009833 0.051439885 0.060456064 0.052294526 0.059982311 -0.057071462 0.044771031
14980000000 -0.036281891 0.052939944 0.070115402 0.036474418 0.070703827 0.035698563 -0.055877194 0.050544418
14990000000 -0.044537779 0.047604706 0.078897044 0.0069601983 0.07905481 0.0059891595 -0.052475959 0.063124299
15000000000 -0.048545007 0.062198229 0.07480219 -0.022923805 0.074742369 -0.023947768 -0.047138512 0.06285996
15010000000 -0.042323679 0.069015913 0.061503775 -0.050428253 0.060988069 -0.051447734 -0.050156977 0.056617815
15020000000 -0.031575181 0.078330033 0.03744147 -0.069369301 0.036493003 -0.069969676 -0.051750861 0.047013544
15030000000 -0.02110859 0.075629167 0.008827487 -0.079305336 0.0077670477 -0.079678066 -0.058384918 0.043120023
15040000000 -0.011640677 0.073166139 -0.022060622 -0.076087244 -0.023151511 -0.075914308 -0.054587111 0.054163545
15050000000 -0.011764505 0.05655225 -0.049197793 -0.061768297 -0.050233141 -0.061262272 -0.050118752 0.060650524
15060000000 -0.019504715 0.052194398 -0.069224365 -0.038202994 -0.0698101 -0.037300773 -0.044535015 0.064521633
15070000000 -0.029492252 0.04197973 -0.078198522 -0.0087933484 -0.078491554 -0.0078464169 -0.039247677 0.052968532
15080000000 -0.041902117 0.046806104 -0.075847946 0.021032266 -0.075597376 0.02195302 -0.045690425 0.04007218
15090000000 -0.044982038 0.051572375 -0.061821755 0.047410235 -0.061530434 0.048100755 -0.047779806 0.034917831
15100000000 -0.041785356 0.061657581 -0.04095028 0.067002699 -0.040156797 0.067653723 -0.05267965 0.039667279
15110000000 -0.030149173 0.061524823 -0.011152508 0.077951767 -0.010248661 0.078152165 -0.0474317 0.051412694
15120000000 -0.019890841 0.057469469 0.018683152 0.076791331 0.019583736 0.076844946 -0.042158432 0.057074208
15130000000 -0.014959958 0.047537606 0.047540851 0.062801756 0.048484299 0.062357523 -0.042300396 0.054123975
15140000000 -0.017616026 0.038261335 0.06711556 0.040282361 0.067541197 0.039633885 -0.048096459 0.04737132
15150000000 -0.028151393 0.034319263 0.076201275 0.01147417 0.076388627 0.010656267 -0.055598732 0.043442935
15160000000 -0.039058656 0.039087657 0.075641602 -0.017618053 0.075666964 -0.01817649 -0.057244048 0.046620443
15170000000 -0.044076696 0.047173642 0.062493268 -0.044471886 0.062286977 -0.045388471 -0.053999215 0.048742846
15180000000 -0.04574025 0.057011902 0.041162133 -0.065374754 0.040588479 -0.06616082 -0.05130031 0.049898595
15190000000 -0.039087672 0.062269382 0.014088828 -0.074554108 0.01310431 -0.074814513 -0.054674294 0.042292316
15200000000 -0.034522116 0.060454577 -0.015728803 -0.075450696 -0.01654401 -0.075193807 -0.061056655 0.041285686
15210000000 -0.029561818 0.054604582 -0.042292118 -0.063595049 -0.042684205 -0.063505016 -0.065661035 0.042716272
15220000000 -0.030816618 0.045911983 -0.063858099 -0.04282479 -0.064564824 -0.042412139 -0.067180246 0.051851742
15230000000 -0.035094261 0.043294709 -0.075539216 -0.016591709 -0.076107994 -0.015786523 -0.058713675 0.058501024
15240000000 -0.041366108 0.041353472 -0.074827619 0.014810106 -0.074872233 0.015663913 -0.054932959 0.060792346
15250000000 -0.045867432 0.049642012 -0.063553929 0.040718492 -0.063316099 0.041580517 -0.053840131 0.057333346
15260000000 -0.046706248 0.057122692 -0.042935546 0.060743473 -0.042368997 0.061260715 -0.059923638 0.05348878
15270000000 -0.038577687 0.067976803 -0.017989747 0.072995447 -0.017203525 0.073452577 -0.069118887 0.053610377
15280000000 -0.03079031 0.068050101 0.010805288 0.073875263 0.011511371 0.073869437 -0.072589666 0.066585124
15290000000 -0.024267284 0.06889075 0.038459759 0.065322712 0.039074931 0.065308176 -0.072475232 0.071913689
15300000000 -0.023290407 0.056829307 0.059461612 0.045294732 0.060035564 0.0448232 -0.068135269 0.079443857
15310000000 -0.029325444 0.055475384 0.073161155 0.019027408 0.073611677 0.018354818 -0.064394563 0.068881154
15320000000 -0.037692115 0.052443396 0.073835082 -0.0091633908 0.073891222 -0.0098405909 -0.068725578 0.066648312
15330000000 -0.040836822 0.06455835 0.065022007 -0.03684083 0.064831272 -0.037652425 -0.0640992 0.066082388
15340000000 -0.039131615 0.067774735 0.046978466 -0.057216823 0.046485763 -0.057672355 -0.064439394 0.075233065
15350000000 -0.028937344 0.078082375 0.020970408 -0.07179708 0.020222897 -0.072157368 -0.05317593 0.086152375
15360000000 -0.017659776 0.070724681 -0.0061347187 -0.073609576 -0.006706439 -0.073765203 -0.052953642 0.089196004
15370000000 -0.0080924612 0.067955658 -0.033821966 -0.065649509 -0.034582052 -0.065452263 -0.052903969 0.087725684
15380000000 -0.00786216 0.055445399 -0.05554232 -0.04908599 -0.056238297 -0.048587013 -0.06099797 0.082549058
15390000000 -0.0098054791 0.054103084 -0.069361366 -0.023899712 -0.069799282 -0.023073595 -0.063701071 0.087839343
15400000000 -0.018010059 0.048167702 -0.074895166 0.0034359132 -0.075050846 0.0043039871 -0.058064137 0.09368296
15410000000 -0.022222742 0.059342258 -0.067506276 0.031334043 -0.067167282 0.032338679 -0.047553033 0.10202891
15420000000 -0.019739645 0.062597893 -0.05119618 0.05568257 -0.050600909 0.056556206 -0.039735265 0.10014567
15430000000 -0.010469483 0.071764827 -0.025393633 0.069485933 -0.024351634 0.069942497 -0.040428799 0.093573466
15440000000 -0.0022957325 0.066810094 0.0028311722 0.07319387 0.0038555376 0.073342554 -0.045865856 0.087176695
15450000000 0.010118911 0.062376369 0.028309677 0.06784302 0.029367264 0.067427643 -0.047204487 0.084445529
15460000000 0.013239434 0.043240473 0.053170655 0.052143686 0.053894155 0.051444825 -0.043735825 0.092122175
15470000000 0.0089364341 0.037136491 0.068277128 0.030029384 0.068942964 0.02926415 -0.029997444 0.09916237
15480000000 0.0007533459 0.028351108 0.075334691 0.0010497309 0.075797357 -4.8547983e-05 -0.021159496 0.10336969
15490000000 -0.0057549523 0.034504458 0.06939625 -0.027561914 0.06914638 -0.029014682 -0.01633516 0.10378434
15500000000 -0.0095892483 0.03847234 0.053161081 -0.051536549 0.052206948 -0.052670125 -0.021667011 0.095816344
15510000000 -0.0016234554 0.048908822 0.030410975 -0.068316095 0.029159527 -0.068964235 -0.024452277 0.096688658
15520000000 0.0076840613 0.046942808 0.002723556 -0.074300833 0.001538856 -0.074337423 -0.02644123 0.094654039
15530000000 0.017185334 0.043200411 -0.025360988 -0.070119895 -0.026583273 -0.069767497 -0.019852497 0.1001128
15540000000 0.0204628 0.029206274 -0.049193535 -0.055683725 -0.050289273 -0.054901749 -0.015253996 0.096641645
15550000000 0.022211989 0.016614063 -0.06756527 -0.032593347 -0.068386726 -0.031337898 -0.015797939 0.093632445
15560000000 0.0092350654 0.002617029 -0.07470651 -0.0051097982 -0.074802294 -0.0038087033 -0.01610506 0.088463768
15570000000 0.0018291915 0.00027495902 -0.071595654 0.024190554 -0.07136634 0.025642192 -0.018929809 0.088751659
15580000000 -0.012027049 -2.294872e-05 -0.057335965 0.04923664 -0.056435026 0.050503619 -0.0098584183 0.090183251
15590000000 -0.013993703 0.011099069 -0.034325268 0.067039996 -0.032929629 0.067839332 -0.0029543918 0.087138645
15600000000 -0.008492576 0.019820955 -0.0062277485 0.075011678 -0.0045992397 0.075334899 -0.0016230782 0.085774943
15610000000 0.0065393415 0.020842712 0.022483099 0.071232602 0.024251286 0.070802107 -0.0011499394 0.07986404
15620000000 0.017068373 0.011456097 0.046814024 0.05779919 0.048073001 0.056674428 -0.011513824 0.078077957
15630000000 0.023267785 -0.0061050989 0.065329716 0.036100022 0.066202417 0.03465198 -0.01019074 0.082318887
15640000000 0.012661095 -0.022474734 0.074547105 0.0093736276 0.07492356 0.0075685829 -0.0072877742 0.081295468
15650000000 -0.0048947167 -0.03201557 0.073530369 -0.020548686 0.072879925 -0.022344686 -0.0035190918 0.086934745
15660000000 -0.023102077 -0.026112948 0.059422329 -0.046727926 0.058530726 -0.048191808 0.0017997455 0.08077614
15670000000 -0.033656985 -0.017694186 0.036990155 -0.065424949 0.035275303 -0.066644505 -0.0050622486 0.074286945
15680000000 -0.031048497 -0.0017794035 0.0091827754 -0.074416861 0.0070249224 -0.074863374 -0.0071955398 0.066324621
15690000000 -0.021859808 -0.0022429349 -0.019040922 -0.071896322 -0.021314612 -0.071381986 -0.010173026 0.062333729
15700000000 -0.0088869911 -0.0038353868 -0.044588424 -0.06036745 -0.046317078 -0.05896217 -0.0075410381 0.066954121
15710000000 -0.0057333489 -0.022117704 -0.064237297 -0.038825478 -0.065413408 -0.037086308 -0.0022989176 0.070344217
15720000000 -0.0059323357 -0.034163501 -0.073626712 -0.012354378 -0.074102305 -0.010101829 -0.00078924373 0.074913219
15730000000 -0.020863757 -0.050064504 -0.073002592 0.016443962 -0.072695076 0.018809577 -0.0042653065 0.070111439
15740000000 -0.032448906 -0.046099991 -0.060998309 0.043164745 -0.059599895 0.045322515 -0.011805067 0.068604045
15750000000 -0.049322806 -0.044833239 -0.04118314 0.063761532 -0.038986888 0.065288678 -0.0100251 0.065679528
15760000000 -0.052701119 -0.026246421 -0.013226606 0.07438831 -0.01064299 0.0749126 -0.0071422933 0.065398179
15770000000 -0.053078063 -0.019639544 0.015439931 0.07418251 0.018071193 0.073722072 -7.9233199e-05 0.070099898
15780000000 -0.038810357 -0.0094950451 0.042467564 0.061355598 0.0447561 0.05982529 -0.0028929152 0.066983916
15790000000 -0.035152208 -0.020209383 0.062198386 0.040942516 0.063620962 0.038646184 -0.011809308 0.069602862
15800000000 -0.028872399 -0.029165301 0.072880156 0.01458919 0.073480487 0.01188057 -0.019529542 0.065182179
15810000000 -0.041868005 -0.049232226 0.073085912 -0.013650808 0.07275635 -0.01633586 -0.024105869 0.06652756
15820000000 -0.05165137 -0.052444015 0.063013613 -0.039858013 0.061506238 -0.042258613 -0.016015867 0.067378715
15830000000 -0.072104715 -0.057340607 0.043398857 -0.061405368 0.041186277 -0.063069455 -0.0082895309 0.069531351
15840000000 -0.077687651 -0.041416705 0.016219253 -0.073262185 0.01341117 -0.074028268 -0.0021215603 0.072144009
15850000000 -0.081205942 -0.035119735 -0.012575727 -0.074687302 -0.015406869 -0.074265644 -0.0055639893 0.069779143
15860000000 -0.067645445 -0.02140308 -0.039990447 -0.063175634 -0.04271441 -0.061809309 -0.013020201 0.071009472
15870000000 -0.060324006 -0.030015513 -0.060489338 -0.042950343 -0.062041998 -0.040409442 -0.016761225 0.067015819
15880000000 -0.049757347 -0.030681053 -0.071219407 -0.017043745 -0.072071873 -0.014281876 -0.018265611 0.070032023
15890000000 -0.053525157 -0.04689192 -0.072577722 0.011133727 -0.072257258 0.014051257 -0.011218198 0.072125971
15900000000 -0.061332393 -0.051325705 -0.063584961 0.037486382 -0.062230553 0.040086061 -0.011016954 0.076229848
15910000000 -0.080263935 -0.055917792 -0.044856597 0.058845155 -0.042356685 0.060632959 -0.0059705377 0.08190006
15920000000 -0.088914171 -0.046086259 -0.019787321 0.071448602 -0.017053477 0.072239846 -0.0060053505 0.07834661
15930000000 -0.098769568 -0.041022401 0.009537138 0.073123388 0.012146046 0.072803006 -0.0074238293 0.079521187
15940000000 -0.092017584 -0.028683292 0.037120186 0.064435206 0.039638139 0.063047938 -0.0038909782 0.076345518
15950000000 -0.088545501 -0.034050174 0.058220364 0.044690348 0.059911016 0.042579614 -0.0055253748 0.078671925
15960000000 -0.079285458 -0.038190477 0.070775568 0.019424243 0.071563527 0.016775312 -0.0048655551 0.0791637
15970000000 -0.082416423 -0.054350749 0.072051689 -0.0074470723 0.071746342 -0.0099678822 -0.0081675909 0.079292983
15980000000 -0.083886608 -0.060022339 0.064324364 -0.03483076 0.063212216 -0.036974914 -0.010926163 0.080092706
15990000000 -0.097217515 -0.068619803 0.045871522 -0.056269716 0.04418768 -0.057742521 -0.0061759315 0.081973791
16000000000 -0.10408929 -0.060205519 0.021214431 -0.069493458 0.019032005 -0.070416912 0.00082425028 0.082199953
16010000000 -0.11191416 -0.057323407 -0.0056317933 -0.072883338 -0.0081363562 -0.072883092 0.0058422275 0.081969738
16020000000 -0.10841355 -0.047055293 -0.033579215 -0.065074787 -0.035613872 -0.063993305 0.0079818377 0.079636589
16030000000 -0.10937744 -0.048921991 -0.055990256 -0.047367949 -0.057318944 -0.045806371 0.0033857878 0.077816129
16040000000 -0.10723677 -0.046877854 -0.069262251 -0.021511197 -0.070070542 -0.019626845 0.0034091137 0.073851138
16050000000 -0.11086814 -0.057556499 -0.071559437 0.0057605114 -0.071519196 0.0076949354 0.0048550963 0.072644942
16060000000 -0.1172231 -0.063710354 -0.064659238 0.032280538 -0.064044714 0.03424973 0.010254906 0.072065122
16070000000 -0.12970237 -0.072334304 -0.047376737 0.054147124 -0.045842167 0.055489853 0.014054775 0.078058347
16080000000 -0.13845529 -0.071266718 -0.024150655 0.067682095 -0.022406377 0.068300895 0.015600555 0.083458811
16090000000 -0.14920048 -0.072011262 0.0039384812 0.071289562 0.0055896146 0.071194865 0.011954707 0.083296396
16100000000 -0.15163331 -0.064219654 0.029829698 0.065345392 0.031353645 0.064855047 0.011293029 0.076912984
16110000000 -0.1510905 -0.063881576 0.053596944 0.048758544 0.054790262 0.047587641 0.010089996 0.068756059
16120000000 -0.14749046 -0.062218789 0.067602284 0.024665285 0.068338305 0.023154888 0.014484506 0.062973551
16130000000 -0.14794031 -0.068394676 0.071774572 -0.0035908036 0.071684726 -0.0051247478 0.017657228 0.064136177
16140000000 -0.15427445 -0.074401408 0.06522879 -0.02939182 0.064710706 -0.030653192 0.019673891 0.068423569
16150000000 -0.16748694 -0.079888701 0.048315004 -0.051694438 0.047416203 -0.052472167 0.016477415 0.068717122
16160000000 -0.18461099 -0.076281369 0.026195647 -0.065978266 0.02504492 -0.066485777 0.013638841 0.067662634
16170000000 -0.19693977 -0.068241626 -0.001272779 -0.070687935 -0.0025389837 -0.070914641 0.014969366 0.06072145
16180000000 -0.20627715 -0.059643336 -0.028361445 -0.066130549 -0.029445404 -0.06583669 0.019957677 0.057475396
16190000000 -0.20444024 -0.055060409 -0.051491767 -0.049105324 -0.052493483 -0.04842931 0.025897969 0.058038969
16200000000 -0.20517293 -0.058661945 -0.066151932 -0.026226956 -0.066622131 -0.025164394 0.026650297 0.061707288
16210000000 -0.2048952 -0.067890093 -0.069557503 0.00012858398 -0.069577023 0.0010524169 0.019779166 0.063945182
16220000000 -0.21743488 -0.07457225 -0.065101355 0.026530255 -0.064872213 0.027480301 0.011321547 0.062073413
16230000000 -0.22541532 -0.076987326 -0.049906541 0.049144313 -0.04934163 0.049954265 0.0053706709 0.056515902
16240000000 -0.24396995 -0.07287243 -0.027201798 0.064872742 -0.026526934 0.065405056 0.0075014997 0.052247621
16250000000 -0.25014129 -0.06215547 -0.00085556693 0.069957949 2.0559877e-05 0.070221573 0.013201956 0.050492946
16260000000 -0.26016226 -0.049125344 0.025762301 0.064744674 0.026638776 0.064514466 0.014375644 0.051939618
16270000000 -0.25704688 -0.037417136 0.047698088 0.050553013 0.048453413 0.050111089 0.013686007 0.051855713
16280000000 -0.26254675 -0.032786347 0.063275374 0.028072577 0.063733868 0.027408477 0.0087777786 0.050118454
16290000000 -0.26143864 -0.033381641 0.069661319 0.0024422221 0.069803961 0.0018429477 0.0063678958 0.0443464
16300000000 -0.27435377 -0.038037166 0.064753115 -0.025200501 0.064675733 -0.02604433 0.0064452654 0.04173921
16310000000 -0.28432345 -0.041166142 0.050405867 -0.047157586 0.049963851 -0.04783437 0.0099343685 0.042356323
16320000000 -0.30600768 -0.040335536 0.028287854 -0.062530026 0.02771727 -0.063111633 0.0087658353 0.051411849
16330000000 -0.31670633 -0.031295002 0.0035229865 -0.068181604 0.0027193334 -0.068312556 0.0081211999 0.057436351
16340000000 -0.33014223 -0.018808648 -0.022618307 -0.064930968 -0.02325831 -0.064739011 0.0002910085 0.058007538
16350000000 -0.32451513 -0.0030916482 -0.045257524 -0.051302422 -0.045880619 -0.050948728 -0.0027507879 0.052047871
16360000000 -0.3250469 0.0049513131 -0.062114071 -0.03034265 -0.062508412 -0.029776607 -0.006439839 0.047368001
16370000000 -0.3148869 0.0090346541 -0.069303229 -0.0030359528 -0.069490276 -0.0023899418 -0.0032161216 0.044887923
16380000000 -0.32170719 0.0059069805 -0.064332083 0.022953723 -0.064225085 0.023752732 -0.0045830812 0.044938639
16390000000 -0.32763484 0.0053224787 -0.05025509 0.045647882 -0.049845569 0.046316743 -0.0076667182 0.047770843
16400000000 -0.35113287 0.0098666996 -0.029633332 0.059260905 -0.029133726 0.059735116 -0.013209261 0.048377693
16410000000 -0.36341482 0.024576351 -0.0047781244 0.066842683 -0.0040356964 0.067196161 -0.013521807 0.050841752
16420000000 -0.38128802 0.041075081 0.020620562 0.063976564 0.021499272 0.063828558 -0.0062587094 0.052674085
16430000000 -0.37835759 0.058912009 0.044017933 0.051080644 0.044803675 0.050651975 0.0014325287 0.054546721
16440000000 -0.381556 0.066543482 0.059633914 0.031763233 0.060170267 0.03106885 0.0018185885 0.056960139
16450000000 -0.37213913 0.070500538 0.06691356 0.0053961594 0.067158565 0.0044900598 -0.0028478443 0.058545634
16460000000 -0.37743735 0.066963382 0.064401112 -0.020188881 0.064309388 -0.02136315 -0.015183942 0.059905231
16470000000 -0.37868437 0.064682603 0.049762905 -0.044088654 0.049148791 -0.044938117 -0.019806176 0.05909767
16480000000 -0.39514953 0.068653479 0.029802423 -0.05869139 0.028978389 -0.059356723 -0.020404996 0.059553169
16490000000 -0.40258977 0.08006382 0.0057262219 -0.065088153 0.0046938211 -0.065207668 -0.013902193 0.063328013
16500000000 -0.4171114 0.098729566 -0.019516336 -0.062431861 -0.020628437 -0.062253401 -0.0088032614 0.067156501
16510000000 -0.41503659 0.11955188 -0.040617321 -0.04995852 -0.041627303 -0.049468234 -0.0068994057 0.069819704
16520000000 -0.41731799 0.13581532 -0.058188383 -0.031125132 -0.058863498 -0.030073792 -0.010012967 0.066075757
16530000000 -0.41038948 0.14551492 -0.06514813 -0.006757604 -0.065376967 -0.0055687577 -0.010044573 0.060309224
16540000000 -0.4135921 0.14770174 -0.063062936 0.020076931 -0.062808372 0.021340806 -0.0074371472 0.056575879
16550000000 -0.41818488 0.1472837 -0.049826823 0.042146578 -0.049178597 0.043119162 -0.0032632258 0.061758548
16560000000 -0.43379498 0.14855012 -0.027538339 0.057508159 -0.026550174 0.058004424 0.0014824588 0.067457803
16570000000 -0.44324851 0.15757646 -0.0056174127 0.063436352 -0.0045024538 0.063702889 -0.0045624152 0.078142002
16580000000 -0.45615852 0.17286065 0.019600525 0.059226785 0.020827532 0.058978643 -0.0060133608 0.080664575
16590000000 -0.45532265 0.19088402 0.03920868 0.048348546 0.040085047 0.047702476 -0.01047984 0.081328169
16600000000 -0.45414153 0.20840809 0.054340966 0.029089326 0.054995812 0.028163208 -0.0025397465 0.077967346
16610000000 -0.4442724 0.22226305 0.062451072 0.0064503737 0.062672265 0.0053482708 0.0061920807 0.070585951
16620000000 -0.44341925 0.22902733 0.05960514 -0.018613217 0.059481464 -0.019842645 0.010069335 0.068146795
16630000000 -0.44313166 0.2364261 0.047991801 -0.040970698 0.047442853 -0.042074934 0.0065061003 0.063901693
16640000000 -0.45618957 0.24294592 0.027844775 -0.054871235 0.026783668 -0.055507589 -0.0036772229 0.067518301
16650000000 -0.46971318 0.25756532 0.0018410822 -0.061336588 0.00062252505 -0.061649177 -0.0042531779 0.071256414
16660000000 -0.48181042 0.27746689 -0.020472677 -0.054766815 -0.021899508 -0.054384556 0.00019435491 0.07148847
16670000000 -0.48467326 0.29893866 -0.039275765 -0.043076567 -0.040487088 -0.04211577 0.011651507 0.074104503
16680000000 -0.48343578 0.31697252 -0.051828682 -0.025499776 -0.052442655 -0.024385102 0.020601055 0.071100511
16690000000 -0.47648019 0.32845747 -0.058390163 -0.0042929649 -0.058549106 -0.0031400174 0.020903895 0.071085393
16700000000 -0.47534049 0.33534455 -0.055620398 0.019201985 -0.055331498 0.020527607 0.019059479 0.069242641
16710000000 -0.47405714 0.34420088 -0.042352799 0.039719038 -0.041541904 0.041037388 0.011314026 0.064571239
16720000000 -0.47845384 0.35354191 -0.0230898 0.052275687 -0.021726204 0.052850224 0.008393174 0.066080399
16730000000 -0.48388004 0.37253138 -0.00096594915 0.055815533 0.00041168928 0.055741038 0.0067650294 0.063378796
16740000000 -0.48760244 0.39577627 0.019881438 0.050766714 0.02092511 0.050278716 0.0062247999 0.066973798
16750000000 -0.48685694 0.42202112 0.037140299 0.03866997 0.038030654 0.037858933 0.0073000137 0.064732194
16760000000 -0.48130178 0.44564939 0.048126608 0.021438204 0.048712291 0.020307494 0.0062412415 0.063623697
16770000000 -0.47357547 0.46651423 0.051865809 0.0016908441 0.051986452 0.00033648498 0.011720462 0.058652829
16780000000 -0.46545595 0.47912848 0.048925877 -0.018153453 0.048516326 -0.019508924 0.013565132 0.055949822
16790000000 -0.46354181 0.48941016 0.037491638 -0.035204392 0.036579479 -0.036080077 0.018716384 0.051935792
16800000000 -0.46327028 0.50016689 0.021037653 -0.047201362 0.019966679 -0.047689524 0.012783924 0.047846045
16810000000 -0.46611765 0.51710248 2.5365502e-05 -0.050485089 -0.0012243409 -0.050604578 0.0054884451 0.047031227
16820000000 -0.46231925 0.53925043 -0.01918303 -0.045356758 -0.020271249 -0.044901062 -0.0054285694 0.047548063
16830000000 -0.45479244 0.56673604 -0.03391473 -0.032859489 -0.034845881 -0.032116421 -0.0049325619 0.056002919
16840000000 -0.43858188 0.59033334 -0.042460058 -0.017308544 -0.042987857 -0.016300395 0.0048002638 0.059109669
16850000000 -0.42300904 0.61283994 -0.045231503 -0.00095989555 -0.045240737 0.00027467962 0.014615064 0.061479598
16860000000 -0.40494317 0.62819481 -0.042640407 0.016800642 -0.042211298 0.017810674 0.018568167 0.058408208
16870000000 -0.39554405 0.64383072 -0.032448851 0.031288102 -0.031752244 0.031946257 0.0063610584 0.051191647
16880000000 -0.38701493 0.65846378 -0.017018611 0.041699328 -0.016134966 0.042234469 -0.0091280928 0.049577821
16890000000 -0.38393825 0.67707062 0.0010009632 0.043385468 0.0020984169 0.043566544 -0.017339384 0.048071489
16900000000 -0.37635005 0.69480491 0.017918352 0.037730314 0.018925108 0.037262823 -0.015610136 0.0554846
16910000000 -0.3675096 0.71713841 0.029738324 0.027131764 0.030498097 0.026432849 -0.0050937384 0.058428142
16920000000 -0.35005161 0.73512089 0.035802253 0.013989268 0.036093805 0.013173918 -0.0019533467 0.061144169
16930000000 -0.33211476 0.75325745 0.038567547 2.5556423e-05 0.038646702 -0.00085658068 0.00075299898 0.062522516
16940000000 -0.30766198 0.76612943 0.034569386 -0.014569102 0.034406573 -0.015448656 -0.0082561038 0.058937475
16950000000 -0.28617823 0.77923918 0.026329268 -0.026730981 0.025759932 -0.027632285 -0.010466978 0.059000745
16960000000 -0.26489258 0.78898442 0.013078122 -0.034314819 0.01215255 -0.03461735 -0.011261629 0.05600287
16970000000 -0.24842894 0.80436146 -0.0018875822 -0.035828389 -0.0028013587 -0.035589885 -0.0075330362 0.060134593
16980000000 -0.23049307 0.82005334 -0.014995539 -0.031022152 -0.015517806 -0.030726872 -0.0071628094 0.062106602
16990000000 -0.21300665 0.84006441 -0.024972487 -0.021668416 -0.025537722 -0.021220721 -0.014980292 0.068299681
17000000000 -0.19168757 0.85673845 -0.029982155 -0.010236248 -0.030332923 -0.0095761064 -0.017879743 0.07371936
