!Keysight Technologies,P9374A,MY57211807,A.19.30.04
!Date: Friday, May 01, 2026 14:12:12
!Correction: S11(C  2-Port  ) 
!S21(C  2-Port  ) 
!S12(C  2-Port  ) 
!S22(C  2-Port  ) 
!S2P File: Measurements: S11, S21, S12, S22:
# Hz S  RI   R 50
13000000000 0.034005851 0.094302006 0.0044501075 0.023049803 0.0046904329 0.023576999 -0.016486786 0.18164641
13010000000 0.036870167 0.10791627 0.011494996 0.020741105 0.011458316 0.02039673 -0.01817926 0.18254161
13020000000 0.04255018 0.11228349 0.02062232 0.013457527 0.020231638 0.013768218 -0.019269541 0.17509025
13030000000 0.053044323 0.11322533 0.023429986 0.004984444 0.023481397 0.005444244 -0.019975826 0.17929371
13040000000 0.057507224 0.10109863 0.022439092 -0.0045188367 0.022914741 -0.004144181 -0.013555918 0.17851603
13050000000 0.056788549 0.089875489 0.020968463 -0.011243186 0.021412872 -0.011300835 -0.012457306 0.17353792
13060000000 0.046954054 0.080344588 0.014477469 -0.020224638 0.014461909 -0.020081954 -0.016892027 0.17749533
13070000000 0.036993206 0.080710128 0.0046744002 -0.023892868 0.0052437778 -0.023903556 -0.013096374 0.17368808
13080000000 0.029352766 0.08763431 -0.0036442792 -0.021846604 -0.0034416774 -0.022435302 -0.016189784 0.17398208
13090000000 0.032285161 0.099928804 -0.012097355 -0.020633258 -0.012418354 -0.021207828 -0.012555227 0.17509824
13100000000 0.039045826 0.10562908 -0.018735547 -0.014670301 -0.018903527 -0.014223718 -0.0067618042 0.18057624
13110000000 0.049900264 0.10822423 -0.023553675 -0.0056405887 -0.023103217 -0.0057276716 -0.0044091903 0.17710936
13120000000 0.055678155 0.10006773 -0.02346688 0.0040813577 -0.024090637 0.0031201087 -0.010641569 0.18043722
13130000000 0.0544926 0.095442094 -0.019443352 0.012961432 -0.019937633 0.013727604 -0.013871664 0.18198007
13140000000 0.051329903 0.088791758 -0.013694371 0.018471796 -0.013535941 0.01836817 -0.012465011 0.18002377
13150000000 0.045531146 0.092339739 -0.0061001582 0.022587311 -0.0059326766 0.022581343 -0.0078095794 0.17900105
13160000000 0.043731488 0.090049103 0.0025665676 0.023666494 0.0023599835 0.023397326 -0.0038528889 0.17547861
13170000000 0.041791946 0.096844979 0.012837792 0.020400241 0.012407283 0.020683717 0.004373908 0.18068996
13180000000 0.046219606 0.096995443 0.018390775 0.013776075 0.018951427 0.014080972 0.0049465708 0.17065604
13190000000 0.051498849 0.10092275 0.023323899 0.0066980505 0.022989536 0.0063770488 -0.0023017675 0.17568037
13200000000 0.057033055 0.097647682 0.023806917 -0.0036004009 0.023565261 -0.0028956914 -0.0021014884 0.18461829
13210000000 0.063156337 0.098416217 0.019666897 -0.011163754 0.020202955 -0.010676982 0.011935517 0.18241706
13220000000 0.064593188 0.092016421 0.014238379 -0.01821468 0.014699894 -0.018405899 0.015953325 0.17680657
13230000000 0.063814223 0.0908283 0.0067833043 -0.022182023 0.0067198472 -0.022506628 0.017787926 0.17217737
13240000000 0.063906275 0.086995095 -0.0030779708 -0.023936445 -0.0027857423 -0.023433093 0.016478535 0.17537677
13250000000 0.059896972 0.088174678 -0.012274755 -0.020188261 -0.011534391 -0.020358102 0.017560093 0.1768299
13260000000 0.058730513 0.08903674 -0.017542649 -0.014246635 -0.017681569 -0.014831154 0.020489475 0.18158136
13270000000 0.06003914 0.092483811 -0.023152141 -0.0063959607 -0.023273796 -0.0068762144 0.027011925 0.17955264
13280000000 0.06609749 0.091225713 -0.022713577 0.0030193375 -0.023031667 0.0032475423 0.028071105 0.17318211
13290000000 0.071750715 0.089490063 -0.020533916 0.011187386 -0.020343836 0.010758068 0.028629377 0.16924098
13300000000 0.07838396 0.081596904 -0.01509467 0.018353378 -0.015673015 0.018181041 0.030810021 0.1611895
13310000000 0.07859879 0.074624114 -0.0067053316 0.022609202 -0.0068606515 0.022636535 0.031983159 0.16382201
13320000000 0.078156695 0.068376534 0.00234331 0.023458676 0.0024207458 0.02348523 0.044071045 0.16518021
13330000000 0.073714033 0.067477494 0.010247723 0.020222133 0.0096439775 0.020373086 0.050815776 0.16598623
13340000000 0.072172195 0.069971621 0.017648768 0.015512969 0.017682422 0.015464087 0.050486587 0.16494998
13350000000 0.073459268 0.075347945 0.022749487 0.0076144552 0.022518959 0.0078581516 0.050974492 0.16224441
13360000000 0.080222815 0.07369671 0.023090601 -0.003015806 0.023163857 -0.0025982037 0.039833691 0.15687266
13370000000 0.08241836 0.071451262 0.020039303 -0.010581505 0.020325568 -0.010810194 0.044777386 0.15534657
13380000000 0.088930815 0.063517503 0.01473562 -0.016346818 0.01453512 -0.015887439 0.050613996 0.14845723
13390000000 0.084402628 0.054462411 0.0082191322 -0.021609461 0.008495287 -0.021362221 0.058141746 0.14583743
13400000000 0.081143901 0.048018612 -0.001157253 -0.023239415 -0.00065488368 -0.023230117 0.064262517 0.14747173
13410000000 0.072286852 0.044998344 -0.010114079 -0.020106254 -0.0098741613 -0.020222438 0.061989084 0.14223959
13420000000 0.073334187 0.044409975 -0.01755137 -0.015827427 -0.017286105 -0.016108539 0.054192118 0.13915086
13430000000 0.069786139 0.04860051 -0.021726757 -0.0075892811 -0.021529131 -0.0079603065 0.04832175 0.1390318
13440000000 0.081115194 0.050038531 -0.0228351 0.00054233801 -0.022746403 0.00016616844 0.056730799 0.13245782
13450000000 0.080178224 0.045663327 -0.021813836 0.0094591556 -0.021790121 0.0090238992 0.065709718 0.12620175
13460000000 0.088092238 0.038751531 -0.014927462 0.017189069 -0.015512822 0.016610796 0.072786987 0.11803333
13470000000 0.084070697 0.031543419 -0.0089281034 0.021303039 -0.0091764275 0.021649634 0.063950084 0.12038992
13480000000 0.08035396 0.020525038 0.00027385447 0.023104437 0.00012402516 0.022924339 0.060448464 0.12482376
13490000000 0.063946515 0.024112452 0.0086527262 0.021963533 0.0081047677 0.021838672 0.057061955 0.12599185
13500000000 0.06377729 0.024346467 0.016955676 0.016429331 0.016678123 0.017175429 0.061025731 0.11762169
13510000000 0.058774777 0.030004395 0.021998918 0.0084851626 0.022349672 0.0088359965 0.061519243 0.10952477
13520000000 0.065821774 0.029129922 0.023296339 -0.00019364641 0.023215307 -0.00010326528 0.064127527 0.1027808
13530000000 0.069355518 0.028944023 0.021404762 -0.0090027358 0.021505818 -0.0085138269 0.058365967 0.10213985
13540000000 0.075430974 0.018445695 0.016886055 -0.015618101 0.01727077 -0.015710983 0.055650748 0.10931894
13550000000 0.071532451 0.011078164 0.009185018 -0.021644458 0.0094544683 -0.021616533 0.056689057 0.10659542
13560000000 0.066767715 0.004717879 -0.00021780189 -0.023952512 0.00011390261 -0.024178782 0.059418358 0.10093387
13570000000 0.055655293 0.0080911852 -0.0086210258 -0.021241736 -0.0087957904 -0.021459389 0.05875802 0.090779722
13580000000 0.052536234 0.011890822 -0.016036343 -0.01740225 -0.015679691 -0.01717251 0.057029944 0.089182645
13590000000 0.048924819 0.019105161 -0.021357032 -0.0098506017 -0.021067986 -0.010339785 0.052904427 0.095181741
13600000000 0.050233327 0.020984363 -0.023882208 -0.00057470985 -0.02402262 -0.00097384537 0.055666804 0.098346487
13610000000 0.050661147 0.021087788 -0.022146989 0.0081058666 -0.022650462 0.0081530763 0.052420862 0.096356958
13620000000 0.054083932 0.017399173 -0.017365472 0.016420536 -0.017286662 0.016489116 0.05342745 0.0922435
13630000000 0.048187844 0.012070253 -0.0097546764 0.021358568 -0.010082899 0.020832956 0.04806472 0.086810485
13640000000 0.049491435 0.0092702741 -0.00051371194 0.023498986 -0.0013710512 0.023833377 0.047186032 0.088359341
13650000000 0.044162452 0.0037362739 0.0075772684 0.021815659 0.0078662662 0.022191148 0.047129724 0.091360472
13660000000 0.043734957 0.004453239 0.015071297 0.017921217 0.015019872 0.018372269 0.04957987 0.085323669
13670000000 0.038681701 0.0044474285 0.021914503 0.010855535 0.022233246 0.010356676 0.04445345 0.085914746
13680000000 0.038615011 0.0096788723 0.023193568 0.00055167731 0.022752441 0.001114279 0.050749794 0.085039489
13690000000 0.037278175 0.017244598 0.022107299 -0.0072769891 0.022901889 -0.0071660699 0.048874248 0.080937721
13700000000 0.04465007 0.021300025 0.018471595 -0.014812525 0.018369326 -0.01526922 0.050845467 0.086562127
13710000000 0.045263428 0.023180429 0.010431247 -0.02177164 0.010456188 -0.021702122 0.046617057 0.086991213
13720000000 0.051404145 0.018737871 0.002496328 -0.023219066 0.0024766286 -0.023357734 0.048123144 0.094233461
13730000000 0.048474886 0.01011806 -0.0066722878 -0.022622505 -0.0067519872 -0.022488076 0.051748618 0.083889164
13740000000 0.040849853 0.0054561105 -0.015221979 -0.018768532 -0.015081694 -0.018863065 0.047374479 0.079252638
13750000000 0.030646466 0.0059893876 -0.021713309 -0.01128156 -0.021512942 -0.011159005 0.048695412 0.079660609
13760000000 0.029102154 0.01028929 -0.023406018 -0.0025124773 -0.023518436 -0.0028336206 0.052783206 0.083300672
13770000000 0.029104631 0.013905248 -0.023147769 0.0062614353 -0.023284579 0.0062347688 0.052458785 0.086517304
13780000000 0.037659638 0.018772688 -0.01879549 0.015297413 -0.018687129 0.015489904 0.055450477 0.089197643
13790000000 0.04793616 0.015441926 -0.011502068 0.021310575 -0.011677707 0.021085177 0.05616672 0.075644843
13800000000 0.051680394 0.0084244553 -0.0028309838 0.023928037 -0.0031218014 0.023743998 0.045496326 0.075011671
13810000000 0.050350294 0.002698143 0.0070677511 0.02350351 0.0067305607 0.024177505 0.057770818 0.079678632
13820000000 0.047122382 -0.00057451054 0.014699081 0.018668773 0.01552258 0.01831976 0.060502138 0.074489355
13830000000 0.04070171 0.00072179176 0.020688578 0.012092173 0.020212805 0.011864001 0.063289978 0.079646885
13840000000 0.035861902 0.0057161385 0.024281703 0.0029951707 0.024444941 0.0035529574 0.067273937 0.075583167
13850000000 0.037273303 0.0075577246 0.023272617 -0.0062934589 0.02369245 -0.0064035696 0.055109378 0.067422859
13860000000 0.040461358 0.0072274948 0.019593541 -0.015166116 0.019439328 -0.015065307 0.054731719 0.070141807
13870000000 0.041833311 0.0014001289 0.011846383 -0.020284539 0.011730803 -0.020550882 0.061324686 0.064362466
13880000000 0.043223545 -0.0039886963 0.003901978 -0.022969186 0.0036536222 -0.02307621 0.067853644 0.063535556
13890000000 0.04140636 -0.010854079 -0.0046766573 -0.023954373 -0.0047989385 -0.023478907 0.069911033 0.059098195
13900000000 0.038669094 -0.011895491 -0.015435103 -0.020423004 -0.014821962 -0.020772923 0.06677039 0.059958845
13910000000 0.040047392 -0.012849534 -0.020784376 -0.011216285 -0.021426093 -0.011316522 0.067794465 0.055236727
13920000000 0.039059725 -0.012993646 -0.022356719 -0.0034864289 -0.022303401 -0.0031980965 0.061478458 0.049599316
13930000000 0.039719295 -0.013677636 -0.024001542 0.0043811202 -0.023273269 0.0038652888 0.064810373 0.050195988
13940000000 0.03680563 -0.015223253 -0.020027334 0.01462806 -0.020504829 0.014249823 0.073730499 0.046411365
13950000000 0.03521743 -0.016663315 -0.012571963 0.020846754 -0.012425967 0.020890538 0.07234434 0.038873665
13960000000 0.028029203 -0.018876877 -0.0042940993 0.023905843 -0.0043100705 0.023506302 0.06333065 0.043410555
13970000000 0.024528105 -0.018278316 0.0062246351 0.023709852 0.0057977773 0.023627732 0.071396962 0.041434087
13980000000 0.022150863 -0.021629343 0.013496889 0.019111197 0.013006223 0.01916885 0.059362557 0.028386798
13990000000 0.021266926 -0.027043112 0.020092182 0.012652571 0.019804247 0.013422811 0.055277549 0.037069924
14000000000 0.016028482 -0.029517237 0.023483733 0.0049203038 0.023819782 0.0050711986 0.070860699 0.0359478
14010000000 0.018437233 -0.034365706 0.023258926 -0.0049077384 0.023132605 -0.0046483139 0.06613946 0.016858794
14020000000 0.013778985 -0.036657207 0.020116929 -0.013583947 0.020009246 -0.013218122 0.051627904 0.022878304
14030000000 0.015342737 -0.037698902 0.013084305 -0.019349236 0.013747707 -0.019297091 0.05541873 0.025075931
14040000000 0.012757762 -0.03535701 0.0043778382 -0.023315229 0.0047834655 -0.023819432 0.051792353 0.013041509
14050000000 0.01333781 -0.034624461 -0.0032005068 -0.022620853 -0.0034383796 -0.02273264 0.046815388 0.018019654
14060000000 0.0082910564 -0.031475134 -0.012599012 -0.020307155 -0.012705942 -0.020250142 0.051652908 0.019341204
14070000000 0.0073447851 -0.032797348 -0.019500665 -0.014690014 -0.01924045 -0.015172234 0.054532018 0.011964878
14080000000 -0.00073781423 -0.03109771 -0.023146112 -0.0041235676 -0.023571156 -0.0044166432 0.040058941 0.00037826551
14090000000 -0.0055157919 -0.028254231 -0.023214862 0.0030958205 -0.023592321 0.0034332424 0.027823647 0.0092478124
14100000000 -0.010687498 -0.027745027 -0.020396003 0.011558979 -0.02005247 0.011536963 0.034008518 0.0044293702
14110000000 -0.014817683 -0.029332295 -0.014910188 0.019831898 -0.015271349 0.019803856 0.038299069 0.0020186566
14120000000 -0.016812073 -0.028061451 -0.0064234561 0.022333698 -0.0063296356 0.022389714 0.040085576 -0.0014966242
14130000000 -0.015404234 -0.032734483 0.0037922813 0.023740556 0.0035080216 0.024150392 0.040550821 0.00020519737
14140000000 -0.019423334 -0.035919365 0.011398827 0.020367524 0.011865819 0.020202557 0.029507019 -0.0073500052
14150000000 -0.022658588 -0.034987394 0.01822301 0.014610291 0.017772455 0.013997801 0.014387432 0.00075203204
14160000000 -0.025737867 -0.035031486 0.022696601 0.0075604003 0.022670917 0.0080905193 0.023788791 0.0093440767
14170000000 -0.029702444 -0.029138735 0.023523036 -0.002263804 0.024003806 -0.0021134373 0.031605493 -0.0044199247
14180000000 -0.031538177 -0.019723454 0.021643121 -0.011993963 0.021523356 -0.012168961 0.025662519 -0.0060293674
14190000000 -0.026981968 -0.012928259 0.01486201 -0.017891973 0.015209909 -0.01793856 0.020273581 0.0018781903
14200000000 -0.026977774 -0.015880791 0.007082554 -0.023083093 0.0069409059 -0.023017462 0.017466484 0.0071047223
14210000000 -0.029145384 -0.013903995 -0.0015159908 -0.02364319 -0.0015160294 -0.023626382 0.0047331038 0.0060434449
14220000000 -0.029921295 -0.022184134 -0.010741472 -0.021123448 -0.010770371 -0.02144878 0.0043730102 0.0079147639
14230000000 -0.039227273 -0.024329031 -0.018337758 -0.016125917 -0.018597057 -0.016143676 0.0072471974 0.0022644512
14240000000 -0.048240207 -0.021315239 -0.022125261 -0.0078012268 -0.02217197 -0.0076832259 0.010367977 -0.0039536832
14250000000 -0.047876481 -0.013094272 -0.024935406 0.00069374964 -0.025027003 0.0007471852 0.0070676282 -0.0014529475
14260000000 -0.048043657 -0.010411544 -0.022350296 0.010988305 -0.021948747 0.01140691 0.0038369694 0.0010345562
14270000000 -0.040410262 -0.0012476072 -0.015168373 0.018276663 -0.015164235 0.017882667 -0.0061998782 0.0076938728
14280000000 -0.034508556 -0.0056857625 -0.0086149797 0.021431118 -0.0085156076 0.021692468 -0.00091919524 0.016206557
14290000000 -0.028342888 -0.0030138057 -4.2164465e-06 0.024392171 0.00015438232 0.024581872 0.0096625024 0.0045264647
14300000000 -0.033991143 -0.0094909817 0.0095015112 0.023094393 0.0097261313 0.022332044 0.0046685534 -0.0050678742
14310000000 -0.03459068 -0.0039936928 0.018989567 0.01713891 0.018738374 0.016995389 -0.0048597576 -0.0022170232
14320000000 -0.04515253 -0.0090560131 0.022527492 0.0078813536 0.021903176 0.0079970434 -0.0055979518 0.015146116
14330000000 -0.046926931 0.0019829627 0.023336878 -0.00076783355 0.023558125 -0.00046031084 -0.0003887238 0.017389631
14340000000 -0.050245441 0.0031390376 0.022377159 -0.0080862697 0.022439687 -0.0082406243 0.0021361588 0.013009153
14350000000 -0.044685997 0.0083416952 0.018322118 -0.017132388 0.018012997 -0.01671833 0.0013719293 0.0018158227
14360000000 -0.044119984 0.0061595035 0.0093408721 -0.023714783 0.0095445951 -0.023523366 -0.0068971612 0.00053020217
14370000000 -0.034611858 0.0052314308 -0.00070992531 -0.023686737 -0.00029668212 -0.023611816 -0.01058198 0.008422696
14380000000 -0.034323476 -0.001187331 -0.0091900332 -0.02254555 -0.009118516 -0.023160048 -0.0029488248 0.018307324
14390000000 -0.02957901 -0.0023271739 -0.015905572 -0.01710608 -0.016282562 -0.016862612 0.0037926245 0.0092642773
14400000000 -0.035654962 -0.0060530892 -0.02199992 -0.010493216 -0.02154384 -0.010469928 -0.00087894412 0.0022432718
14410000000 -0.035713393 -0.0015704911 -0.025396924 -0.0019204309 -0.025325749 -0.0025214115 -0.0050950767 0.0058701425
14420000000 -0.042855926 0.0017210217 -0.023288911 0.010305261 -0.024098091 0.010180867 7.0093549e-05 0.0044387071
14430000000 -0.041004106 0.0094690919 -0.017716387 0.016873516 -0.017591119 0.017266341 -0.0021922837 0.0063998709
14440000000 -0.04164315 0.014016221 -0.0094791129 0.021148831 -0.009231817 0.021334913 -0.0068495623 0.012373804
14450000000 -0.035583276 0.013437739 -0.0025837766 0.024921628 -0.0025706273 0.024558106 -0.001034712 0.010461032
14460000000 -0.039255109 0.0099985488 0.008221833 0.023561839 0.0078775957 0.02367314 -0.006369492 0.002398127
14470000000 -0.033638481 0.001853589 0.01741726 0.019110233 0.017425919 0.019665625 -0.0078142006 -0.0011849459
14480000000 -0.04155086 -0.005796615 0.021883991 0.011018987 0.022559328 0.010746769 -0.0070565613 0.00090572354
14490000000 -0.045616321 -0.0074245753 0.025016444 0.00060420251 0.024434807 4.9023423e-05 -0.0050372831 0.0013650258
14500000000 -0.047155913 -0.0047349832 0.023277504 -0.0062987758 0.023230491 -0.005313308 -0.0063447519 0.0034024003
14510000000 -0.047707208 -0.0038167136 0.019321416 -0.016279807 0.019911537 -0.016527105 -0.0088298796 -0.00065101264
14520000000 -0.047942001 0.0028663417 0.011937877 -0.023040127 0.012161219 -0.023484882 -0.012166018 -0.0057526808
14530000000 -0.040191915 0.0063219313 0.00066856854 -0.024638811 0.00025065988 -0.024712507 -0.012230363 -0.0091959015
14540000000 -0.038819097 0.0049745142 -0.0073634377 -0.023665641 -0.0072557786 -0.023680987 -0.012657804 -0.0090014599
14550000000 -0.040450025 0.0038659684 -0.014316585 -0.01889045 -0.01422927 -0.019141572 -0.0099751931 -0.0022501899
14560000000 -0.044287991 0.0025772955 -0.02345079 -0.012988088 -0.02385501 -0.013362167 -0.012577049 -0.0021409341
14570000000 -0.050504241 -0.0032803039 -0.025017191 -0.001708344 -0.025227781 -0.0014132096 -0.017522588 -0.0022896181
14580000000 -0.060944349 9.211991e-05 -0.023951054 0.0083293617 -0.023936836 0.0084877601 -0.023640111 -0.0076956823
14590000000 -0.063283645 0.0018621385 -0.018938947 0.015303334 -0.019008737 0.015435413 -0.028587105 -0.015191318
14600000000 -0.065085605 0.0056302082 -0.011914406 0.021687843 -0.011794686 0.022047043 -0.031780392 -0.013824671
14610000000 -0.063288644 0.0054864585 -0.0041215671 0.025462992 -0.0037725884 0.025441241 -0.025364986 -0.0074724676
14620000000 -0.059441224 0.00747573 0.0070123021 0.023870742 0.0072578946 0.023939561 -0.023649478 -0.0092459405
14630000000 -0.056838386 0.0037708776 0.016316414 0.020314632 0.016616367 0.020021662 -0.02993948 -0.010128577
14640000000 -0.056749739 0.0046080626 0.022074265 0.01125074 0.021620099 0.010934141 -0.040879272 -0.012877219
14650000000 -0.06211618 0.0029148706 0.024067605 0.0026494197 0.02421621 0.0030820982 -0.047624364 -0.008773379
14660000000 -0.066400304 0.0068679228 0.023912331 -0.0053584892 0.023849189 -0.0059619448 -0.041149553 -0.0074036615
14670000000 -0.076521859 0.012579205 0.020452579 -0.01556038 0.019728707 -0.01507169 -0.039675247 -0.011799928
14680000000 -0.074928984 0.021652525 0.012562025 -0.021945802 0.012903683 -0.021056078 -0.042589758 -0.011484697
14690000000 -0.078359522 0.024494898 0.0024217498 -0.024549186 0.0030195904 -0.024589691 -0.051161602 -0.0078996243
14700000000 -0.074212432 0.028222816 -0.0054320651 -0.023180865 -0.0054098512 -0.023190793 -0.056613997 -0.0042925635
14710000000 -0.075326093 0.024512297 -0.014467389 -0.020003675 -0.013977555 -0.01984854 -0.059190426 -0.0022747414
14720000000 -0.071999155 0.02163174 -0.021051571 -0.013518028 -0.020238347 -0.013893141 -0.056078024 -0.0011335621
14730000000 -0.077624165 0.018056886 -0.024997063 -0.0040481612 -0.025071932 -0.0050357198 -0.055080704 -0.0042374693
14740000000 -0.079125986 0.021216702 -0.023930505 0.00671589 -0.024478378 0.0064158253 -0.061211675 -0.0028824192
14750000000 -0.082777321 0.02683077 -0.019328274 0.014073763 -0.01968609 0.01370935 -0.068074957 0.0041816235
14760000000 -0.079293422 0.035819117 -0.013404168 0.02040324 -0.013829064 0.020613497 -0.067856684 0.0095748771
14770000000 -0.080786228 0.042507034 -0.0040749623 0.023662273 -0.004555936 0.023606868 -0.066294774 0.0088620018
14780000000 -0.072473526 0.050296538 0.0048221769 0.024043517 0.0043034418 0.024601584 -0.0667575 0.0092922738
14790000000 -0.073889323 0.051872097 0.01351266 0.020770025 0.013616906 0.021297839 -0.067110024 0.011876396
14800000000 -0.069245555 0.053234097 0.02082812 0.013255475 0.021392718 0.013428656 -0.06985718 0.013099674
14810000000 -0.074000485 0.051380333 0.023545139 0.0048382673 0.023561552 0.0048930682 -0.081533253 0.019251136
14820000000 -0.075103849 0.051162735 0.023244727 -0.0041150497 0.023487344 -0.0039579822 -0.07437586 0.029344019
14830000000 -0.080496944 0.050320424 0.021036427 -0.012448711 0.021425478 -0.012752419 -0.070620812 0.020632075
14840000000 -0.080733217 0.053468421 0.014081679 -0.020328209 0.0140578 -0.020407882 -0.07035625 0.021565527
14850000000 -0.081647784 0.059733357 0.0057189129 -0.023406891 0.0054958728 -0.023462269 -0.069772936 0.023053216
14860000000 -0.073040776 0.066347495 -0.0033495817 -0.023452239 -0.0032523624 -0.023126859 -0.071662471 0.035352167
14870000000 -0.063917771 0.069293126 -0.011838504 -0.020542277 -0.011502242 -0.020573052 -0.07124868 0.040262584
14880000000 -0.050703239 0.070472971 -0.019233363 -0.015048295 -0.019246327 -0.015382871 -0.074520841 0.043578342
14890000000 -0.047182746 0.066030629 -0.023142425 -0.0055744243 -0.023337349 -0.0052973107 -0.069333047 0.041312717
14900000000 -0.04433202 0.064029828 -0.023841588 0.0027073161 -0.022972759 0.0026013334 -0.068760835 0.037231073
14910000000 -0.049868707 0.063043393 -0.020904575 0.011210416 -0.021212919 0.010186501 -0.067292146 0.038152594
14920000000 -0.058011673 0.067200035 -0.015384797 0.018505687 -0.016063364 0.01871991 -0.069605783 0.047066584
14930000000 -0.06116645 0.076644085 -0.0075459802 0.022813655 -0.00743498 0.02277733 -0.066080108 0.056613773
14940000000 -0.056771867 0.084134109 0.0022355206 0.024910722 0.0018782085 0.024684582 -0.064683624 0.053779319
14950000000 -0.049730644 0.085929282 0.011409514 0.021407146 0.010835464 0.02191148 -0.062048867 0.049684543
14960000000 -0.038673628 0.083220616 0.017896557 0.015386677 0.017778147 0.015648419 -0.06150946 0.039745703
14970000000 -0.031499933 0.071303464 0.023103021 0.0083857365 0.023099899 0.0089583546 -0.062508769 0.045156315
14980000000 -0.030130297 0.060572959 0.024297811 -0.0009541997 0.024513267 -0.00052822032 -0.054015059 0.056640103
14990000000 -0.033426546 0.05189031 0.022395883 -0.010846343 0.022930305 -0.010655158 -0.047748167 0.060233537
15000000000 -0.038494386 0.055382989 0.016057264 -0.017965414 0.016273003 -0.017973159 -0.04875743 0.058573831
15010000000 -0.039076269 0.060270045 0.0080725169 -0.022890836 0.0083735399 -0.022839068 -0.054854706 0.054958951
15020000000 -0.034869812 0.068169601 -0.00040838402 -0.024319589 -0.00012106448 -0.024589976 -0.05789075 0.051481269
15030000000 -0.029198714 0.07101845 -0.010126218 -0.02269318 -0.010250716 -0.022601027 -0.054567385 0.051376805
15040000000 -0.021951737 0.072969563 -0.018228702 -0.017142175 -0.018124348 -0.017581142 -0.048533365 0.05462978
15050000000 -0.018948231 0.064905614 -0.022622904 -0.0085830428 -0.022615736 -0.008515209 -0.042561226 0.055197477
15060000000 -0.020094018 0.062096294 -0.024735481 4.2849686e-05 -0.024598006 -0.00012389384 -0.046999231 0.054436397
15070000000 -0.023067497 0.050752193 -0.023152666 0.0096326303 -0.023150323 0.0092190392 -0.047976002 0.050295249
15080000000 -0.030949086 0.049436558 -0.01748443 0.018011255 -0.017862938 0.018017137 -0.052614503 0.043939725
15090000000 -0.033784796 0.046066124 -0.0097445445 0.022964993 -0.0094461916 0.022749599 -0.049676962 0.045559578
15100000000 -0.037139282 0.048327241 -0.00017705746 0.024992265 -0.00051088817 0.024451666 -0.044822603 0.043530319
15110000000 -0.036317464 0.04848922 0.0091745006 0.023092508 0.0084440224 0.023339767 -0.041859794 0.04957616
15120000000 -0.033605415 0.052195653 0.017048776 0.017615734 0.016742839 0.018124199 -0.039381538 0.051112708
15130000000 -0.028770026 0.052386362 0.023044698 0.010285642 0.023283813 0.010481564 -0.045423333 0.048152454
15140000000 -0.023919772 0.052403487 0.025222419 0.00047998596 0.024817616 0.00085554086 -0.054030515 0.048502423
15150000000 -0.023095813 0.048119299 0.023024531 -0.009041802 0.023509644 -0.008539686 -0.055374019 0.046465348
15160000000 -0.024234746 0.046525896 0.017845616 -0.016797183 0.018381603 -0.016799133 -0.055154875 0.046864048
15170000000 -0.029643059 0.039384339 0.010593755 -0.022420634 0.010880269 -0.022608893 -0.052710336 0.046679094
15180000000 -0.040826187 0.043705724 0.0016019752 -0.025432453 0.0017307214 -0.02550308 -0.05251389 0.047220755
15190000000 -0.044227064 0.048015174 -0.0091405855 -0.02404221 -0.0089332974 -0.024363682 -0.057882294 0.043319229
15200000000 -0.047400638 0.053313382 -0.017385442 -0.018020209 -0.017619925 -0.018354256 -0.061353486 0.043548144
15210000000 -0.045271493 0.057472732 -0.021886535 -0.010466144 -0.022090372 -0.01061496 -0.063918658 0.046413139
15220000000 -0.037907582 0.061031826 -0.024869885 -0.0020125629 -0.024969203 -0.0017843237 -0.061212942 0.052276958
15230000000 -0.031980231 0.055223271 -0.024407545 0.0076242816 -0.024280533 0.0075652674 -0.053268224 0.053352151
15240000000 -0.030074615 0.05221346 -0.019011661 0.017199323 -0.018886492 0.017043086 -0.057385731 0.050588489
15250000000 -0.030115413 0.047672648 -0.010903395 0.023006048 -0.01107926 0.022834616 -0.064864203 0.053545527
15260000000 -0.035643451 0.044855442 -0.0012242866 0.024044966 -0.0012721617 0.024111779 -0.066921026 0.060214512
15270000000 -0.042247765 0.049999602 0.0070585064 0.023283843 0.0068596574 0.02304299 -0.067503721 0.064546898
15280000000 -0.043195434 0.059840199 0.015879871 0.019336767 0.015787765 0.019584941 -0.061453857 0.068288133
15290000000 -0.041529961 0.06751655 0.022743689 0.011267297 0.022723254 0.011359772 -0.06609071 0.064960472
15300000000 -0.035787337 0.072502173 0.024553355 0.0014906889 0.024215175 0.0016276622 -0.071795508 0.070670217
15310000000 -0.027024057 0.073680125 0.022843851 -0.0076075569 0.022799063 -0.0072495649 -0.071091957 0.06978143
15320000000 -0.022892432 0.063956507 0.018586 -0.015137905 0.01903725 -0.014910499 -0.069249347 0.070002504
15330000000 -0.024407327 0.060596362 0.012363978 -0.02164034 0.012716788 -0.021633167 -0.064507812 0.070177883
15340000000 -0.027216978 0.055854615 0.0020497469 -0.024439489 0.0023428355 -0.024808003 -0.057550371 0.075469293
15350000000 -0.030782046 0.058619887 -0.0069101928 -0.023426266 -0.0071652285 -0.023680165 -0.054584831 0.079271808
15360000000 -0.031551473 0.061702922 -0.014802128 -0.018674877 -0.014849902 -0.0184802 -0.058673136 0.088232227
15370000000 -0.023572322 0.068735912 -0.020917587 -0.011861799 -0.020916052 -0.012187681 -0.056985199 0.091164924
15380000000 -0.018942516 0.067904867 -0.023712421 -0.0034485515 -0.023959577 -0.0037654652 -0.059581779 0.088338599
15390000000 -0.010164697 0.068263821 -0.023366857 0.0066090627 -0.023556072 0.0068890583 -0.057424776 0.089287125
15400000000 -0.0078186868 0.061821323 -0.018828072 0.014151157 -0.018808469 0.014460672 -0.052952114 0.089975849
15410000000 -0.0060730036 0.05836305 -0.012156347 0.019790288 -0.011686472 0.019633006 -0.046964642 0.095061108
15420000000 -0.0094932485 0.055423133 -0.0043065483 0.024188356 -0.0046032481 0.024010459 -0.044092134 0.094829127
15430000000 -0.0063175447 0.055951633 0.0057829246 0.022968154 0.0058957674 0.023105126 -0.048769243 0.093570694
15440000000 -0.0095130131 0.054175332 0.01377655 0.018885834 0.014027847 0.018659975 -0.04879858 0.096890219
15450000000 -0.0044330694 0.056062914 0.019209234 0.012992729 0.018853949 0.012490785 -0.040366631 0.091233321
15460000000 -0.0016395207 0.051138837 0.022834972 0.0042545558 0.022366365 0.0049392008 -0.035575233 0.089835219
15470000000 0.0027558359 0.04994018 0.023013087 -0.0037749405 0.023587422 -0.0034353994 -0.027247533 0.094099857
15480000000 0.0044414354 0.04492256 0.01969419 -0.012768952 0.01968356 -0.012916607 -0.023112075 0.096802995
15490000000 0.0083020078 0.041978765 0.013676809 -0.019005671 0.013715204 -0.018794023 -0.024287112 0.10105821
15500000000 0.0066581648 0.03738372 0.0052439952 -0.022769898 0.0054176589 -0.022472631 -0.025417984 0.10224354
15510000000 0.010247031 0.033960551 -0.0039622691 -0.023118772 -0.003383249 -0.023191679 -0.020991072 0.098482125
15520000000 0.0047294274 0.030784514 -0.011625102 -0.019584008 -0.011595583 -0.020158429 -0.022393774 0.093789428
15530000000 0.0057226545 0.030202759 -0.018441616 -0.014111836 -0.018733202 -0.014408081 -0.019295169 0.096038468
15540000000 0.0029666659 0.028037932 -0.022428803 -0.0065767379 -0.022754557 -0.0063540116 -0.018014178 0.096471287
15550000000 0.0070447153 0.026659535 -0.023301899 0.0029965194 -0.023332357 0.0027966916 -0.014075244 0.097881652
15560000000 0.0053862114 0.023270478 -0.020221872 0.011036775 -0.020532722 0.011064453 -0.011531416 0.088188916
15570000000 0.012359179 0.016547339 -0.014986589 0.017926611 -0.015096547 0.018509772 -0.017431896 0.085404098
15580000000 0.0072928984 0.0068295123 -0.0068121324 0.022666225 -0.0062168832 0.022983016 -0.010974728 0.088286802
15590000000 0.0063503934 0.001985705 0.0018494623 0.023020627 0.0018805824 0.022691336 -0.0059994943 0.085891798
15600000000 -0.00075644883 -0.0012571379 0.010075278 0.021370139 0.010342121 0.021279611 -0.0045660855 0.088202417
15610000000 -0.0024360188 -0.00043817505 0.018593049 0.015737271 0.018480495 0.015563158 -0.0024391389 0.083155401
15620000000 -0.0054127136 0.0039233351 0.022144184 0.0069993841 0.022411669 0.0068304669 -0.0096973628 0.079832405
15630000000 0.0029304423 0.0022370678 0.022473369 -0.0016514161 0.022094881 -0.0020743981 -0.0074342676 0.082490265
15640000000 0.0025820981 -0.0017881881 0.020771468 -0.0092126913 0.020669475 -0.0088031609 -0.0032032169 0.079315916
15650000000 0.0037492085 -0.010984232 0.016715098 -0.016594596 0.0165457 -0.016605463 -0.0008998625 0.080450587
15660000000 -0.0043489719 -0.016932948 0.00896235 -0.022539625 0.0088803219 -0.02229313 -0.0025515202 0.07702183
15670000000 -0.012853649 -0.02331402 -0.0013268662 -0.023897821 -0.0013373722 -0.023633419 -0.0086361347 0.074811749
15680000000 -0.021590767 -0.018897036 -0.0097511159 -0.021034125 -0.0092190094 -0.020996075 -0.010196775 0.071113706
15690000000 -0.024272082 -0.020593777 -0.016194005 -0.016087705 -0.016197108 -0.016372457 -0.0068302639 0.068554208
15700000000 -0.024218559 -0.015537148 -0.021291658 -0.0094508119 -0.021274749 -0.0095096622 -0.00053389184 0.065188512
15710000000 -0.021944579 -0.021186195 -0.024319362 -0.00090956967 -0.024392609 -0.0010400824 -0.0036601909 0.067347303
15720000000 -0.020065151 -0.023621583 -0.022234 0.0092306817 -0.022585984 0.0091589019 -0.0022558868 0.075738952
15730000000 -0.022866668 -0.033134487 -0.016597386 0.015932035 -0.016804641 0.016327247 -0.0040552802 0.070730679
15740000000 -0.026723133 -0.032432996 -0.010238031 0.021297429 -0.010335586 0.021531057 -0.01196425 0.067481816
15750000000 -0.032663062 -0.035645764 -0.00067922019 0.023968851 -0.00048125722 0.024379939 -0.0097546484 0.064336918
15760000000 -0.035412952 -0.031909153 0.007773391 0.022052452 0.0081360536 0.022311948 -0.0071824277 0.063238814
15770000000 -0.041352361 -0.034730449 0.015472192 0.018297115 0.016046291 0.018149741 -0.0043558255 0.067863621
15780000000 -0.042936344 -0.029166656 0.021744106 0.011513222 0.022231279 0.011211603 -0.0039207824 0.071335867
15790000000 -0.049216539 -0.032758463 0.024313685 0.0012182603 0.024372512 0.00052402634 -0.010566233 0.071920045
15800000000 -0.051490035 -0.030318407 0.022898816 -0.0078589255 0.022421353 -0.0082558123 -0.01674374 0.067146696
15810000000 -0.056663133 -0.031615559 0.018174313 -0.01553444 0.018143823 -0.015455243 -0.020321216 0.065733925
15820000000 -0.052409444 -0.031587228 0.011736963 -0.021890383 0.010879433 -0.022260413 -0.014382701 0.065363407
15830000000 -0.056358244 -0.039411869 0.0022110008 -0.024753263 0.0020659408 -0.024089655 -0.0064340048 0.067535594
15840000000 -0.055281665 -0.040182449 -0.0078920536 -0.023022726 -0.0081295492 -0.023152247 -0.0040160771 0.066662908
15850000000 -0.061142229 -0.049088471 -0.01491993 -0.018953513 -0.014848011 -0.0185159 -0.014465008 0.070481792
15860000000 -0.066239774 -0.047849499 -0.021788573 -0.011675719 -0.021786684 -0.011456268 -0.014435828 0.076859914
15870000000 -0.075421549 -0.045585498 -0.024626441 -0.0026768669 -0.024338953 -0.0024438496 -0.016495522 0.069784366
15880000000 -0.07208845 -0.034802213 -0.023833055 0.0071676751 -0.023380559 0.0068691513 -0.014851097 0.07362134
15890000000 -0.072382428 -0.03294272 -0.018672101 0.015928686 -0.019178564 0.015884975 -0.0053150663 0.069636121
15900000000 -0.066309683 -0.029023575 -0.011675779 0.020680401 -0.011755155 0.021056142 -0.010013784 0.071269199
15910000000 -0.065908566 -0.035776488 -0.0029978063 0.024768665 -0.0026848894 0.024730299 -0.0086258315 0.079340421
15920000000 -0.067962162 -0.043988205 0.0067144297 0.02342049 0.0065727057 0.023409128 -0.007115379 0.078510568
15930000000 -0.079652175 -0.051028568 0.015053201 0.019137517 0.015073517 0.019589927 -0.0070849694 0.078580961
15940000000 -0.08728227 -0.051835828 0.02105468 0.012740267 0.021479804 0.012672239 -0.0069160927 0.076773025
15950000000 -0.1011911 -0.051302522 0.024755726 0.0028829074 0.024819525 0.0024971815 -0.0069072917 0.080065392
15960000000 -0.099864043 -0.042300887 0.023597769 -0.0066700177 0.023609212 -0.0065018777 -0.0064427983 0.0835234
15970000000 -0.098434076 -0.04301656 0.019170787 -0.0140384 0.019351108 -0.014671004 -0.003249567 0.083328038
15980000000 -0.089437217 -0.041432954 0.013473228 -0.0212465 0.013070524 -0.021531966 -0.0067857448 0.076501057
15990000000 -0.08631862 -0.051240109 0.003224276 -0.024872743 0.0031207856 -0.024883602 -0.0074166171 0.079391688
16000000000 -0.085930414 -0.057172567 -0.0067783939 -0.024086602 -0.0069609731 -0.02402346 0.00050569698 0.079488724
16010000000 -0.096490704 -0.066636108 -0.014397746 -0.01859745 -0.014733661 -0.018356116 0.0038924031 0.079279274
16020000000 -0.10467602 -0.06411843 -0.020006107 -0.01296034 -0.020052917 -0.012959944 0.0062414613 0.080811977
16030000000 -0.11852158 -0.061792351 -0.023974672 -0.004726476 -0.024065644 -0.0045734532 0.0026960091 0.07583604
16040000000 -0.12148048 -0.051186617 -0.024672111 0.0061360681 -0.02476039 0.006361478 0.00040032528 0.076756567
16050000000 -0.12380946 -0.050015479 -0.019296292 0.014966556 -0.019213244 0.015188949 0.0079819467 0.076027557
16060000000 -0.12084866 -0.051105734 -0.012114434 0.020354936 -0.011709278 0.02067779 0.012857286 0.073361859
16070000000 -0.12361836 -0.059691492 -0.0046633817 0.023233498 -0.0045486563 0.02294071 0.01846578 0.07700631
16080000000 -0.12646106 -0.066713937 0.0050978502 0.024021741 0.0050710454 0.024231417 0.015670415 0.07819996
16090000000 -0.13761199 -0.07491114 0.014171157 0.020052103 0.014742367 0.02049733 0.0081223212 0.0812608
16100000000 -0.14406568 -0.076379843 0.020523651 0.012257904 0.020868039 0.0115296 0.0081525659 0.078892484
16110000000 -0.15503064 -0.075657077 0.02294453 0.0039773295 0.02301988 0.0037691821 0.010532627 0.071342945
16120000000 -0.15656292 -0.069922015 0.02263329 -0.004531594 0.022751065 -0.0048359078 0.015563248 0.061651696
16130000000 -0.16066596 -0.066303216 0.020450193 -0.01282307 0.02039586 -0.01358255 0.015822954 0.063517563
16140000000 -0.16179226 -0.065587267 0.013596357 -0.019844923 0.012957924 -0.020371912 0.018506031 0.068768874
16150000000 -0.16836031 -0.066548899 0.004084941 -0.023619991 0.0033712161 -0.023621192 0.017897047 0.070218287
16160000000 -0.17392628 -0.066807151 -0.0041835555 -0.023003941 -0.004622309 -0.022726728 0.016605703 0.065814368
16170000000 -0.18417279 -0.067370638 -0.013470244 -0.019295199 -0.013693074 -0.018892562 0.016390137 0.059766922
16180000000 -0.19463408 -0.069910415 -0.01871372 -0.013018996 -0.019056546 -0.012867143 0.019488983 0.053337727
16190000000 -0.204276 -0.068743289 -0.02235439 -0.0051343041 -0.022451419 -0.0041653262 0.022038605 0.05754485
16200000000 -0.21222177 -0.07048475 -0.023641352 0.003613241 -0.023065073 0.0038283011 0.023142604 0.064980514
16210000000 -0.22067961 -0.069315866 -0.019143853 0.012708989 -0.018870726 0.01264368 0.022708802 0.066882767
16220000000 -0.22692341 -0.06658791 -0.013388976 0.018379852 -0.013119015 0.018623084 0.012823691 0.060144328
16230000000 -0.23065312 -0.063440263 -0.0057137413 0.021782534 -0.0054225894 0.021573665 0.0055585816 0.056251802
16240000000 -0.23532201 -0.059520539 0.0034372038 0.023267355 0.0035619736 0.02320081 0.0077526309 0.051511239
16250000000 -0.23717998 -0.057317898 0.011674065 0.019712316 0.011785887 0.019642109 0.013171104 0.05029498
16260000000 -0.24479613 -0.055292428 0.018539747 0.013339158 0.018859643 0.013332861 0.014706337 0.04911213
16270000000 -0.25240475 -0.050742529 0.021433599 0.0057514012 0.021523308 0.0056300419 0.011720184 0.050057672
16280000000 -0.26447326 -0.048130389 0.022111127 -0.002826185 0.02240283 -0.0029702624 0.0075590983 0.051288202
16290000000 -0.2772347 -0.042798646 0.020221751 -0.010646161 0.019982778 -0.011141308 0.0058996435 0.044862911
16300000000 -0.28998014 -0.034264207 0.01339215 -0.018341243 0.01339432 -0.01847264 0.0065285186 0.044024654
16310000000 -0.29488862 -0.026231028 0.0061370134 -0.021458458 0.0058806334 -0.022119068 0.012189345 0.044453833
16320000000 -0.30194342 -0.023291998 -0.0025265659 -0.021454124 -0.0031700721 -0.021691786 0.011192342 0.048944067
16330000000 -0.30411065 -0.019144952 -0.0095657688 -0.020137707 -0.010342159 -0.01994429 0.0080691241 0.055490479
16340000000 -0.30812877 -0.019978315 -0.017448524 -0.014542973 -0.017743044 -0.014199968 0.00061564334 0.056008071
16350000000 -0.31300423 -0.019606717 -0.021721145 -0.0065343506 -0.022138873 -0.0061691632 -0.0030630473 0.049409233
16360000000 -0.32479486 -0.014803469 -0.021602701 0.0022718254 -0.021611188 0.002988853 -0.010766635 0.046500728
16370000000 -0.33052364 -0.0050704796 -0.019662954 0.0098645566 -0.019361813 0.010868504 -0.0062874621 0.049316958
16380000000 -0.3408367 0.0058943965 -0.014697781 0.016519517 -0.013780494 0.016664634 -0.0028770501 0.047860697
16390000000 -0.34262952 0.019680373 -0.0072119697 0.021316653 -0.0068650651 0.020995248 -0.0045743715 0.0492482
16400000000 -0.34915221 0.029019415 0.0011599381 0.021770833 0.0016315905 0.022147549 -0.0079159234 0.046251945
16410000000 -0.3521547 0.037033737 0.0098513179 0.019989084 0.01058862 0.019406777 -0.012766967 0.045028865
16420000000 -0.36175728 0.042875275 0.016119728 0.014924314 0.016451599 0.014068369 -0.0080403164 0.051796179
16430000000 -0.36585739 0.046401747 0.020902634 0.0070969951 0.02044427 0.0068360218 0.00068781152 0.052383568
16440000000 -0.37817633 0.049775932 0.021734055 -0.00047358242 0.021927442 -0.00047018775 -0.001749631 0.056854744
16450000000 -0.38275912 0.056452975 0.020436879 -0.0091033401 0.020409614 -0.0098276762 -0.0038023964 0.060729843
16460000000 -0.39259508 0.06334696 0.015241567 -0.016323395 0.014621658 -0.01674577 -0.017396806 0.060392685
16470000000 -0.39308816 0.072487369 0.0070838835 -0.02063052 0.0068970253 -0.020547286 -0.019858949 0.065210558
16480000000 -0.39924106 0.083227903 -0.00061724801 -0.021782106 -0.00081774406 -0.021903437 -0.012534367 0.062739044
16490000000 -0.39801693 0.093769267 -0.0084924167 -0.020095244 -0.0090174694 -0.02037704 -0.0076867137 0.058468819
16500000000 -0.40257972 0.10579705 -0.016895266 -0.015418654 -0.017593272 -0.014989046 -0.0093707005 0.059564039
16510000000 -0.40081704 0.11428221 -0.020085432 -0.0073132622 -0.020148301 -0.0069599203 -0.011903527 0.065212801
16520000000 -0.40872583 0.12229169 -0.022004183 0.00097220461 -0.0221786 0.0014665856 -0.016136069 0.067302071
16530000000 -0.41481802 0.12917082 -0.019769527 0.0088146357 -0.019582914 0.0093732662 -0.010484152 0.063583612
16540000000 -0.426761 0.13988358 -0.014611662 0.015907357 -0.014338369 0.016488867 -0.0067770574 0.057910617
16550000000 -0.43314654 0.15000008 -0.0078781042 0.020410325 -0.0073652198 0.020646516 -0.0026413705 0.064167656
16560000000 -0.44142103 0.16187786 0.0012797331 0.021723671 0.0018689996 0.021723144 0.0049825106 0.069536775
16570000000 -0.44093314 0.17125526 0.0091607654 0.019927187 0.0096031111 0.019554816 -0.002199417 0.077320978
16580000000 -0.44378355 0.18084159 0.015681207 0.01379973 0.015964214 0.013551189 -0.0033834295 0.081838317
16590000000 -0.44130647 0.18730353 0.019902725 0.0074466248 0.020229485 0.0070166485 -0.0047067013 0.075257041
16600000000 -0.44683239 0.19724858 0.020977575 -0.00038483646 0.020951465 -0.0008952748 -0.0076928642 0.070907772
16610000000 -0.44760481 0.20787936 0.019562742 -0.0096616158 0.019449815 -0.01005312 0.00014408678 0.070656687
16620000000 -0.4546873 0.22265491 0.013677884 -0.015684402 0.013338868 -0.015985221 0.0053267777 0.071630821
16630000000 -0.45588607 0.23898524 0.0065871086 -0.019972868 0.0061385953 -0.020022197 0.0055781584 0.069809899
16640000000 -0.46114969 0.2540859 -0.00070833275 -0.020564385 -0.0009956474 -0.020611523 -0.001298151 0.070913531
16650000000 -0.46379647 0.26757678 -0.0089130159 -0.018988604 -0.0093684383 -0.018888725 0.00023598148 0.073954627
16660000000 -0.47113752 0.28115189 -0.015782921 -0.013731117 -0.016222954 -0.013470611 0.0069931122 0.070036337
16670000000 -0.47524595 0.29275739 -0.019511273 -0.0060439641 -0.019570371 -0.0054484252 0.016428456 0.066418819
16680000000 -0.48207432 0.30742553 -0.020050991 0.0019041356 -0.02027913 0.0018490478 0.017256418 0.063509919
16690000000 -0.48143983 0.32046545 -0.017523386 0.0088743521 -0.017465156 0.0097827213 0.011997845 0.069158122
16700000000 -0.48395342 0.33404115 -0.013420106 0.015052157 -0.012845987 0.015197176 0.012238704 0.07392291
16710000000 -0.48057434 0.34806287 -0.0058871498 0.019173155 -0.0056332168 0.019173339 0.011009993 0.073706403
16720000000 -0.4803938 0.36170471 0.0023927616 0.019628935 0.0026556745 0.019865273 0.014689924 0.069471672
16730000000 -0.47929025 0.37699077 0.0092595257 0.016658768 0.0097223558 0.016573593 0.011870211 0.061097544
16740000000 -0.48259592 0.3974705 0.014941521 0.011755156 0.015336526 0.011330303 0.00643811 0.063838184
16750000000 -0.48071867 0.41845483 0.018191617 0.0051589562 0.018199129 0.0047769947 0.0069083292 0.064950868
16760000000 -0.48013452 0.44019362 0.018407274 -0.0026381891 0.018541621 -0.0029843897 0.0087473895 0.062863335
16770000000 -0.47562617 0.46019095 0.015577091 -0.0090490291 0.01530594 -0.0095700184 0.013774702 0.054996077
16780000000 -0.47179157 0.47746024 0.010824315 -0.014328667 0.010434022 -0.014613518 0.01116294 0.048723266
16790000000 -0.46858871 0.49082997 0.0046602204 -0.017125603 0.004232306 -0.017350597 0.0093802568 0.050203774
16800000000 -0.46750054 0.50704211 -0.0025946519 -0.017339703 -0.0031399201 -0.017364392 0.0066739214 0.056436598
16810000000 -0.46310395 0.52286166 -0.0090665054 -0.01469695 -0.0093345568 -0.014372213 0.0083695538 0.057505265
16820000000 -0.45714751 0.54248434 -0.013421435 -0.010010539 -0.013755695 -0.0097334674 0.0058054384 0.052300923
16830000000 -0.4480187 0.56375861 -0.01641028 -0.0034867902 -0.016623819 -0.0033299234 0.0048418902 0.050033156
16840000000 -0.43639666 0.58500916 -0.015397445 0.0028013266 -0.015510311 0.0035309559 0.0067120222 0.048273228
16850000000 -0.42427725 0.60530597 -0.013489677 0.0080931578 -0.012996321 0.0083817374 0.0086521339 0.052742764
16860000000 -0.41186681 0.62550622 -0.0092438404 0.012888381 -0.008759344 0.012884707 0.0069661587 0.058084764
16870000000 -0.40153015 0.64471036 -0.0028335354 0.015082404 -0.0028312192 0.015099866 0.00091550453 0.05836707
16880000000 -0.3916367 0.66438115 0.0029538556 0.014740473 0.0032844655 0.014790388 -0.0081773838 0.057862181
16890000000 -0.38283619 0.68352759 0.007877198 0.011362514 0.008224586 0.011243619 -0.010576963 0.054907829
16900000000 -0.37077856 0.70009083 0.011182634 0.0081080142 0.011309441 0.007760264 -0.0063897688 0.052139468
16910000000 -0.35985279 0.71539021 0.013739699 0.0029726145 0.013754671 0.002691085 -0.0024735723 0.049593616
16920000000 -0.3468098 0.72992843 0.013277791 -0.002647982 0.013278089 -0.0027357358 -0.0056178235 0.055150881
16930000000 -0.33201417 0.74573344 0.010984776 -0.0074290759 0.011049448 -0.0078034033 -0.0054254443 0.0619803
16940000000 -0.31350785 0.76113975 0.0068398057 -0.010839354 0.0066720718 -0.01091597 -0.0095948549 0.063435331
16950000000 -0.29416698 0.77863443 0.002161603 -0.011851575 0.0019124635 -0.011952568 -0.0084304716 0.058729246
16960000000 -0.27080104 0.79535317 -0.0023063435 -0.011702143 -0.0023818137 -0.011819287 -0.013481392 0.055612728
16970000000 -0.24780473 0.81128466 -0.0066005359 -0.0096623348 -0.0068905517 -0.0098101227 -0.0095145963 0.06181173
16980000000 -0.22560295 0.8251459 -0.0096551282 -0.0062673786 -0.010079619 -0.0060179117 -0.0076156575 0.066745818
16990000000 -0.20576465 0.83935016 -0.011020252 -0.0020099338 -0.010923151 -0.0015826363 -0.0098532774 0.073327035
17000000000 -0.18766038 0.85181874 -0.010544748 0.0024002569 -0.010313212 0.0025170587 -0.0078479657 0.071808934
