!Keysight Technologies,P9374A,MY57211807,A.19.30.04
!Date: Friday, May 01, 2026 14:13:23
!Correction: S11(C  2-Port  ) 
!S21(C  2-Port  ) 
!S12(C  2-Port  ) 
!S22(C  2-Port  ) 
!S2P File: Measurements: S11, S21, S12, S22:
# Hz S  RI   R 50
13000000000 0.036524501 0.086114578 0.010542785 -0.0015926545 0.0095634805 -0.0022589841 -0.020114847 0.18080592
13010000000 0.034473278 0.10300564 0.0083584124 -0.005701236 0.0086225653 -0.0047639199 -0.019942261 0.18364838
13020000000 0.036645729 0.10922188 0.0056749452 -0.0079046413 0.0061464589 -0.0087376414 -0.015655063 0.18013445
13030000000 0.04559749 0.11375973 0.0025891357 -0.010247438 0.0016973068 -0.010930487 -0.01208175 0.17393498
13040000000 0.051641829 0.10860275 -0.0020564329 -0.010243649 -0.0025933846 -0.0094247954 -0.016728407 0.16892228
13050000000 0.06024741 0.099646039 -0.0055171996 -0.0081041511 -0.0053217169 -0.0077762846 -0.023981862 0.17664412
13060000000 0.055563554 0.083926089 -0.0075734197 -0.0055530509 -0.007507226 -0.0062033264 -0.016634714 0.18719523
13070000000 0.047726803 0.078135751 -0.0096436683 -0.0029185442 -0.010180377 -0.0025920756 -0.0067567527 0.17949833
13080000000 0.03457585 0.075475864 -0.010588264 0.0015582324 -0.01072313 0.0021202741 -0.0077630281 0.16678782
13090000000 0.027060993 0.087709725 -0.0090938658 0.0061068488 -0.0084246807 0.0064460943 -0.016743965 0.16704388
13100000000 0.025293477 0.10122102 -0.005248772 0.008594322 -0.0049739135 0.0083014043 -0.016943898 0.1787767
13110000000 0.038232028 0.11567114 -0.0019818333 0.0091377394 -0.0022395179 0.0091168676 -0.0088609345 0.18726563
13120000000 0.050241664 0.11374447 0.001430054 0.01014498 0.0017856453 0.010438568 -0.0044685761 0.18567485
13130000000 0.064462878 0.11064368 0.0058798371 0.0087858718 0.0065562809 0.0086079324 -0.0061547346 0.17747408
13140000000 0.067720301 0.090701871 0.0091574416 0.0056954883 0.0088915937 0.0050203707 -0.013238274 0.17226368
13150000000 0.058595818 0.080848411 0.0096460301 0.0013944926 0.0096408259 0.0015938072 -0.014768153 0.17576587
13160000000 0.044310965 0.074905612 0.0096438024 -0.0015383675 0.0097509734 -0.0018041749 -0.0078174099 0.18152288
13170000000 0.034017168 0.083111666 0.0086392006 -0.0056110052 0.0084394794 -0.0059134178 0.0057248622 0.18306811
13180000000 0.027879277 0.094764255 0.005810855 -0.0085204709 0.0058847424 -0.0083878301 0.0084990636 0.17524093
13190000000 0.039803654 0.11190009 0.0025231233 -0.0097626392 0.0020852392 -0.010017432 0.0013924956 0.1729394
13200000000 0.054345995 0.11411835 -0.0017447294 -0.010585717 -0.0021400172 -0.010271372 -0.0024485886 0.17857619
13210000000 0.074152753 0.10928614 -0.0060084108 -0.0083376765 -0.0059180702 -0.0079843793 0.0042771846 0.18500227
13220000000 0.077404179 0.094622612 -0.0091702752 -0.0050097238 -0.0086714178 -0.0052290065 0.017814986 0.18164191
13230000000 0.07846418 0.08259064 -0.0091655245 -0.0016232114 -0.0097141713 -0.0018691334 0.019571975 0.1703565
13240000000 0.065594092 0.073989183 -0.009608618 0.0018320805 -0.0096245911 0.002654775 0.013298143 0.17264453
13250000000 0.056033887 0.074782826 -0.0082931705 0.0053745583 -0.0075992625 0.0052232398 0.015228773 0.18084934
13260000000 0.045371223 0.083401337 -0.0053301682 0.007960991 -0.0056935837 0.0075691771 0.02325426 0.18275781
13270000000 0.048895404 0.094402693 -0.0026452118 0.010224099 -0.0024307014 0.010598441 0.028818998 0.17734702
13280000000 0.057159439 0.10261495 0.0026702699 0.010352554 0.0025626034 0.010360572 0.027443878 0.17144439
13290000000 0.075339273 0.099859446 0.0068797604 0.0075944038 0.0067453198 0.0075404225 0.027026176 0.16725627
13300000000 0.084033817 0.09043885 0.0071547041 0.0051442203 0.0074240016 0.005179123 0.028280847 0.16356382
13310000000 0.092513949 0.07688725 0.0094746891 0.0024559661 0.009560857 0.0021741926 0.033075105 0.16591591
13320000000 0.088865459 0.063514054 0.01023424 -0.001191279 0.010533854 -0.0014516509 0.047291182 0.16855954
13330000000 0.080620855 0.052880056 0.0084958803 -0.0062143505 0.0080703022 -0.0060171983 0.054806933 0.16223945
13340000000 0.06562952 0.05705934 0.0051822066 -0.0087029217 0.0053729787 -0.0086061303 0.048818566 0.16159116
13350000000 0.062810801 0.065918863 0.0012040082 -0.0083703557 0.0014683066 -0.008799606 0.043667763 0.16319497
13360000000 0.062078357 0.07637807 -0.001128444 -0.0095179807 -0.0018529454 -0.009647375 0.040086597 0.16221479
13370000000 0.072046459 0.082312137 -0.0050254767 -0.0083604753 -0.005362941 -0.0078782085 0.045672566 0.15696292
13380000000 0.086595289 0.083149277 -0.0086435312 -0.005758957 -0.0078823203 -0.0055030058 0.05362682 0.1486837
13390000000 0.098068483 0.066565417 -0.0093812728 -0.0017365925 -0.0098167574 -0.0024551791 0.061857283 0.14478491
13400000000 0.098375283 0.051328629 -0.0094703184 0.0017816239 -0.0098125609 0.002403372 0.064238116 0.13911062
13410000000 0.089914054 0.031030005 -0.0080217831 0.0056401929 -0.0076009799 0.0059666266 0.052792322 0.14093049
13420000000 0.075015202 0.025620846 -0.0050107287 0.0083365403 -0.0048531792 0.0081193307 0.049965486 0.14781527
13430000000 0.060451455 0.030407809 -0.0020780039 0.0089074336 -0.0021660547 0.0086740293 0.056479078 0.14479131
13440000000 0.058603931 0.045324594 0.0010941231 0.0093101766 0.0012566161 0.0097910203 0.065579757 0.12738028
13450000000 0.063451774 0.05552081 0.0051812874 0.0094636921 0.0053462824 0.009129324 0.063497454 0.11714131
13460000000 0.080939636 0.059725933 0.0096580097 0.0051260134 0.0094884746 0.0050156121 0.063821271 0.11858062
13470000000 0.093162812 0.048793208 0.0088253804 0.0010060635 0.0088957781 0.001250104 0.060869373 0.12656012
13480000000 0.098594442 0.029891755 0.0085451007 -0.001762619 0.0088510495 -0.0017555107 0.063037716 0.13246001
13490000000 0.085794635 0.016479574 0.0082634632 -0.0039774408 0.0082308874 -0.0043682819 0.066998906 0.12280338
13500000000 0.072647043 0.0057163127 0.006666115 -0.0079291053 0.0063906065 -0.0079257563 0.059227545 0.1077657
13510000000 0.053282555 0.0068639331 0.002611537 -0.010565451 0.0021980461 -0.010641584 0.052280657 0.10715184
13520000000 0.046134289 0.019913996 -0.0028813952 -0.010042533 -0.0028939748 -0.0097509362 0.059573352 0.11148417
13530000000 0.048418522 0.032791581 -0.0055302801 -0.0073188068 -0.0054751402 -0.007463729 0.065581679 0.10769843
13540000000 0.063339099 0.035819236 -0.0072450023 -0.0046930155 -0.0074809771 -0.0049382919 0.061667599 0.10278684
13550000000 0.074768543 0.031120894 -0.0088223787 -0.0024362919 -0.0091277696 -0.0017006553 0.053651646 0.10041646
13560000000 0.082143798 0.018119257 -0.010269592 0.0011395249 -0.009433439 0.0012420001 0.053186625 0.10145532
13570000000 0.076874718 0.0036075227 -0.0087023629 0.0057717958 -0.0086610988 0.0054608057 0.058614157 0.09620364
13580000000 0.063011631 -0.0030028839 -0.0049157385 0.0084386682 -0.0052338699 0.0086575532 0.059610937 0.09232717
13590000000 0.046709374 0.0005300414 -0.0016262847 0.0087413592 -0.0014568232 0.0089282282 0.057562344 0.092517786
13600000000 0.035167627 0.0090103708 0.0014900933 0.0096457619 0.0017685469 0.0092889694 0.052492477 0.093412817
13610000000 0.032679286 0.023442848 0.0052641816 0.0079178913 0.0050706454 0.0079048127 0.047524478 0.098417565
13620000000 0.042529222 0.031469047 0.0083852792 0.0054256869 0.0084307455 0.0055755442 0.05239499 0.097602144
13630000000 0.049942691 0.027119571 0.0088154087 0.0014892942 0.0090513574 0.0012336124 0.05273325 0.087451056
13640000000 0.058814161 0.020414134 0.0090225227 -0.0014953082 0.0085888244 -0.0013927028 0.047163308 0.085477293
13650000000 0.059960566 0.0039941873 0.0085441163 -0.0045453068 0.0083672218 -0.0046014525 0.045217484 0.087288648
13660000000 0.051302973 -0.0063470704 0.0048822402 -0.0084647061 0.0050849537 -0.0082060294 0.0443145 0.087027714
13670000000 0.038346726 -0.006455468 0.0015990299 -0.0087430952 0.0019419107 -0.0089109028 0.04538396 0.088296346
13680000000 0.031380743 0.0020474046 -0.0020246648 -0.008633282 -0.002260949 -0.0090276645 0.050113931 0.08642865
13690000000 0.026536388 0.016237749 -0.0043985546 -0.007731888 -0.0045259972 -0.0074695707 0.053946007 0.0832396
13700000000 0.035466328 0.027660364 -0.0072835907 -0.0051087746 -0.0069777183 -0.0050266962 0.053710222 0.081578001
13710000000 0.044013478 0.033539459 -0.0092697702 -0.002742995 -0.0092789354 -0.0030005642 0.044653676 0.08300817
13720000000 0.055021349 0.025565872 -0.0089750839 0.002051183 -0.0094729392 0.0017995192 0.041703194 0.095185995
13730000000 0.055444926 0.014667843 -0.0076307976 0.0052353893 -0.0078359796 0.0058070035 0.052777793 0.091732688
13740000000 0.04969167 0.0042380458 -0.0047981357 0.0065722289 -0.004539371 0.0067472048 0.052178632 0.078178182
13750000000 0.036907837 -0.0017520869 -0.0031498729 0.0085842852 -0.0030091978 0.0085313236 0.048729457 0.078610666
13760000000 0.026108637 -0.00047726836 0.0016397827 0.00914774 0.0012837048 0.0097340327 0.050647642 0.080282986
13770000000 0.020693406 0.0098104486 0.0049306038 0.0075460505 0.0057837418 0.0075638713 0.04841087 0.089473277
13780000000 0.027499661 0.020047873 0.007029267 0.0055874055 0.0068938066 0.0049401424 0.058975853 0.091362245
13790000000 0.041184254 0.024698788 0.0089503359 0.0015684131 0.0087466734 0.0021374475 0.057289563 0.074000202
13800000000 0.052461367 0.020408724 0.0077011082 -0.00070848665 0.0086900489 -0.0011127474 0.045452997 0.072495028
13810000000 0.060982298 0.010940833 0.0087194731 -0.0038229749 0.0082867285 -0.0045558251 0.056275673 0.077927195
13820000000 0.059579812 -0.0022280514 0.0056780735 -0.0078570722 0.0052080476 -0.0077797109 0.060021199 0.073473603
13830000000 0.047546573 -0.0089972243 0.0015640082 -0.0089741293 0.0017273056 -0.0085349623 0.061765324 0.08257664
13840000000 0.035129312 -0.0074305106 -0.00096576801 -0.0081316326 -0.0010865466 -0.0088881217 0.069959052 0.076253466
13850000000 0.024449553 -0.00046073413 -0.0039559761 -0.0075907772 -0.004668491 -0.0073469477 0.059329145 0.065153152
13860000000 0.02699363 0.011629401 -0.0068513616 -0.0058554579 -0.0067028231 -0.0054864357 0.050962247 0.065983109
13870000000 0.035440404 0.012432257 -0.008046574 -0.0021442731 -0.00853083 -0.0021831135 0.058222074 0.070192255
13880000000 0.044329796 0.010449792 -0.0091292132 0.0011642956 -0.0090059685 0.001685263 0.071526989 0.065607034
13890000000 0.054823179 -0.00025406294 -0.007168157 0.0042847707 -0.0068929195 0.0040504392 0.072582789 0.057564422
13900000000 0.056302764 -0.015323559 -0.0053971037 0.0060030869 -0.0058603822 0.0065775118 0.066051058 0.05451379
13910000000 0.046911098 -0.027149638 -0.003212865 0.0085518146 -0.0025633448 0.0089610098 0.06059688 0.055070326
13920000000 0.036643419 -0.027198583 0.0016522233 0.0090468181 0.0020513451 0.0085570775 0.061019253 0.053188562
13930000000 0.027891176 -0.022193391 0.0038602464 0.0072342218 0.0036476282 0.0069619222 0.066468455 0.052135531
13940000000 0.021293147 -0.013133746 0.0067566414 0.005836322 0.006688742 0.0059315921 0.07937862 0.043374486
13950000000 0.025369003 -0.0018290761 0.0086437836 0.0022214812 0.0088350726 0.0024948374 0.067653984 0.032301962
13960000000 0.033418104 -0.002595746 0.0075246762 -0.00094378483 0.0080953501 -0.0017621438 0.060050298 0.046587206
13970000000 0.036158171 -0.010369014 0.008496007 -0.0033996953 0.0075390441 -0.0043963408 0.073244534 0.044287734
13980000000 0.038182788 -0.021941647 0.0052201557 -0.0065775001 0.0046554878 -0.0057814321 0.0641727 0.027918532
13990000000 0.031602457 -0.03895437 0.0024262462 -0.0080466103 0.0029559101 -0.0078198425 0.055157416 0.033807673
14000000000 0.015953157 -0.045723535 0.00023323455 -0.0081364969 8.4235333e-05 -0.0084671853 0.067711517 0.035292894
14010000000 0.0062861778 -0.043461252 -0.0044369632 -0.0081264647 -0.0046065552 -0.0080661718 0.064726055 0.019348327
14020000000 0.0014576651 -0.03646506 -0.0065411064 -0.0048573813 -0.0069726813 -0.0046082791 0.050532311 0.022544283
14030000000 0.0038193949 -0.0284964 -0.0075308271 -0.0020041792 -0.0074354829 -0.0015286675 0.052867875 0.026155559
14040000000 0.012375429 -0.021117967 -0.0080595929 -0.00031834864 -0.0075341258 -0.0003250374 0.054710519 0.017306319
14050000000 0.020537868 -0.023375243 -0.0077170953 0.0039949547 -0.0078667114 0.0033064354 0.049833283 0.012878612
14060000000 0.023079298 -0.028912658 -0.0053259209 0.0062194997 -0.0055719423 0.0067211762 0.049202934 0.016230429
14070000000 0.017547676 -0.037706085 -0.0028936143 0.0072171618 -0.0026039402 0.007345458 0.050592527 0.010981421
14080000000 0.0072492603 -0.042794522 0.00052014599 0.0090229996 0.00060453219 0.0088749481 0.038784977 0.0049157655
14090000000 -0.012006974 -0.043062229 0.0035830485 0.0066482397 0.0040514292 0.0066820444 0.032319922 0.0088214669
14100000000 -0.021606926 -0.032508634 0.0049728141 0.0053754165 0.0049971472 0.0049563637 0.038191888 0.0041007083
14110000000 -0.027965713 -0.025502136 0.0077575529 0.0041445307 0.0075026648 0.0040280279 0.038090251 -0.0046395902
14120000000 -0.022713672 -0.019352168 0.0083302315 -0.00055469316 0.0084884614 -0.00051656249 0.033405364 0.00055883918
14130000000 -0.016189342 -0.01890959 0.0074729347 -0.0033820644 0.0075151776 -0.003488224 0.039979376 0.0053607319
14140000000 -0.0073747179 -0.025589583 0.0056104413 -0.0054901685 0.0057692984 -0.0059053139 0.032824602 -0.0049830046
14150000000 -0.010340546 -0.035993908 0.0026426923 -0.0077928272 0.0019203685 -0.0079531241 0.016080415 -0.00010224688
14160000000 -0.014303689 -0.041765604 0.00022471929 -0.0075055091 0.00010031578 -0.0070830127 0.024965677 0.0060113943
14170000000 -0.027450066 -0.040900785 -0.0027089054 -0.007478165 -0.0026212586 -0.0073881974 0.030070968 -0.0080899494
14180000000 -0.036535166 -0.034508776 -0.0056619691 -0.0062283142 -0.005806746 -0.006329637 0.020499904 -0.0067075528
14190000000 -0.043069378 -0.016460918 -0.0073449463 -0.002770857 -0.0072775781 -0.0026808497 0.019591181 0.006642363
14200000000 -0.037441414 -0.0082602054 -0.0085892286 -0.00059317762 -0.0085695116 -0.00067365263 0.020883661 0.0080492385
14210000000 -0.034941889 -0.0032324805 -0.0073824297 0.0034196561 -0.0070397169 0.0037552572 0.010292639 0.0025120466
14220000000 -0.026328539 -0.0076683979 -0.0054287747 0.005250819 -0.0053655412 0.0052146208 0.0021267247 0.0023142993
14230000000 -0.025780249 -0.014883615 -0.0038781459 0.0065891342 -0.0039519826 0.0066355057 0.0033427782 0.0018955157
14240000000 -0.030697145 -0.026916897 -0.00029989937 0.0088570239 -0.00027314737 0.0087822778 0.0093244519 0.0018544353
14250000000 -0.040674083 -0.026984794 0.0029138492 0.0074319402 0.0032255282 0.0072145844 0.012873244 0.00068488112
14260000000 -0.050279621 -0.026116138 0.0055596032 0.005258312 0.0052883145 0.0053734491 0.0067378962 -0.0028994826
14270000000 -0.054795746 -0.011630596 0.0067399065 0.0038873916 0.0072350209 0.0036082591 -0.0092606479 0.0042936625
14280000000 -0.049542211 -0.001504973 0.0080980249 0.00048129406 0.0079477224 0.00053244922 -0.0054682717 0.018581603
14290000000 -0.038492426 0.0095605981 0.0076859146 -0.0031001098 0.0080678677 -0.0034422497 0.012368641 0.010151193
14300000000 -0.031188702 0.0063984618 0.0052558333 -0.0054701269 0.0048904764 -0.0056324978 0.0093916096 -0.011094521
14310000000 -0.023204504 0.0066479435 0.0035494324 -0.00649691 0.0032201177 -0.0064137289 -0.010379709 -0.0059792083
14320000000 -0.027045961 -0.0096400212 0.00084178825 -0.0075902687 0.00095900847 -0.0074985963 -0.010278426 0.017412852
14330000000 -0.036381405 -0.013259666 -0.0023442565 -0.0078038154 -0.0022761119 -0.0083632553 0.0027951049 0.021183927
14340000000 -0.052436713 -0.011528648 -0.005320888 -0.0059797326 -0.0061651152 -0.0058109597 0.0063377717 0.010541348
14350000000 -0.055459943 -0.002655183 -0.006949719 -0.0026739396 -0.0065506636 -0.0024880068 0.00212791 -0.0017003075
14360000000 -0.058702659 0.0056558764 -0.0074331616 -0.00097235834 -0.0076124528 -0.0012308466 -0.0088615678 -0.0030819168
14370000000 -0.046294279 0.016259588 -0.0070814868 0.0021712137 -0.0073032314 0.0024783032 -0.014796242 0.0090290112
14380000000 -0.034956869 0.014653311 -0.0067658038 0.004839621 -0.0067397458 0.0052703936 -0.0028671809 0.024529755
14390000000 -0.019237522 0.0083555151 -0.003336126 0.0072558546 -0.0025494446 0.0072560105 0.01161736 0.01190984
14400000000 -0.019790469 -0.0038398337 0.00015652156 0.0078859814 -0.00014466909 0.0077111339 0.0023232778 -0.00533175
14410000000 -0.024244897 -0.012142012 0.0017159441 0.006253344 0.0018211063 0.0064827283 -0.011983225 0.00024021277
14420000000 -0.040078804 -0.011915255 0.0047093485 0.0059648887 0.0053841798 0.0061110384 -0.008518327 0.01041583
14430000000 -0.048970152 -0.0033464483 0.0058154888 0.0046762531 0.006011846 0.0038191469 -0.0019512171 0.014920197
14440000000 -0.055538028 0.010197004 0.0085910764 0.0010189174 0.0083513111 0.0008535817 0.0023415918 0.01430988
14450000000 -0.050346483 0.019760534 0.0073911287 -0.0025501144 0.0074011814 -0.0026253024 0.0034506349 0.0037978708
14460000000 -0.043266606 0.025485378 0.0052002403 -0.0053350967 0.0052383877 -0.0056628101 -0.0080783544 -0.0079603801
14470000000 -0.027394902 0.014126983 0.0035108053 -0.0059450059 0.0028948928 -0.0060870769 -0.019078132 -0.0023829434
14480000000 -0.02824666 0.0015374636 0.00080105127 -0.0063486835 0.00092601543 -0.0061383657 -0.010808794 0.011343895
14490000000 -0.030071752 -0.012500666 -0.00077316468 -0.0080627846 -0.0011948927 -0.0083448207 0.005087541 0.011242358
14500000000 -0.039083503 -0.019624002 -0.0051647569 -0.0057116644 -0.0054002437 -0.0053948616 0.0067297006 -0.0052518742
14510000000 -0.052248217 -0.018866453 -0.006894575 -0.0031820335 -0.0068899645 -0.0029619248 -0.013446076 -0.014565663
14520000000 -0.060390253 -0.005228078 -0.0059101498 -0.00092131901 -0.0054633692 -0.00054401974 -0.027179167 -0.0044906586
14530000000 -0.056734882 0.0075111631 -0.0072533889 0.0012852931 -0.0072088465 0.00088662445 -0.017329767 0.0073248846
14540000000 -0.049651254 0.018902408 -0.0061835754 0.0035956814 -0.0068494058 0.0038514473 0.0018258992 0.0027808324
14550000000 -0.038565978 0.020752348 -0.0036303652 0.0067156842 -0.0028508883 0.0073026353 0.007216855 -0.014350224
14560000000 -0.031071132 0.013571136 -0.00088866433 0.0065333298 -0.00050062308 0.0061361771 -0.020097865 -0.023821341
14570000000 -0.034288768 -0.003319514 0.0015314836 0.0063175205 0.0010312912 0.0060270214 -0.041753951 -0.00064883108
14580000000 -0.048384629 -0.0112739 0.0036600954 0.0068058991 0.0036500988 0.0073907296 -0.028387409 0.014418768
14590000000 -0.061445985 -0.016154859 0.0061579417 0.0033777594 0.0069785509 0.0035625116 -0.009756105 -0.0039256206
14600000000 -0.0755312 -0.0081945769 0.0073011508 0.00083556352 0.0072927885 -0.00010148552 -0.013827099 -0.028337583
14610000000 -0.080576286 0.0022561289 0.005441241 -0.0013894304 0.0052047372 -0.0013114996 -0.033447947 -0.029255124
14620000000 -0.074264623 0.016452795 0.00511098 -0.0031306294 0.0050293999 -0.0034626643 -0.044173162 -0.0066197207
14630000000 -0.061267775 0.021317942 0.0052303895 -0.0046203267 0.005174303 -0.0041639088 -0.032064762 0.0090712495
14640000000 -0.04947976 0.02104398 0.0014640298 -0.0079590874 0.0017095677 -0.0084624588 -0.024537282 -0.0046685655
14650000000 -0.043661725 0.0089743752 -0.0019422059 -0.0063935951 -0.0029103542 -0.0065713609 -0.035544235 -0.019475751
14660000000 -0.050917372 0.0010779742 -0.0030679174 -0.0047616386 -0.0032352512 -0.0037984643 -0.047706135 -0.020240162
14670000000 -0.06731163 -0.0036903434 -0.0044674454 -0.0045041079 -0.0041664499 -0.0043559591 -0.052044556 -0.012124447
14680000000 -0.079026714 0.0030911565 -0.0063941181 -0.002306215 -0.0061243344 -0.0021499821 -0.049742267 0.00071137398
14690000000 -0.094895273 0.013115305 -0.0076890495 0.00079513178 -0.0076297605 0.00063443137 -0.041722722 -0.00063527934
14700000000 -0.094302893 0.032739185 -0.004985489 0.0040577035 -0.0051091453 0.0038796063 -0.04809377 -0.010366805
14710000000 -0.084980913 0.039379973 -0.0037301173 0.0046100705 -0.003479593 0.004978966 -0.062005054 -0.012170615
14720000000 -0.072133273 0.03928287 -0.0020616876 0.0051074182 -0.0016418367 0.0047416668 -0.065913811 -0.0024489826
14730000000 -0.062765434 0.03269951 -0.00045654643 0.0065612178 -0.00077513652 0.0062371045 -0.057315998 0.0032472517
14740000000 -0.058788728 0.020510856 0.0028650626 0.0065271505 0.0027572622 0.0069354414 -0.054854751 -0.0015514102
14750000000 -0.06857986 0.012749879 0.0054435218 0.0048088524 0.0054088281 0.0046105459 -0.064528063 -0.0018427856
14760000000 -0.07952603 0.017223988 0.0057213125 0.0017544141 0.0055444692 0.0018347611 -0.071117669 0.0054151081
14770000000 -0.091779344 0.027779557 0.0065961881 -0.00015617267 0.0067642638 0.00013730663 -0.069915771 0.010735839
14780000000 -0.092565693 0.04768762 0.0057879407 -0.0020080237 0.0060439245 -0.0023030771 -0.066544808 0.013686258
14790000000 -0.088576801 0.063208237 0.0046701739 -0.0047596949 0.0044519678 -0.0048116073 -0.062640652 0.013665855
14800000000 -0.073116086 0.071432456 0.0035798226 -0.0056781778 0.0035365066 -0.0055700298 -0.068927489 0.0089185275
14810000000 -0.064853318 0.065361902 -0.00032888399 -0.0071916794 2.1594344e-05 -0.0073320535 -0.084845051 0.017835274
14820000000 -0.060332753 0.057028331 -0.0028150484 -0.0062770238 -0.0031316145 -0.0065579331 -0.080180719 0.031162057
14830000000 -0.06384664 0.043476209 -0.0040450618 -0.0035454188 -0.0040596053 -0.003170474 -0.068690382 0.026211519
14840000000 -0.074980438 0.037972622 -0.0050768149 -0.0031328003 -0.0049024322 -0.0030435768 -0.06721212 0.01914341
14850000000 -0.086510427 0.044764385 -0.0061092554 -0.0015019366 -0.0063963807 -0.0018183853 -0.070700273 0.021375911
14860000000 -0.085724719 0.058053009 -0.0072828825 0.002071694 -0.0075993943 0.0024487616 -0.072371736 0.031381041
14870000000 -0.079996556 0.072496653 -0.0049503678 0.0051313741 -0.0048003369 0.0055058431 -0.075652145 0.039279643
14880000000 -0.059615213 0.082812585 -0.0022505058 0.0056686332 -0.0018603975 0.005715223 -0.075816348 0.045412533
14890000000 -0.04544476 0.080308765 -0.000854827 0.0064742696 -0.00072223693 0.0057377107 -0.069094837 0.045830384
14900000000 -0.034014173 0.07352487 0.0016192179 0.0060255048 0.000872317 0.0061917496 -0.061281614 0.03787975
14910000000 -0.037226655 0.063728444 0.0039821602 0.0057552801 0.0044280202 0.0063333642 -0.065455511 0.032511286
14920000000 -0.046199992 0.059416227 0.0061620027 0.00319534 0.0065730521 0.0027031838 -0.072761871 0.043761134
14930000000 -0.059014652 0.061546758 0.0067426674 0.00057100109 0.0063077547 -2.5186222e-05 -0.071402319 0.058799338
14940000000 -0.065441802 0.072047874 0.0061559924 -0.00143332 0.0053272638 -0.00093196786 -0.063820846 0.060196377
14950000000 -0.063716896 0.083155692 0.0055216821 -0.0033278896 0.0063073738 -0.0027278741 -0.058294665 0.051304251
14960000000 -0.051846962 0.089589745 0.0040200623 -0.0064507974 0.004404556 -0.0070685358 -0.058678925 0.038592532
14970000000 -0.035652678 0.085922547 0.00076345622 -0.0069275242 0.00016672548 -0.0072673149 -0.063127644 0.040207211
14980000000 -0.022333648 0.073357448 -0.0018894741 -0.0058157048 -0.001859401 -0.0053690448 -0.061090536 0.054004524
14990000000 -0.019791514 0.055818658 -0.0029735751 -0.0055289385 -0.002746471 -0.00560094 -0.049237262 0.066461869
15000000000 -0.025876503 0.047681175 -0.0054975413 -0.0043744803 -0.0054194164 -0.0048213112 -0.044235189 0.058668219
15010000000 -0.035398461 0.046503462 -0.0077548777 -0.0019381575 -0.0081839534 -0.0019076462 -0.052704897 0.051101085
15020000000 -0.04280743 0.055337533 -0.0070972806 0.0023439093 -0.0072519043 0.0024341333 -0.058221374 0.047969449
15030000000 -0.04257904 0.068060532 -0.0050871177 0.0045907972 -0.0050792983 0.00465055 -0.057592541 0.053095344
15040000000 -0.034228429 0.080070019 -0.0032898502 0.0046124202 -0.0035843742 0.0050339885 -0.044283189 0.057115681
15050000000 -0.021722946 0.078664243 -0.0023572803 0.0065845032 -0.0019330864 0.0067965491 -0.039207552 0.052016344
15060000000 -0.01306284 0.073271252 0.00051726436 0.0078427382 0.00073170144 0.0074794535 -0.048223346 0.049506295
15070000000 -0.0091341101 0.05378627 0.0049890019 0.0063649183 0.0048110178 0.0063902326 -0.054744966 0.051377632
15080000000 -0.020087969 0.040816896 0.0061098458 0.0034778467 0.0063893385 0.0035565549 -0.053807374 0.051046159
15090000000 -0.031890333 0.032748219 0.0063035367 0.000897547 0.0063389409 0.00040953397 -0.045740373 0.046708565
15100000000 -0.04492994 0.037841409 0.0067551406 -0.00046973885 0.0063744164 -0.00037433067 -0.040772144 0.04188345
15110000000 -0.050095897 0.046742741 0.0062288493 -0.003920096 0.0066070175 -0.0041452493 -0.040282499 0.04113986
15120000000 -0.043587644 0.059734453 0.00448649 -0.0059386641 0.0039667767 -0.0062940554 -0.047642581 0.044875149
15130000000 -0.031735163 0.065519169 0.0012204989 -0.0074883741 0.00090162444 -0.0070110671 -0.053747695 0.053040404
15140000000 -0.016355712 0.06419158 -0.0021138701 -0.0065619568 -0.0018185457 -0.006182102 -0.050152935 0.057056088
15150000000 -0.0090822671 0.05015415 -0.0033424711 -0.005271161 -0.0030468623 -0.0057795923 -0.042612959 0.046661649
15160000000 -0.014027367 0.038858898 -0.0056481832 -0.0044610053 -0.0060636811 -0.0043461435 -0.049789637 0.033426773
15170000000 -0.026500884 0.02740409 -0.0071984301 -0.001375171 -0.0072935028 -0.0012478732 -0.063577183 0.038553186
15180000000 -0.046611011 0.031653471 -0.0064437157 0.0013891655 -0.0061648744 0.0015681135 -0.064712353 0.054339401
15190000000 -0.057722766 0.043369837 -0.0058096899 0.0034632476 -0.0059298701 0.0031749143 -0.053791329 0.060115017
15200000000 -0.060490705 0.059817292 -0.004197326 0.0056590401 -0.0043008425 0.0058083278 -0.045945555 0.045659456
15210000000 -0.04997696 0.070087329 -0.0014914877 0.0069223596 -0.0014082657 0.0067872624 -0.057765972 0.032269746
15220000000 -0.033581436 0.073803768 0.0013122088 0.0065163383 0.001237541 0.0068732421 -0.072452508 0.041419752
15230000000 -0.020654866 0.06278304 0.0034747217 0.0053301128 0.0037455799 0.0055295471 -0.067891575 0.059692796
15240000000 -0.014589484 0.049046345 0.0050559808 0.0040091909 0.0052094255 0.0038249111 -0.054797441 0.06399589
15250000000 -0.022627451 0.034770869 0.0064368295 0.0018031634 0.0062783794 0.0019859946 -0.052677203 0.052163076
15260000000 -0.037022281 0.031713784 0.0067742937 -0.00098518655 0.0069589373 -0.00084974396 -0.06664414 0.050134443
15270000000 -0.052739568 0.039173979 0.0053740898 -0.0036478476 0.0058311094 -0.0041212151 -0.070680901 0.061359383
15280000000 -0.059017904 0.059385397 0.0040546749 -0.0046198322 0.0035970174 -0.0048548756 -0.065467998 0.068511426
15290000000 -0.053713251 0.077399105 0.0016194556 -0.0066042049 0.0016210943 -0.0063757813 -0.063097276 0.069543064
15300000000 -0.037808448 0.087855116 -0.00056045759 -0.0063607008 -0.00035439525 -0.0067257453 -0.067156024 0.068513066
15310000000 -0.019250106 0.086688377 -0.0032087984 -0.0053530592 -0.0035361741 -0.0056450292 -0.070292518 0.070280686
15320000000 -0.0079449685 0.069249168 -0.0049857339 -0.0042507537 -0.005605761 -0.0038245572 -0.068569019 0.068850063
15330000000 -0.009234922 0.054280613 -0.0056104846 -0.0017359636 -0.0053118463 -0.0013108896 -0.06626232 0.071261153
15340000000 -0.020432908 0.041564763 -0.0064940844 0.00042619358 -0.0064767697 0.0003635321 -0.057016682 0.078455605
15350000000 -0.034858108 0.042041793 -0.005338842 0.0021950956 -0.0056451168 0.002268251 -0.051974095 0.079089329
15360000000 -0.045628376 0.052403897 -0.0045996616 0.0050139902 -0.0044477023 0.0055139009 -0.059965219 0.082912333
15370000000 -0.041513264 0.069501698 -0.0020475886 0.0060105473 -0.0014244141 0.0060378588 -0.064065278 0.093333133
15380000000 -0.030927397 0.081841454 0.00062617776 0.0059749382 0.00054300518 0.0054522431 -0.057481587 0.094557367
15390000000 -0.010941386 0.085681811 0.0018904731 0.0053805294 0.0014196007 0.0056770658 -0.049810201 0.086528227
15400000000 0.0039645415 0.077388957 0.0044461507 0.0043582148 0.0049654511 0.0046492354 -0.051474728 0.082044326
15410000000 0.01431783 0.060884293 0.0057038418 0.0028269356 0.0061330856 0.0021546641 -0.05268164 0.090771012
15420000000 0.006224365 0.043914113 0.0062324652 0.00029396778 0.0054921014 -7.122336e-05 -0.047908276 0.10007852
15430000000 -0.0026848726 0.037318297 0.006105843 -0.0021989348 0.006155055 -0.0013662507 -0.043446817 0.098761842
15440000000 -0.019270059 0.036988132 0.0044849725 -0.0045433287 0.0052889306 -0.0047900868 -0.04342024 0.093885429
15450000000 -0.024008382 0.050116848 0.0025913643 -0.0054904772 0.0019837697 -0.0061328951 -0.041658238 0.089243628
15460000000 -0.019424798 0.059966285 0.00034515024 -0.0060469499 5.9920247e-05 -0.0056837159 -0.036338393 0.09074951
15470000000 -0.0043813996 0.067698106 -0.0017945818 -0.0057105524 -0.0016669588 -0.0055533806 -0.028615559 0.095820569
15480000000 0.010289688 0.0632388 -0.0037726462 -0.0048875795 -0.0037148418 -0.0051336261 -0.022248691 0.098434374
15490000000 0.025781225 0.051266585 -0.0055037644 -0.0031871048 -0.0060476288 -0.0031773162 -0.024160948 0.09923774
15500000000 0.024792872 0.032064334 -0.0066819219 -0.0006903538 -0.0065986346 -0.00012793508 -0.027814645 0.10050693
15510000000 0.019925116 0.018755147 -0.0059994976 0.0022339933 -0.0056014014 0.0022956752 -0.025187638 0.10160099
15520000000 0.0017474047 0.014059292 -0.0046677394 0.0037183207 -0.004870086 0.0036379397 -0.015083617 0.096766457
15530000000 -0.0052717193 0.019089058 -0.0033718979 0.0051095434 -0.0033689698 0.0054511246 -0.016040543 0.086662017
15540000000 -0.014748694 0.027753079 -0.001253119 0.0071687596 -0.00064452965 0.0071210996 -0.02342057 0.093031675
15550000000 -0.0049697431 0.037968993 0.0023266354 0.0058092037 0.0022419479 0.0055759316 -0.01839203 0.10055152
15560000000 0.0036269771 0.038330995 0.0038919947 0.0045061982 0.0038658953 0.0046638651 -0.01026329 0.096403494
15570000000 0.019486994 0.029121131 0.0043879207 0.0037164611 0.00465137 0.0036593629 -0.0063152723 0.086776778
15580000000 0.020444352 0.013823356 0.0070382105 0.0014978384 0.0072819376 0.001138889 -0.0081756562 0.07876274
15590000000 0.022044756 -0.0044565257 0.0068701198 -0.001714366 0.0066877836 -0.0020429604 -0.013041066 0.083743863
15600000000 0.0055642258 -0.013560932 0.0042297291 -0.0045015272 0.0039606323 -0.0047230613 -0.010266919 0.091866709
15610000000 -0.0044323681 -0.015533702 0.0034827935 -0.0044181258 0.0032550436 -0.0042649671 -0.0046978602 0.092011087
15620000000 -0.016276482 -0.0054593915 0.0015387571 -0.0059625446 0.001677861 -0.0060600261 0.0010768082 0.084494248
15630000000 -0.013080573 0.0012654522 -0.0013523671 -0.0072156885 -0.0015027047 -0.0075390809 -0.0018569324 0.071132831
15640000000 -0.010470028 0.010816394 -0.0042495765 -0.0049001314 -0.0046885088 -0.0044501252 -0.012348883 0.071544349
15650000000 0.0045563825 0.0045676888 -0.0054542436 -0.0028332663 -0.0051771943 -0.0026280642 -0.010571752 0.085026965
15660000000 0.0048107468 -0.0038731485 -0.0052821538 -0.0013453385 -0.005054601 -0.0011599921 0.00065258145 0.08654853
15670000000 0.00084568001 -0.022415126 -0.0072341259 0.00012831949 -0.0065872269 0.00057078479 0.0012558401 0.073592611
15680000000 -0.0089290142 -0.029599706 -0.0063866279 0.0041389428 -0.0062894356 0.003401889 -0.0070581986 0.063425712
15690000000 -0.026816666 -0.037588939 -0.0027214875 0.006596399 -0.0032281035 0.0063723703 -0.010733133 0.064367577
15700000000 -0.035191774 -0.02434478 -0.00038032141 0.0052555604 -0.00055385381 0.0061279214 -0.0065585449 0.069760099
15710000000 -0.037632708 -0.02105481 0.00038807304 0.0057550408 0.00099782087 0.0057875263 0.0025259331 0.07485
15720000000 -0.031279806 -0.012031939 0.0029917881 0.0060268501 0.0031861663 0.0057438719 0.0014346801 0.073160455
15730000000 -0.022672575 -0.016341951 0.0061643925 0.0034823874 0.0059745861 0.0035086535 -0.0044949874 0.069965534
15740000000 -0.013335209 -0.021701008 0.0054839412 0.00054961839 0.0060060536 0.00082560541 -0.01355366 0.064748868
15750000000 -0.018270001 -0.037281044 0.0053477488 -0.00011681768 0.0059163854 -0.00096789387 -0.015404045 0.067970686
15760000000 -0.024592042 -0.04333837 0.0061250012 -0.0030728285 0.0054343594 -0.0036632577 -0.0043248087 0.067455158
15770000000 -0.043951258 -0.050123125 0.0032263286 -0.0051029772 0.0030385135 -0.0048811855 -0.0012495834 0.064643994
15780000000 -0.054870345 -0.038855892 0.0015742017 -0.0054850476 0.0016610897 -0.0056348341 -0.0065344982 0.067709342
15790000000 -0.066610053 -0.02935835 -0.00048769056 -0.0061732382 -0.00076014479 -0.0065167593 -0.013096841 0.07125558
15800000000 -0.058252759 -0.016314853 -0.0027472561 -0.0055696112 -0.003561249 -0.0053287423 -0.016951311 0.069925614
15810000000 -0.055156104 -0.017860776 -0.0051547578 -0.0038803837 -0.0051673888 -0.0033160546 -0.016169934 0.065350227
15820000000 -0.040271394 -0.022431757 -0.0055622398 -0.0016372667 -0.0054174289 -0.0013298856 -0.010991212 0.063041843
15830000000 -0.042569011 -0.041921146 -0.0056261015 0.00011941267 -0.0052833026 0.00017786375 -0.0054098498 0.063622959
15840000000 -0.047309503 -0.053410556 -0.0058816662 0.0021616342 -0.0060321474 0.0022146704 -0.0082962643 0.065663666
15850000000 -0.067020334 -0.061306596 -0.0045279912 0.0047287508 -0.0045820638 0.004909385 -0.016388105 0.075961605
15860000000 -0.074794278 -0.054128796 -0.0020364285 0.0067697531 -0.0015633081 0.0069113299 -0.013190366 0.082050011
15870000000 -0.08947286 -0.045282442 0.001164292 0.0060167843 0.0015474487 0.0056579011 -0.0087572988 0.072163887
15880000000 -0.080316469 -0.024263928 0.0025498685 0.0046920432 0.0022978599 0.0042493963 -0.012685005 0.063861176
15890000000 -0.072131358 -0.019028062 0.0042669252 0.0040964158 0.0038671663 0.0045849816 -0.015047685 0.067254618
15900000000 -0.056101404 -0.021628836 0.0053019174 0.0024810974 0.0058152671 0.0027376369 -0.013832949 0.076643586
15910000000 -0.054557145 -0.034466662 0.006907911 -0.00032885233 0.0069587608 -0.00065988023 -0.0070864856 0.082412884
15920000000 -0.056366965 -0.052800983 0.0054309578 -0.0033273448 0.0050995257 -0.0036074419 -0.0025587603 0.077712849
15930000000 -0.080284335 -0.063613571 0.0035128307 -0.0042543826 0.0031328325 -0.0041339649 -0.0058421325 0.072178781
15940000000 -0.093530364 -0.062361307 0.0017007682 -0.0049043666 0.0022918012 -0.0043337108 -0.010465877 0.073524877
15950000000 -0.11421274 -0.054407574 0.0005804635 -0.0059295297 0.0010403916 -0.0065102414 -0.0090421736 0.082008846
15960000000 -0.11208023 -0.038167756 -0.0021959506 -0.0059077591 -0.0025770173 -0.0062831645 -0.0039823283 0.087026522
15970000000 -0.10494539 -0.028151274 -0.0048406539 -0.0040798099 -0.0050541423 -0.0040529035 -0.00041181222 0.08407928
15980000000 -0.082676195 -0.028535074 -0.0050755613 -0.0021203773 -0.0053131259 -0.0017962988 -0.0034344662 0.076804787
15990000000 -0.074184522 -0.044625081 -0.0057941694 -6.4760447e-05 -0.005573567 -0.00025092624 -0.006111376 0.075790957
16000000000 -0.070744269 -0.061899718 -0.0055056103 0.0018198369 -0.0061013 0.001682916 -0.002720613 0.078727514
16010000000 -0.08901605 -0.078877702 -0.0040669795 0.0043664663 -0.0043729497 0.004869468 0.0012051649 0.080568619
16020000000 -0.10629034 -0.080179736 -0.0021796818 0.0051137512 -0.0019864314 0.0053936983 0.0028813835 0.083496965
16030000000 -0.1311475 -0.071492307 -0.00018644443 0.0052923053 0.00024519765 0.0053441888 0.0045651272 0.08095029
16040000000 -0.13708839 -0.050808687 0.0014864209 0.0056100884 0.0014257231 0.0057940423 0.0058094766 0.074717104
16050000000 -0.13719873 -0.038317699 0.0034201751 0.0044966629 0.0038066846 0.0043943673 0.0070443396 0.069042265
16060000000 -0.12114391 -0.032368932 0.005345609 0.0029775449 0.0056679123 0.0028530131 0.008473523 0.071573898
16070000000 -0.11184589 -0.046165995 0.0059660198 0.00045442232 0.0060323891 -6.6094566e-05 0.016306538 0.080531947
16080000000 -0.10870889 -0.065305725 0.0060496503 -0.0020552408 0.0058169123 -0.0021563792 0.020534625 0.080947138
16090000000 -0.12305752 -0.084436901 0.0040766215 -0.0035143653 0.0039154729 -0.0037103058 0.013175508 0.077044435
16100000000 -0.13811451 -0.09433274 0.0028343617 -0.0053105443 0.002488811 -0.0052578365 0.005501789 0.075549372
16110000000 -0.16466361 -0.092556737 0.00084176823 -0.0056777103 0.00067643099 -0.0054186415 0.0071967766 0.072417036
16120000000 -0.17455053 -0.075445198 -0.0018960941 -0.005716322 -0.0016811157 -0.0055932095 0.015222475 0.06848079
16130000000 -0.1789977 -0.058665927 -0.0033977539 -0.0045813741 -0.0033447689 -0.004789188 0.022336418 0.065571718
16140000000 -0.16999085 -0.047536779 -0.0049348236 -0.0029429432 -0.0051260768 -0.0025159365 0.021081353 0.064861603
16150000000 -0.16191402 -0.04547916 -0.0061697722 -0.0010893926 -0.0056333155 -0.00094832975 0.015698571 0.06685625
16160000000 -0.15357204 -0.057138667 -0.0057870578 0.0012794062 -0.005460572 0.00080346642 0.010290821 0.065605633
16170000000 -0.16407996 -0.074648201 -0.0055199214 0.0042244024 -0.0056173205 0.004040671 0.014175059 0.065639809
16180000000 -0.18366119 -0.088070542 -0.0020814226 0.0053723049 -0.0021887315 0.0052865734 0.02682236 0.057414275
16190000000 -0.20964926 -0.08970917 -0.00043042703 0.0052049197 -0.00058328547 0.0051695444 0.02749791 0.048540942
16200000000 -0.22906603 -0.081314191 0.00021862122 0.0051900148 0.00016181846 0.0052436516 0.016949238 0.055522971
16210000000 -0.24090095 -0.065343589 0.0035121557 0.0055561839 0.0034999852 0.0053670956 0.012798324 0.0705176
16220000000 -0.23808168 -0.050231941 0.0051889434 0.0033126308 0.0051787696 0.0034603486 0.016291486 0.071336433
16230000000 -0.22757338 -0.04309357 0.0056954403 0.00034609437 0.0057467953 0.00050160708 0.019748658 0.057442736
16240000000 -0.21805289 -0.048293661 0.0055179102 -0.00075581105 0.0055858339 -0.00054732169 0.014352296 0.040756643
16250000000 -0.22004351 -0.060033359 0.0048423097 -0.0030859895 0.0049414625 -0.0029864111 0.0054674 0.041609772
16260000000 -0.23284927 -0.068547986 0.0038850778 -0.0049274871 0.0042354469 -0.0051826886 0.0045300536 0.054710984
16270000000 -0.25295097 -0.068338439 0.00084121386 -0.0058060731 0.00041777547 -0.006005282 0.011748284 0.063198656
16280000000 -0.27642828 -0.059596501 -0.0012518071 -0.0058087925 -0.0010575727 -0.0055683944 0.019049888 0.055092942
16290000000 -0.29299104 -0.043560483 -0.0024946206 -0.0043689399 -0.0024226722 -0.0045916624 0.013553955 0.036624473
16300000000 -0.30060491 -0.024305532 -0.0048837122 -0.0040671788 -0.0051056384 -0.004254783 -0.0011398951 0.032189839
16310000000 -0.29692337 -0.013202272 -0.0056466474 -0.001926036 -0.0061088987 -0.0017155476 -0.0019331658 0.05011443
16320000000 -0.29435006 -0.012058303 -0.0066142594 0.001581586 -0.0061646057 0.0021342286 0.014064696 0.059735518
16330000000 -0.29166478 -0.01644811 -0.0045195785 0.0031383203 -0.0041754744 0.0026200248 0.018339753 0.05417173
16340000000 -0.29673561 -0.024901748 -0.0030147447 0.0041277101 -0.0036048512 0.0042186063 0.0058576316 0.044479974
16350000000 -0.30783167 -0.031209491 -0.0028914516 0.0057487516 -0.0026334086 0.0062773405 -0.011872245 0.043456838
16360000000 -0.32863107 -0.026694044 0.0012202007 0.0063322568 0.0017332665 0.0062073106 -0.014291126 0.054065198
16370000000 -0.34230426 -0.010922601 0.0033562887 0.0053906688 0.0033115235 0.00498542 0.00017410028 0.055113453
16380000000 -0.35151142 0.0097571313 0.0045243045 0.0031785595 0.0040092026 0.003173935 0.004656652 0.046383221
16390000000 -0.34985337 0.027525738 0.0053199362 0.0015299182 0.0056408867 0.0018244868 -0.0049880305 0.0426993
16400000000 -0.34817582 0.042334989 0.0061077876 0.00021593319 0.0059813834 -0.00011939416 -0.014521854 0.047491238
16410000000 -0.34254497 0.043257073 0.0055943215 -0.0033997619 0.0053548459 -0.0031149818 -0.012944978 0.053124815
16420000000 -0.34979901 0.042204738 0.0036952654 -0.0048812428 0.0039289016 -0.0047277743 -0.0026580561 0.053031426
16430000000 -0.3580645 0.035958543 0.0011383775 -0.0059039243 0.001380421 -0.0060234643 0.00082834437 0.048190724
16440000000 -0.37957495 0.038404241 -0.0006825389 -0.0054814303 -0.0006956358 -0.0055617769 -0.0054303813 0.053709298
16450000000 -0.39321527 0.048002083 -0.0025504774 -0.0053161941 -0.0023997391 -0.0053473399 -0.0086101908 0.061689757
16460000000 -0.40396485 0.066727027 -0.0047798585 -0.0037241802 -0.0046180086 -0.0041108783 -0.014327545 0.062610954
16470000000 -0.40057057 0.081313714 -0.0054755383 -0.0017960758 -0.0058278758 -0.0018861569 -0.017209472 0.062079135
16480000000 -0.39756799 0.095620856 -0.0059767365 0.00029569981 -0.0063370736 0.00052156416 -0.011411997 0.062320836
16490000000 -0.388556 0.10141796 -0.0053586168 0.0031688039 -0.0051331348 0.0032001007 -0.0051480141 0.058035728
16500000000 -0.38894317 0.10423777 -0.0038701356 0.0046698777 -0.0040365956 0.0047085909 -0.0071560601 0.058531579
16510000000 -0.39499989 0.10320072 -0.0013869727 0.0052647511 -0.0017397698 0.0056133219 -0.01444814 0.063593224
16520000000 -0.41002291 0.11188431 0.00034032931 0.0062138913 0.0009117666 0.0065778005 -0.017573033 0.071714349
16530000000 -0.42388433 0.122033 0.0027739129 0.0054880362 0.0029755426 0.0050176908 -0.0074133407 0.069017701
16540000000 -0.43710473 0.1412417 0.005309131 0.0036153491 0.0050259833 0.0034709782 -0.0019281935 0.058079161
16550000000 -0.44023883 0.1578019 0.0053612143 0.0013210096 0.0053221253 0.0015571878 -0.0016650688 0.059926707
16560000000 -0.43972352 0.17198938 0.0054432973 -0.00062883715 0.0058453288 -0.00070410012 -0.00021476671 0.068279542
16570000000 -0.43360686 0.17721117 0.0054978225 -0.0019178434 0.0056060422 -0.0023696688 -0.0055018105 0.078091644
16580000000 -0.43353158 0.18069927 0.00416954 -0.0050448123 0.0036646549 -0.0051312535 -0.0043998216 0.085913472
16590000000 -0.43568164 0.17980489 0.0018662735 -0.0063099451 0.0016544975 -0.0061009973 0.0014248881 0.075851649
16600000000 -0.44714901 0.1877293 -0.0017416668 -0.0057748165 -0.001396721 -0.0055640396 -0.0028168522 0.064306661
16610000000 -0.45502043 0.20204347 -0.0031765692 -0.004553624 -0.0031962651 -0.0049039922 -0.004188247 0.065182671
16620000000 -0.46252972 0.2232434 -0.0038153711 -0.0032009762 -0.0045019649 -0.0029900875 -0.0011483207 0.074606255
16630000000 -0.46309894 0.24336939 -0.0057007549 -0.0021340954 -0.0052974182 -0.0016117697 0.0080894381 0.079835519
16640000000 -0.46325791 0.2632919 -0.0061545442 0.0001709268 -0.0056992061 -0.00022342388 0.0099060815 0.072152585
16650000000 -0.45888463 0.27532077 -0.0055081761 0.0035509798 -0.0060202479 0.0032513549 0.0041818884 0.065256089
16660000000 -0.46122172 0.28290638 -0.0029631953 0.0051982645 -0.003255568 0.0056970376 0.0019845143 0.066521131
16670000000 -0.46768969 0.28791052 -0.00060305919 0.005063958 -0.00010595983 0.0053291628 0.0091969706 0.07039585
16680000000 -0.47792205 0.29845417 0.00019838824 0.0053819353 0.00078351318 0.0051909955 0.017014207 0.07324364
16690000000 -0.48696798 0.31066254 0.0027720472 0.0049332273 0.0026883502 0.004687075 0.020145243 0.071086556
16700000000 -0.49265176 0.33116895 0.0051689292 0.00335999 0.0051349737 0.0036123446 0.014626523 0.067512177
16710000000 -0.48988804 0.3515757 0.0052032084 0.00054953771 0.0054755094 0.00051520875 0.0064673452 0.067006201
16720000000 -0.48507994 0.37099642 0.0050056549 -0.0010585601 0.0053635924 -0.0014385867 0.006309554 0.071339533
16730000000 -0.47684783 0.38865525 0.0042037778 -0.0026947721 0.0037932862 -0.0034123124 0.014023699 0.071034789
16740000000 -0.47069898 0.40219706 0.0029190383 -0.0042147855 0.0022524935 -0.0040079057 0.016938645 0.0627326
16750000000 -0.47132966 0.41401193 0.0013855307 -0.0052015437 0.0014779672 -0.0046873977 0.010866212 0.057054903
16760000000 -0.47478807 0.43055797 -0.0011834304 -0.0050439574 -0.00090507488 -0.0053859791 0.0059736166 0.056232162
16770000000 -0.47933596 0.44921339 -0.0032934269 -0.0042662835 -0.0037906682 -0.0044033518 0.0056797955 0.056973856
16780000000 -0.48165196 0.47218245 -0.0043964013 -0.0019462539 -0.0046431134 -0.0014878809 0.011140559 0.058337416
16790000000 -0.4790445 0.49480739 -0.0042876373 -0.00061659544 -0.0039675981 -0.00037301844 0.015093135 0.056750488
16800000000 -0.47093311 0.51552969 -0.0041408646 0.00079793844 -0.0038361554 0.00074985519 0.014511932 0.055209178
16810000000 -0.46052045 0.53291756 -0.0039246818 0.0024751597 -0.0039230105 0.0023276322 0.0080516227 0.052799627
16820000000 -0.44778138 0.54725063 -0.0024267887 0.0039603049 -0.0025525242 0.0040051476 0.0013127401 0.049657729
16830000000 -0.43918669 0.56126523 -0.00077459041 0.0045211948 -0.00063059828 0.0047110347 -0.00081497431 0.052136205
16840000000 -0.43204287 0.57668042 0.0014018763 0.0040569827 0.0015767391 0.0040029706 0.0071080457 0.053626772
16850000000 -0.42701519 0.59809029 0.0025705467 0.0030789461 0.0024096482 0.0029910011 0.012586514 0.052846316
16860000000 -0.41860604 0.62116611 0.0031684788 0.002002015 0.0031355664 0.0021616998 0.0089359609 0.053296696
16870000000 -0.40911597 0.64724207 0.0039878194 0.00073495414 0.0042543747 0.00070592645 -0.0018204669 0.055340681
16880000000 -0.39498451 0.66995257 0.0036013643 -0.00070973125 0.0036693513 -0.00088915089 -0.011142767 0.059497815
16890000000 -0.38107312 0.68936431 0.0032054184 -0.0022149789 0.0032208511 -0.0023263008 -0.0082378723 0.060425136
16900000000 -0.36647809 0.70245731 0.0020252233 -0.0032885377 0.0018886027 -0.0033530316 0.00051967986 0.052399021
16910000000 -0.35493743 0.71540427 0.00041204155 -0.0036527622 0.00022297725 -0.0036426666 -3.6798418e-05 0.04698272
16920000000 -0.34300214 0.72578424 -0.00077497691 -0.0031716337 -0.00077212718 -0.0032583107 -0.0057220347 0.053007193
16930000000 -0.3323648 0.74161643 -0.0018042166 -0.0028806499 -0.0020521733 -0.0029371004 -0.011079897 0.064072393
16940000000 -0.31662285 0.75861526 -0.0025727265 -0.002015936 -0.0027752607 -0.0017688544 -0.0078457361 0.068683557
16950000000 -0.29707736 0.77935338 -0.0035186522 -0.00069283089 -0.0035206731 -0.00067287241 -0.0082354546 0.058910552
16960000000 -0.27348197 0.79729694 -0.0031776282 0.00091052998 -0.0031088106 0.00098119909 -0.013308158 0.056220394
16970000000 -0.24832278 0.81523198 -0.0025393597 0.0017808301 -0.0023829839 0.0019139887 -0.012451028 0.062628664
16980000000 -0.22355595 0.82727826 -0.0016524662 0.0024647508 -0.0014655504 0.0024405494 -0.0065039042 0.069618165
16990000000 -0.20317596 0.83970177 -0.00046755321 0.0028884998 -0.00044410629 0.0027834582 -0.003891265 0.071449012
17000000000 -0.18567792 0.85029083 0.00039043312 0.0028907829 0.00039132423 0.0029101076 -0.0067183683 0.064525075
