!Keysight Technologies,P9374A,MY57211807,A.19.30.04
!Date: Friday, May 01, 2026 14:14:38
!Correction: S11(C  2-Port  ) 
!S21(C  2-Port  ) 
!S12(C  2-Port  ) 
!S22(C  2-Port  ) 
!S2P File: Measurements: S11, S21, S12, S22:
# Hz S  RI   R 50
13000000000 0.037184279 0.096043311 -0.0024755062 -0.0022717561 -0.0021458406 -0.0023470614 -0.026359275 0.17949547
13010000000 0.041316487 0.10759494 -0.0023174728 -0.0020893412 -0.0019713452 -0.0013958169 -0.024141692 0.19180343
13020000000 0.044341605 0.10956079 -0.0047287368 0.00060590799 -0.0057952637 0.0005190745 -0.011674955 0.18866596
13030000000 0.053110883 0.10922396 -0.0029828981 0.001341144 -0.0032086566 0.0011868255 -0.0033111274 0.17993426
13040000000 0.054839477 0.099668689 -0.002173583 0.0027995661 -0.0022495175 0.0015820593 -0.0044826437 0.15991826
13050000000 0.056511607 0.09054926 -0.0021073318 0.0029045162 -0.00057252077 0.0024077017 -0.033244096 0.15764725
13060000000 0.045780204 0.079008281 0.00014474802 0.0041965432 0.00071701384 0.0052928077 -0.037851412 0.18774226
13070000000 0.035468478 0.080827631 0.0016549636 0.0038889858 0.0017745562 0.0043489947 -0.017200269 0.19713742
13080000000 0.027757205 0.087647974 0.0028384901 0.0017351931 0.0026473196 0.0031004394 0.0056370646 0.18803054
13090000000 0.030811004 0.10023829 0.0029221871 0.0012699459 0.002942502 0.00035704044 0.0084782839 0.15766034
13100000000 0.036602311 0.10900183 0.003072422 0.00054515828 0.0042904723 -0.00054163567 -0.020539708 0.15795618
13110000000 0.052590031 0.11383969 0.0046057408 -0.0015268337 0.0043542134 -0.0011085717 -0.02659962 0.18532093
13120000000 0.060536075 0.1027042 0.0024495269 -0.0032394046 0.0034383468 -0.0025336538 -0.014985847 0.19562244
13130000000 0.061715789 0.093551457 0.0012245362 -0.0039665122 0.00065709074 -0.0032759935 -0.0050933398 0.19229573
13140000000 0.054247666 0.081650652 -0.0004445684 -0.0038490181 -0.0014340613 -0.0044945874 0.00097253174 0.17496879
13150000000 0.042781752 0.082831018 -0.0020736873 -0.0031959498 -0.0026480344 -0.00381547 -0.009879224 0.16362083
13160000000 0.033431493 0.087871149 -0.0019636939 -0.0019387872 -0.0020997152 -0.0021952635 -0.014285058 0.17739812
13170000000 0.035412837 0.10067496 -0.0033080154 -0.0016143082 -0.0023354874 -0.0011723627 -0.0026000142 0.18550906
13180000000 0.042085297 0.10601659 -0.0040074494 -0.00025719567 -0.0043371134 0.0010328473 0.0068361238 0.18355605
13190000000 0.056858845 0.10998112 -0.0040178169 0.0019573821 -0.0049735392 0.0026096916 0.0043152571 0.17763458
13200000000 0.067086615 0.10207331 -0.0018231745 0.0038829695 -0.0032463311 0.0043112771 0.00096629933 0.17952606
13210000000 0.073674873 0.091313161 -0.00015807746 0.0028195763 -0.00075291522 0.0018560158 0.0070242882 0.18127668
13220000000 0.065999582 0.081660986 -0.00071258366 0.0028734314 -0.00040950411 0.0016087237 0.01675202 0.1774576
13230000000 0.06068226 0.080059096 0.00097761268 0.0038166847 0.001448669 0.0035829139 0.017298065 0.16885649
13240000000 0.050427224 0.084831849 0.0037300545 0.0028790059 0.0042435024 0.0029409854 0.0087441392 0.17415427
13250000000 0.05258951 0.093552157 0.0043029226 0.00063500582 0.0048956047 0.00082827132 0.013878386 0.18634805
13260000000 0.056287974 0.099859722 0.0032324106 -0.0014852585 0.0033345493 -0.0016860886 0.0273556 0.18554501
13270000000 0.067090496 0.097338393 0.0025506369 -0.00097201642 0.0022965448 -0.002180028 0.028054941 0.176036
13280000000 0.07340043 0.093320429 0.002229458 -0.0020956891 0.0017907304 -0.0025008647 0.029325999 0.17187169
13290000000 0.079893574 0.082350701 0.0017938036 -0.00385224 0.0026449168 -0.0035802734 0.026347809 0.16351473
13300000000 0.076716587 0.073532976 -0.0010211673 -0.0037879273 0.00028516771 -0.0035445485 0.026358388 0.16472352
13310000000 0.073343791 0.069516465 -0.0013348995 -0.0025060687 -0.001798121 -0.0025769128 0.03622146 0.16643091
13320000000 0.072230339 0.071407482 -0.0019056757 -0.002252744 -0.0029392173 -0.0012363355 0.044840589 0.16544111
13330000000 0.071286812 0.069021218 -0.0032804329 -0.0018348551 -0.0037885653 -0.00094215287 0.047298431 0.16860197
13340000000 0.071952462 0.076791242 -0.0040478371 0.00017475209 -0.0027659461 -0.00089294661 0.053024687 0.16753469
13350000000 0.079329617 0.074442536 -0.0029889958 0.0021583294 -0.0037809003 0.0011689251 0.046354719 0.16227019
13360000000 0.08050447 0.07264328 -0.0020483141 0.0025566004 -0.0018356637 0.0031932802 0.045791976 0.15929544
13370000000 0.082674153 0.066311695 -0.0012685625 0.0030642338 -0.00027212722 0.003815433 0.042083979 0.14825933
13380000000 0.083818495 0.063366376 -2.080464e-05 0.0032273675 0.00018467003 0.0025419055 0.044019032 0.15053581
13390000000 0.081913918 0.054657027 0.0009563202 0.0037226884 -6.0037113e-05 0.0037002747 0.054240916 0.15557227
13400000000 0.07976336 0.054181024 0.0026078792 0.0026840803 0.0027645254 0.0034514312 0.074409187 0.15207379
13410000000 0.077621795 0.046512797 0.0035968577 0.0012744338 0.0045763813 0.0011377123 0.067945346 0.1319585
13420000000 0.079050191 0.04491996 0.0029215156 0.0003384751 0.0037151915 0.00033259601 0.044324875 0.12993744
13430000000 0.074316613 0.041511446 0.0040039201 -0.0008411553 0.0044014147 -0.00071307842 0.038530707 0.14081721
13440000000 0.077763617 0.042216599 0.0030297698 -0.0030003041 0.0024016586 -0.0019402232 0.056328233 0.14379488
13450000000 0.072366975 0.042311795 0.0014174703 -0.0037292053 0.0013157265 -0.0023911663 0.071115866 0.12791054
13460000000 0.08024738 0.042795833 -1.6831153e-05 -0.0034606021 -0.00057060225 -0.0048322151 0.075408027 0.12154775
13470000000 0.079391345 0.0380679 -0.0011661724 -0.0034956208 -0.0025987646 -0.0034655833 0.068003431 0.11788097
13480000000 0.083538972 0.03311963 -0.0021491421 -0.0027875407 -0.0027375836 -0.0020649945 0.060552116 0.11857564
13490000000 0.077646598 0.026979385 -0.0038030157 -0.0013626599 -0.0028112412 -0.0014903164 0.050185319 0.11934867
13500000000 0.074229687 0.017939392 -0.0038658329 -0.00044436438 -0.0037550805 -0.00049783883 0.051667549 0.11886302
13510000000 0.062898524 0.016308062 -0.003498707 0.0013527488 -0.0038431152 0.0023457282 0.059852887 0.11795648
13520000000 0.058689784 0.018678296 -0.003434513 0.0019934578 -0.00275601 0.0028451297 0.069519088 0.10987718
13530000000 0.056536589 0.022551319 -0.0021089066 0.0039486084 -0.0019122033 0.0038733208 0.068186067 0.099664979
13540000000 0.061928868 0.024773292 0.00013448473 0.0046977801 -0.00023449643 0.004347981 0.05928611 0.098803356
13550000000 0.065658391 0.025133442 0.0019279161 0.0035421499 0.0022076797 0.0031783713 0.047621779 0.097905353
13560000000 0.073368639 0.018634761 0.0022830497 0.0027604706 0.0026838968 0.0024548736 0.044923585 0.10683431
13570000000 0.071219243 0.01100472 0.0037105121 0.0019552142 0.004348489 0.0013501439 0.059711032 0.1050031
13580000000 0.06286566 0.0054180743 0.0042405557 0.00027348095 0.0044917986 0.00060752849 0.067453705 0.094743326
13590000000 0.052529939 0.0062540174 0.0042682565 -0.0020840839 0.0036827582 -0.0016402915 0.06421186 0.084304295
13600000000 0.043033972 0.0088589489 0.0030053789 -0.002451322 0.0034086322 -0.0020365382 0.04697457 0.086116388
13610000000 0.038056403 0.017369434 0.0020855991 -0.0036824676 0.0019096255 -0.0035331808 0.040199108 0.097898327
13620000000 0.042674594 0.023632176 0.00021908502 -0.0047921916 0.00094106095 -0.0056894189 0.046910793 0.10090791
13630000000 0.045358364 0.022289049 -0.0020110521 -0.0037750138 -0.0025921219 -0.0038856412 0.04926772 0.097690761
13640000000 0.051697865 0.019014614 -0.0027024401 -0.0028279321 -0.002298943 -0.0032797572 0.058119088 0.089075193
13650000000 0.054948438 0.0076342509 -0.0041270871 -0.0018591625 -0.0035834485 -0.0025555333 0.048586152 0.077552609
13660000000 0.047960542 0.0012724784 -0.0050382689 -0.0003832292 -0.0049179825 0.00014427154 0.043486509 0.082813986
13670000000 0.043459188 0.0017870655 -0.0038553311 0.0024451411 -0.0033518951 0.0025627902 0.041127756 0.08446499
13680000000 0.03945861 0.0034564175 -0.002943977 0.0033501466 -0.0032097399 0.0030227364 0.043634839 0.088446319
13690000000 0.033762433 0.012037253 -0.00078721764 0.0034800577 -0.0015503449 0.00360802 0.051806435 0.090147279
13700000000 0.037907962 0.019618358 -0.001034705 0.0044449549 -0.00067170407 0.0054412638 0.055996176 0.085369319
13710000000 0.04227712 0.025201157 0.0015594263 0.0043243049 0.002145068 0.0044004992 0.051873617 0.085685164
13720000000 0.045774829 0.021180265 0.0040599699 0.0030749289 0.0041624666 0.0026531364 0.045127258 0.083582819
13730000000 0.044983961 0.017794345 0.0036123889 0.0010585357 0.0037472399 0.00090661668 0.041978538 0.088793524
13740000000 0.04318928 0.013937788 0.0043544271 0.00035222585 0.0047626146 0.0008081093 0.049602702 0.084923871
13750000000 0.040114857 0.0098193418 0.0042059273 -0.0014727071 0.0049665063 -0.0017116114 0.051312424 0.08285518
13760000000 0.03693305 0.007955051 0.0032168531 -0.0036556588 0.0028605713 -0.0037104771 0.05521952 0.082650349
13770000000 0.035845309 0.0054154927 0.0016734442 -0.0040850341 0.0016399547 -0.0044226144 0.052275978 0.08302331
13780000000 0.033164248 0.0080806753 -0.00044854439 -0.0045716036 -0.00090865779 -0.0045139892 0.049435936 0.084398061
13790000000 0.040123843 0.010633822 -0.001817381 -0.0043628244 -0.0023553004 -0.004605846 0.049807802 0.08475893
13800000000 0.039556161 0.0099756066 -0.0034687344 -0.0027142616 -0.0044248747 -0.0024848711 0.057742991 0.077935547
13810000000 0.04433712 0.013100238 -0.0040905606 -0.0010059699 -0.0035973657 -0.0011232023 0.057690471 0.0680779
13820000000 0.047205113 0.012324011 -0.0043764506 -0.0006394732 -0.003763628 2.1285843e-05 0.051976606 0.072039314
13830000000 0.051319361 0.0091786757 -0.0045373025 0.0018782156 -0.0049297875 0.0015043933 0.055984531 0.087230347
13840000000 0.04842779 0.0047812555 -0.0033565429 0.0033470276 -0.0027778714 0.0033117621 0.073632747 0.086200356
13850000000 0.044605032 -0.0013766428 -0.0012534661 0.0049012406 -0.0011764978 0.0054415031 0.070877738 0.062424183
13860000000 0.040648643 -0.0032627159 0.00053342531 0.0047657387 0.00037681608 0.0045172716 0.05068621 0.05264736
13870000000 0.034838703 -0.0076595386 0.0025687276 0.0038052318 0.0030062364 0.0029928859 0.043832522 0.062526055
13880000000 0.030097384 -0.0041166889 0.0035108672 0.0031901484 0.0023576 0.0036277827 0.060176224 0.075919613
13890000000 0.03412956 -0.0023162598 0.0041537094 0.0011402722 0.0034380003 0.0015549542 0.082138985 0.070003912
13900000000 0.038673211 -0.00063901022 0.0048029581 -0.00029628584 0.0062093199 -0.0010083483 0.076915465 0.051740546
13910000000 0.045822687 -0.004004566 0.004143476 -0.0021835398 0.0035051093 -0.0024817307 0.057303712 0.045515109
13920000000 0.050373159 -0.0097427191 0.0028918891 -0.004164245 0.0020492261 -0.0037725572 0.053976376 0.053310622
13930000000 0.049705029 -0.019831069 0.00093566556 -0.0043141702 0.0012764684 -0.0040159863 0.064623043 0.051240064
13940000000 0.039205525 -0.024706477 -0.0012314555 -0.0043503763 -0.00061702932 -0.0049632955 0.076060742 0.04227367
13950000000 0.030945115 -0.025687914 -0.0016394259 -0.0040938286 -0.0024033438 -0.0044198744 0.063460864 0.03986752
13960000000 0.019093793 -0.022238366 -0.0036473456 -0.0027896785 -0.0044860286 -0.002618992 0.066585869 0.049268387
13970000000 0.013807867 -0.014379166 -0.0047483477 -0.001258341 -0.0035944302 -0.001185476 0.072643794 0.040541738
13980000000 0.018510532 -0.010748887 -0.0043702805 0.0014958684 -0.004477988 0.00072666793 0.065366857 0.028267302
13990000000 0.025084589 -0.016042864 -0.0034123966 0.002584809 -0.0045201331 0.0023074229 0.056420773 0.028114973
14000000000 0.02675079 -0.025682546 -0.0017312415 0.0036998957 -0.0019386931 0.0047301278 0.05252159 0.032068908
14010000000 0.028017761 -0.036461607 -0.00088057562 0.0035913154 0.00058235356 0.0036528802 0.056932971 0.037925541
14020000000 0.020142265 -0.046993881 0.00037370692 0.0041441303 0.00029368757 0.0042186049 0.069209591 0.028033851
14030000000 0.012098467 -0.046567306 0.0023326871 0.0042448463 0.0012502291 0.0037136041 0.062559105 0.0094561297
14040000000 0.0050814133 -0.040954888 0.0036912507 0.0017046246 0.0032632058 0.0024223516 0.044247262 0.0066533573
14050000000 0.0018392988 -0.03151558 0.003583011 0.0013562468 0.0045284405 0.00099532516 0.037534621 0.018099658
14060000000 0.0047374452 -0.022529028 0.0047132913 -0.00023387605 0.003861513 -0.00088123081 0.043356799 0.02468152
14070000000 0.0093414616 -0.021800004 0.0036007308 -0.0029075574 0.0025026656 -0.0025818148 0.05400683 0.018433612
14080000000 0.0096062403 -0.025861591 0.0017525774 -0.0033207128 0.0021034514 -0.0033210735 0.052013762 0.0043080235
14090000000 0.0034253402 -0.031141719 0.0011756797 -0.0026925816 0.0014956658 -0.0036129015 0.038060885 -0.0065462356
14100000000 -0.0052549383 -0.036860574 -0.00039342104 -0.0044383351 -0.00015732553 -0.0045340569 0.021921383 -0.00048808008
14110000000 -0.017741259 -0.036664356 -0.0021743332 -0.0038478512 -0.0029656789 -0.0027415203 0.031613208 0.0093928436
14120000000 -0.022900106 -0.035087727 -0.0034742749 -0.0021170729 -0.0033007199 -0.0019010585 0.043854412 0.0031936802
14130000000 -0.025356188 -0.029868349 -0.00369046 -0.0011187562 -0.0026205832 -0.0014318514 0.038766939 -0.0054337066
14140000000 -0.022804966 -0.028978737 -0.003524815 0.0010231799 -0.0039245049 0.00069880683 0.024334989 -0.0011116219
14150000000 -0.022360813 -0.025541611 -0.0034299619 0.0013468838 -0.0040503615 0.0021379825 0.018512854 0.0059711142
14160000000 -0.016692158 -0.029385226 -0.0024945701 0.0030240221 -0.002042149 0.0030962517 0.026554754 0.0015645484
14170000000 -0.021281261 -0.029147558 -0.0019781566 0.003713808 -0.0015231567 0.0029997712 0.027915895 -0.010933008
14180000000 -0.024599912 -0.028531911 0.0012307614 0.0039857943 0.00021311687 0.0036285045 0.018255115 -0.0084783016
14190000000 -0.030241504 -0.021227555 0.0014186467 0.0032558506 0.002527023 0.0035431725 0.01422971 0.0085651381
14200000000 -0.031818643 -0.02079808 0.0029890023 0.0022376145 0.0031652704 0.0015588598 0.022221325 0.016334983
14210000000 -0.038352307 -0.01343732 0.0038050772 0.0016734952 0.0024651028 0.0016341375 0.018426217 0.0013868404
14220000000 -0.034065988 -0.015691122 0.0039276304 -0.00072199455 0.003190452 -0.00016329922 0.00087255466 -0.0068214005
14230000000 -0.038798034 -0.014224252 0.0036775845 -0.001519718 0.0040289592 -0.0021928004 -0.0064040753 -0.0025278726
14240000000 -0.039643649 -0.018070484 0.0020204675 -0.0027319293 0.0016926373 -0.003128632 0.0051714773 0.0087284548
14250000000 -0.041336406 -0.013431625 0.0013272307 -0.0037930342 0.00093834684 -0.0035287496 0.018406108 0.0044359909
14260000000 -0.041929767 -0.015974117 -6.2619685e-05 -0.003676095 0.00022488472 -0.0030520721 0.0071656182 -0.0035659398
14270000000 -0.040765207 -0.0085428562 -0.0012688283 -0.0034499327 -0.0013469101 -0.0033127542 -0.0091378829 0.0049816463
14280000000 -0.037676893 -0.011690639 -0.0029616831 -0.0030415293 -0.0035095471 -0.0032904607 -0.006511935 0.013596034
14290000000 -0.037030462 -0.0032247957 -0.0039940709 -0.0018660873 -0.0037180746 -0.0016279242 0.0036825978 0.0053847614
14300000000 -0.03700427 -0.0058528194 -0.0035765446 0.00092418375 -0.0028124158 0.0011686843 0.0060960413 -0.0028578022
14310000000 -0.037575167 0.001791778 -0.0037965151 0.0013045745 -0.0036326894 0.0014186858 -0.00040823279 -0.0021887533
14320000000 -0.040214524 -0.0038065221 -0.0024758449 0.0026769054 -0.0031594576 0.0021829631 -0.0067587895 0.0089042559
14330000000 -0.042864386 0.0026989542 -0.001805482 0.0035870736 -0.0020100824 0.0034104097 -0.0046235058 0.018477801
14340000000 -0.043937188 0.0025804173 -5.4527656e-05 0.0041710325 8.0229715e-05 0.0043745013 -0.001195967 0.012165807
14350000000 -0.041329961 0.0034438986 0.0020672199 0.0041111954 0.0026627353 0.0040714727 -0.00098464626 0.0044037448
14360000000 -0.042498577 -0.00016082524 0.0025117078 0.0020094588 0.0023028036 0.0020105389 -0.0052065146 0.00042811132
14370000000 -0.038929816 0.0002109101 0.0031593242 0.0009814821 0.0023815734 0.0015976767 -0.006403259 0.0079049999
14380000000 -0.041273419 -0.0032685623 0.0030875234 0.0014835629 0.0033856742 0.00080978335 -0.00081230188 0.011752965
14390000000 -0.038045615 0.002148848 0.0053011933 -0.0013455612 0.0056404695 -0.0016603626 -0.0028659503 0.0071744928
14400000000 -0.036333691 0.003803445 0.003327426 -0.0037559094 0.0039444654 -0.0034294941 -0.0067350008 0.0085277464
14410000000 -0.032186031 0.0045994343 7.789128e-05 -0.0039574807 0.00045417249 -0.0033891678 -0.0039119502 0.0082654348
14420000000 -0.033438094 0.006841125 0.00032215461 -0.0023977838 0.00026675561 -0.0029960941 0.0004439028 0.0055995476
14430000000 -0.030718891 0.0048010778 0.00014892295 -0.0041798591 -0.00011572025 -0.0043090666 -0.0057139769 0.0045978464
14440000000 -0.035645962 0.0032042246 -0.0032434962 -0.0045018401 -0.003734326 -0.0044943755 -0.0062535992 0.014496742
14450000000 -0.041775212 0.0015879106 -0.0046219332 -0.0011128783 -0.004690899 -0.0014227433 -0.00064737117 0.0090554766
14460000000 -0.048710011 0.0043224189 -0.0037719905 0.00039319694 -0.0030504002 -2.0975363e-05 -0.0063162553 -0.0044319723
14470000000 -0.048171289 0.0047219712 -0.0027471972 0.0010280996 -0.0034722053 0.0018900286 -0.016230291 -0.0045704269
14480000000 -0.04728058 0.0092261638 -0.0041317693 0.0016898337 -0.0040632607 0.0030924752 -0.011704398 0.008878082
14490000000 -0.03892497 0.004972579 -0.0026221331 0.0044174045 -0.0023870124 0.0038826773 0.0035657813 0.012242277
14500000000 -0.034491152 -0.00016051059 0.00031458685 0.0050833789 -7.6296325e-05 0.0051867911 0.0088428035 0.00046072423
14510000000 -0.035304777 -0.0069134957 0.0016957695 0.0037217874 0.0018962588 0.0034489457 -0.009276893 -0.021485392
14520000000 -0.038381979 -0.0096985353 0.0023842801 0.0027923458 0.0024423113 0.002436623 -0.039072417 -0.011813611
14530000000 -0.046077907 -0.011088083 0.0040327478 0.0026854281 0.0048038345 0.0016769156 -0.029210931 0.015747061
14540000000 -0.05315759 -0.00059183128 0.0044908216 0.0004237711 0.0046036965 0.00041048299 0.0065015587 0.014046316
14550000000 -0.053873327 0.0076907668 0.0051827896 -0.0022042545 0.0039741793 -0.0023771869 0.022781314 -0.012382577
14560000000 -0.051935766 0.014371092 0.0018318226 -0.0035627426 0.0019084086 -0.0033939073 -0.012190842 -0.039819501
14570000000 -0.048283748 0.011930823 0.0015993391 -0.003255551 0.0026566754 -0.0037079852 -0.054342125 -0.013399041
14580000000 -0.046838842 0.0097280368 0.0015877327 -0.0033844688 0.00038309296 -0.0040035709 -0.047786705 0.017487001
14590000000 -0.047850408 -0.0022235122 -0.0010661298 -0.0055618291 -0.0016633221 -0.0049242792 -0.015201439 0.018112969
14600000000 -0.05564855 -0.0067095105 -0.0042043193 -0.004281221 -0.003192981 -0.0036505717 0.0078238938 -0.02075183
14610000000 -0.064819604 -0.011142541 -0.0054553403 -0.00054389518 -0.004271552 -0.00090844883 -0.022113267 -0.043233827
14620000000 -0.072137311 -0.0022628903 -0.0035167052 0.0010208416 -0.0042176815 0.0007976148 -0.04793334 -0.022130838
14630000000 -0.072881386 0.0056486316 -0.002545279 0.00097644806 -0.0028012278 0.0020324991 -0.049633417 0.0040741451
14640000000 -0.065690354 0.017297219 -0.0042554094 0.0014353632 -0.0033216462 0.001857406 -0.036215231 0.0095870979
14650000000 -0.059964959 0.015407285 -0.0030820386 0.0047290344 -0.0034330487 0.0040209587 -0.028832275 -0.0092080086
14660000000 -0.058562156 0.018033979 0.00020636083 0.005890701 -6.67735e-06 0.0056837494 -0.04155637 -0.020151101
14670000000 -0.060849704 0.013010604 0.0031501104 0.0040281634 0.0040931203 0.0038029123 -0.045341365 -0.013832206
14680000000 -0.063078634 0.013087273 0.0033942943 0.001338308 0.0033308507 0.001573202 -0.045211006 -0.010862717
14690000000 -0.076584809 0.0085522812 0.0019705924 0.0016173737 0.0019096578 0.0014148217 -0.052575354 -0.012199145
14700000000 -0.083329901 0.019020032 0.0043788413 0.0021032416 0.0045848205 0.0016247937 -0.063375041 -0.0078892205
14710000000 -0.085935816 0.020083601 0.0058298274 -0.0012421684 0.0059289448 -0.00079442665 -0.0701515 0.00094456482
14720000000 -0.085547693 0.027777292 0.0040746992 -0.0052119186 0.0046341782 -0.005287095 -0.056796908 0.013781701
14730000000 -0.080428906 0.029288914 0.00073515042 -0.0048576286 -0.00018503168 -0.0047011301 -0.03647621 3.4285709e-05
14740000000 -0.074879393 0.032417715 -0.001124779 -0.0037585257 -0.001086218 -0.0038070041 -0.047473103 -0.025674351
14750000000 -0.073981106 0.030490877 -0.0013354861 -0.0026676292 -0.0011256342 -0.0021960398 -0.08601734 -0.018605759
14760000000 -0.069726296 0.036413282 -0.0025006207 -0.0034870673 -0.0027400572 -0.0033914277 -0.095380343 0.016015068
14770000000 -0.072558224 0.03326096 -0.0034260557 -0.0031084337 -0.0035539141 -0.0030931633 -0.071941271 0.035953168
14780000000 -0.073273025 0.041691944 -0.0055640782 -0.00059053162 -0.004718544 -8.8935689e-05 -0.043731082 0.025966974
14790000000 -0.077426374 0.041701235 -0.005156552 0.0028273105 -0.0047278735 0.0031013736 -0.044071186 -0.004730681
14800000000 -0.079931267 0.050135601 -0.0018447052 0.0043160692 -0.0023147066 0.0048786383 -0.078377277 -0.012416216
14810000000 -0.08550787 0.052328013 -0.0010779549 0.0032016214 -0.0012499667 0.0032749511 -0.10470567 0.012065757
14820000000 -0.083219893 0.063602634 -0.00060710451 0.0037787477 -1.8871739e-05 0.0030835122 -0.09561871 0.046008632
14830000000 -0.077486753 0.062276609 0.0012105391 0.004921346 0.0014583679 0.0050995029 -0.064448059 0.044413723
14840000000 -0.071985222 0.064053714 0.0036456576 0.0036821035 0.0034915567 0.0042385096 -0.051796589 0.024133947
14850000000 -0.065487981 0.060141563 0.0047330242 0.0014790548 0.0055032419 0.0012754569 -0.060216103 0.0087491116
14860000000 -0.059758954 0.056238499 0.0048555918 -0.00025989721 0.004576297 -0.00061370619 -0.080394328 0.018147089
14870000000 -0.062984861 0.05058597 0.00312753 -0.0021978293 0.0032757428 -0.0011793785 -0.087321952 0.037166402
14880000000 -0.061679065 0.057684962 0.0030286564 -0.0029578104 0.0033211131 -0.0031903505 -0.084668398 0.052085053
14890000000 -0.065418653 0.060527056 0.0022375265 -0.0037216675 0.0010553921 -0.004164651 -0.067218296 0.054665472
14900000000 -0.062473327 0.075899206 -0.00046518818 -0.0051289708 0.00045090937 -0.0048420974 -0.057370439 0.042062744
14910000000 -0.054960784 0.083648503 -0.001997825 -0.0037094967 -0.001305236 -0.0035910383 -0.058419559 0.03555923
14920000000 -0.04571094 0.086206622 -0.0028588327 -0.0025201363 -0.0030395475 -0.0026650366 -0.064720735 0.035957936
14930000000 -0.039724231 0.080733433 -0.0035298788 -0.002638347 -0.0037916128 -0.0024410961 -0.073875658 0.048695669
14940000000 -0.037921909 0.073686063 -0.0053565037 -0.00023981743 -0.0049671265 9.1128983e-05 -0.076355077 0.05366642
14950000000 -0.042714484 0.063490354 -0.0046185292 0.0028995201 -0.0041488339 0.0038644907 -0.075204454 0.059075687
14960000000 -0.051130965 0.062090479 -0.002023126 0.0035132635 -0.001722204 0.0044356473 -0.057534419 0.062262297
14970000000 -0.053561524 0.066021204 -0.00083373027 0.0030176756 -0.0019946429 0.0032519863 -0.03680753 0.046708286
14980000000 -0.04999065 0.071097903 -0.0016018528 0.0040212129 -0.0016344273 0.0034370883 -0.04571531 0.030973829
14990000000 -0.039428338 0.07420668 0.001407702 0.005612459 0.0016895004 0.0053410428 -0.064644523 0.042863835
15000000000 -0.029273981 0.073803253 0.0048346445 0.0038957479 0.0056356741 0.0037162816 -0.071693912 0.063337311
15010000000 -0.018683726 0.06612207 0.0051680673 -0.00027155504 0.004635727 -0.00097535097 -0.058387991 0.073138356
15020000000 -0.018422948 0.059136063 0.003133192 -0.0010680642 0.0032912712 -0.0019132782 -0.040919881 0.061046604
15030000000 -0.02168851 0.053546779 0.0030808197 -0.00032701099 0.003692911 -0.00020532962 -0.037406519 0.042597063
15040000000 -0.030366164 0.054960605 0.0040787915 -0.0030866021 0.0051564071 -0.0024372055 -0.045816191 0.037378497
15050000000 -0.034665819 0.059504531 0.0021674037 -0.0051301187 0.0020610709 -0.0047534616 -0.05573393 0.048023123
15060000000 -0.035352796 0.068237044 -0.0015440005 -0.0051128259 -0.0023496724 -0.005531772 -0.055447314 0.057425015
15070000000 -0.028094871 0.064048208 -0.0022627846 -0.0033706776 -0.0028388288 -0.0034612829 -0.055907447 0.055772305
15080000000 -0.029235529 0.06121508 -0.0040271264 -0.0021641306 -0.0032369464 -0.0022230817 -0.052599523 0.054719441
15090000000 -0.023213413 0.05456939 -0.0034320459 -0.00092404359 -0.0031798598 -0.0012240979 -0.04065387 0.048795003
15100000000 -0.025823815 0.046075143 -0.0040666349 0.00084700668 -0.0055345157 0.00049439608 -0.032666482 0.038887206
15110000000 -0.029790021 0.040807575 -0.0036378456 0.0017171709 -0.0033996818 0.0017205707 -0.038858384 0.029048098
15120000000 -0.033962205 0.042745814 -0.0027325335 0.0034920932 -0.0022110543 0.0027617463 -0.060050141 0.035661209
15130000000 -0.0326996 0.045977682 -0.00066387281 0.004219878 -0.00077283895 0.0041426825 -0.068673372 0.059906743
15140000000 -0.032284059 0.050194763 0.0010326679 0.0036973977 0.00038759026 0.0048552128 -0.050713912 0.071064174
15150000000 -0.02855356 0.049915731 0.002031801 0.0031938243 0.0022179447 0.0034677808 -0.030364955 0.055109665
15160000000 -0.03080287 0.050894119 0.0028574686 0.0020340418 0.0027826992 0.0014489519 -0.035549913 0.024558697
15170000000 -0.031204332 0.04926946 0.0033395789 0.0011313675 0.0036693742 0.001215827 -0.065449111 0.018884113
15180000000 -0.035414495 0.050962418 0.004310275 -0.00063361315 0.0044480674 -0.00045575533 -0.082331195 0.049114544
15190000000 -0.035359509 0.050724421 0.0027130484 -0.0021481041 0.0026906601 -0.0021757723 -0.067425154 0.066375308
15200000000 -0.040075164 0.050210457 0.0019470848 -0.0025865017 0.0018987551 -0.0040744697 -0.048621897 0.064082175
15210000000 -0.039471142 0.051029898 0.0012855057 -0.0031584222 0.00083261752 -0.0034707095 -0.039291229 0.041498356
15220000000 -0.037998505 0.049454685 -0.0007560777 -0.004073143 -8.10239e-06 -0.003480772 -0.060530283 0.026704047
15230000000 -0.041102357 0.047945712 -0.0019088255 -0.0028658195 -0.0023236775 -0.0031554084 -0.07321243 0.046072543
15240000000 -0.041624606 0.050879106 -0.002816896 -0.0018747288 -0.0038549625 -0.00088339829 -0.066373274 0.058094397
15250000000 -0.040914349 0.055857223 -0.0029168166 -0.00082829187 -0.002953067 -0.0003862468 -0.067087747 0.058883063
15260000000 -0.037784845 0.059435897 -0.0025390945 0.00010659994 -0.0026054902 -0.00034643314 -0.066589326 0.06920851
15270000000 -0.032302871 0.06208346 -0.0034461026 0.00018376613 -0.0030639714 0.00070432585 -0.05288342 0.066480011
15280000000 -0.028492918 0.060010187 -0.0030195701 0.0032403171 -0.0026202726 0.0033270114 -0.055935249 0.055189162
15290000000 -0.029527387 0.060106251 -0.00055215915 0.0039233998 -0.00078663882 0.0038824268 -0.068815544 0.057099473
15300000000 -0.032557007 0.055969417 0.0015958729 0.0025526264 0.0016730092 0.0016031906 -0.077768274 0.064706847
15310000000 -0.03669652 0.060569622 0.00065309065 0.0019737533 0.00080796273 0.0013781148 -0.080066673 0.077647507
15320000000 -0.040140223 0.061518263 0.00072447688 0.0022295921 0.0005599893 0.0022157498 -0.065823466 0.082201168
15330000000 -0.037362661 0.071613975 0.0036959343 0.0028527353 0.0040885196 0.0026751743 -0.053730965 0.075013623
15340000000 -0.029247982 0.071415596 0.0043022428 -0.0004683244 0.0040786369 -0.00095729827 -0.047733542 0.071909651
15350000000 -0.020920051 0.071118638 0.002639062 -0.0024156042 0.0021999709 -0.0019905572 -0.051613338 0.067185059
15360000000 -0.016070282 0.063575283 0.00098437606 -0.0017957157 0.0015562634 -0.0016677931 -0.069003694 0.076189712
15370000000 -0.011982696 0.059159286 0.0015201011 -0.0015102951 0.001790481 -0.0018258976 -0.075980932 0.09687791
15380000000 -0.01783875 0.053345904 0.0012662031 -0.0028988768 0.0013930459 -0.0024866746 -0.058751848 0.10838183
15390000000 -0.01901844 0.056935541 -0.0010035203 -0.003972399 -0.00081266952 -0.003903318 -0.036950663 0.09360081
15400000000 -0.021815786 0.060531929 -0.0029938647 -0.002316749 -0.0026116248 -0.0026842416 -0.037644934 0.070957497
15410000000 -0.015946634 0.067964315 -0.0026476139 -0.00027340633 -0.0025929715 -6.8853202e-05 -0.059603896 0.073764607
15420000000 -0.0085660107 0.067856193 -0.0019641696 -0.00012519269 -0.0018149215 -0.00025404774 -0.065796666 0.10055998
15430000000 0.0012628213 0.062965855 -0.0025231205 0.00026505569 -0.002921731 6.6962326e-05 -0.045105953 0.11399486
15440000000 -0.0014858674 0.054994915 -0.0024268311 0.0015986941 -0.0033192951 0.0018077698 -0.032677114 0.095788524
15450000000 0.0025280435 0.051116545 -0.0019455749 0.0019487966 -0.001564648 0.0025429041 -0.035500072 0.08104156
15460000000 -0.00021880772 0.044455245 -0.00078153552 0.0031108193 -0.00049420283 0.0027387659 -0.041760642 0.085510463
15470000000 -0.0012796751 0.043323684 0.00096889789 0.0033008864 0.00077001436 0.0032268185 -0.031048249 0.096231177
15480000000 -0.0012595225 0.043639377 0.0017799097 0.0021018013 0.0019485882 0.0029235922 -0.023028357 0.098944537
15490000000 0.0033198288 0.043727942 0.0023898915 0.0015146609 0.003247058 0.0014379405 -0.02674628 0.096309774
15500000000 0.0051021874 0.041540895 0.0021318309 0.00064865622 0.0027267849 6.4636231e-05 -0.032080214 0.10170101
15510000000 0.009564477 0.037006885 0.003577495 0.0002657139 0.0027907752 0.0004274206 -0.024496578 0.10704069
15520000000 0.0065720156 0.035106897 0.0026068985 -0.0013353889 0.0035739471 -0.00077757949 -0.0073765703 0.095767252
15530000000 0.0090718865 0.031480845 0.0022658717 -0.0030373672 0.0022524428 -0.0038384085 -0.014149997 0.079954647
15540000000 0.0067317151 0.029029692 0.00042258826 -0.0023298406 -0.0006636522 -0.0030153219 -0.027187211 0.085977785
15550000000 0.01072293 0.024086693 2.473942e-05 -0.003592469 -0.00051143847 -0.00219644 -0.027818905 0.099706642
15560000000 0.0079083033 0.019017864 -0.0016100138 -0.0030765566 0.00012288045 -0.0031898911 -0.014033638 0.10733542
15570000000 0.0093428297 0.010307046 -0.0029611071 -0.0013016342 -0.0030973807 -0.0023122523 0.0041430667 0.093540169
15580000000 0.0017192852 0.0052005285 -0.0022719069 -0.0014906109 -0.003374469 -0.00058822485 0.00053506345 0.071845964
15590000000 -0.0017428707 0.0027233739 -0.0030852528 0.00022500474 -0.0027503527 0.0013838228 -0.016011531 0.073129043
15600000000 -0.0041708378 0.0090280557 -0.0039307671 0.00092266849 -0.0030451508 0.00083795981 -0.023825102 0.088071458
15610000000 0.0021451965 0.007211362 -0.0019145403 0.0035716218 -0.0022789636 0.0020784079 -0.01221038 0.10607718
15620000000 0.0050485572 0.0064976541 -0.00072933204 0.0029873915 -0.0014240826 0.0034549024 0.012494455 0.095675036
15630000000 0.009530657 -0.0047729318 0.00016452023 0.0027905859 0.0013907781 0.0034435275 0.0107179 0.062615074
15640000000 0.0043760939 -0.0093338192 0.00099958037 0.0033939225 0.0016506887 0.0030171615 -0.015238406 0.056772187
15650000000 -0.0012508528 -0.020079963 0.002852171 0.0027759108 0.0021771723 0.0024668237 -0.025612695 0.080941796
15660000000 -0.013986613 -0.017082326 0.0038054686 0.00078376353 0.0034624485 0.0016805463 -0.0070826169 0.098450296
15670000000 -0.021396471 -0.018538825 0.0028342665 -0.001096378 0.0035156338 -0.0012927987 0.010782484 0.081810504
15680000000 -0.021886911 -0.0083077112 0.0022936033 -0.0014747023 0.0027845874 -0.0024158794 0.006630444 0.057136711
15690000000 -0.019718383 -0.015264193 0.0024192617 -0.0018838332 0.0015598207 -0.0023489713 -0.016042508 0.051620953
15700000000 -0.014922515 -0.013421906 0.0018586102 -0.0034811166 0.001818559 -0.0021806206 -0.01930592 0.072940424
15710000000 -0.017670335 -0.028462179 -0.0009197857 -0.0037790055 -0.00044005446 -0.0033611157 0.0030514263 0.085616142
15720000000 -0.020141657 -0.028793156 -0.0012851371 -0.0027260189 -0.0018140899 -0.0033454252 0.013892785 0.072060764
15730000000 -0.028229812 -0.037858576 -0.0024567689 -0.0021442473 -0.0034116143 -0.0018266914 -0.0039986856 0.056012616
15740000000 -0.030291989 -0.030661695 -0.0033874477 -0.0015452979 -0.0029401809 -0.0010538541 -0.026209693 0.061846316
15750000000 -0.037500508 -0.03396114 -0.0035979939 0.0010453269 -0.0024523328 0.00045296631 -0.020760873 0.078721724
15760000000 -0.034360491 -0.025245752 -0.0024664677 0.0011820189 -0.0025106496 0.001114228 0.005479712 0.075961053
15770000000 -0.038081549 -0.033064678 -0.0025993572 0.0022396524 -0.0023523071 0.0025315033 0.010135729 0.0537218
15780000000 -0.037879076 -0.029633541 -0.0016290151 0.0033964603 -0.0016515617 0.0036821051 -0.01574567 0.050526194
15790000000 -0.050095461 -0.036927029 0.0003311137 0.0039243065 -0.00038235332 0.0031652364 -0.02941332 0.073323764
15800000000 -0.050397076 -0.030134913 0.0019920997 0.0032602106 0.0015146987 0.003890967 -0.020394908 0.08589597
15810000000 -0.059822332 -0.033501513 0.0026121926 0.0021071672 0.0033530367 0.0016321159 0.0021089371 0.07483606
15820000000 -0.052593671 -0.02877705 0.0034072471 0.00030024111 0.0032580867 5.7420461e-05 0.0053869933 0.047196392
15830000000 -0.056267459 -0.038346954 0.0027267053 -0.00029259911 0.0028846585 0.00017235638 -0.014850774 0.042454474
15840000000 -0.052261196 -0.04038462 0.0033310172 -0.0012528467 0.003008934 -0.00093775458 -0.028272038 0.066020064
15850000000 -0.062819593 -0.05168334 0.0026048194 -0.0025146068 0.0023563444 -0.0020370893 -0.023470942 0.090674847
15860000000 -0.0665491 -0.047641978 0.0010318679 -0.0035662064 0.00060134765 -0.0044673765 -0.0035192482 0.095656857
15870000000 -0.078247651 -0.045760684 -0.00044970599 -0.0036471076 -0.0010446595 -0.0035020635 0.0093155857 0.070345983
15880000000 -0.071757957 -0.032059371 -0.00175185 -0.0029349809 -0.0015914575 -0.0032114927 -0.0042280015 0.04475864
15890000000 -0.071217954 -0.030052776 -0.002251477 -0.0021094205 -0.0015935847 -0.0022300119 -0.032339584 0.050253339
15900000000 -0.061381377 -0.029743263 -0.003347826 -0.0010469484 -0.0035144566 -0.0016243176 -0.032539617 0.087776482
15910000000 -0.064976417 -0.039112821 -0.0034473117 0.00026604242 -0.0038612199 0.00074521173 -0.0027543642 0.099702939
15920000000 -0.06667494 -0.046683345 -0.0031350704 0.0013457935 -0.0028271815 0.0025372209 0.012222603 0.078949735
15930000000 -0.084548563 -0.054232214 -0.0022746201 0.0024287926 -0.0015760376 0.0022322903 0.00079355575 0.06130334
15940000000 -0.091811299 -0.050334677 -0.001513492 0.0039498378 -0.0016772564 0.0030597055 -0.014089202 0.062683843
15950000000 -0.10297601 -0.046026483 0.00062905962 0.0029741542 0.00015262316 0.0034795869 -0.017830918 0.08144252
15960000000 -0.096978381 -0.038809724 0.0016029186 0.0035644413 0.0024468044 0.0037311942 -0.0050806492 0.088934518
15970000000 -0.093448073 -0.040982615 0.0030983053 0.0023676371 0.0035460233 0.00099662342 -0.0022585392 0.085149877
15980000000 -0.083781525 -0.045965534 0.0036991099 0.00037950336 0.0028944442 -0.00041382742 -0.0027657486 0.083334878
15990000000 -0.088734947 -0.056970216 0.0025352337 -7.3234667e-05 0.0019569872 0.00090561109 0.0023938343 0.077273667
16000000000 -0.090360023 -0.060061298 0.0037309369 -0.0015322844 0.0045636902 -0.0011721314 0.005318895 0.073765293
16010000000 -0.10195202 -0.063531592 0.0028825798 -0.0028155542 0.0026766837 -0.0035049994 0.0021425094 0.066793971
16020000000 -0.10617866 -0.059241045 0.0003823975 -0.0041350513 -0.0007230984 -0.0041665044 -0.010861831 0.075900346
16030000000 -0.11599677 -0.055631835 -0.00083638763 -0.0034558522 -0.00090153585 -0.0021352803 -0.0075686602 0.091414541
16040000000 -0.11366917 -0.050150171 -0.0020210471 -0.0019986301 -0.0015027256 -0.0023845821 0.011286404 0.090167336
16050000000 -0.11946592 -0.055608254 -0.002091717 -0.002259196 -0.0023404374 -0.0026528907 0.024094526 0.0711243
16060000000 -0.12214835 -0.058002919 -0.0032760107 -0.0013200723 -0.004198771 -0.0013355174 0.020370299 0.055525564
16070000000 -0.12939252 -0.063008204 -0.0042658667 0.00027974707 -0.0043068267 0.00072599808 0.0054034833 0.062613793
16080000000 -0.13388941 -0.065115139 -0.0029022901 0.0027194095 -0.002432147 0.0022679323 0.0041593276 0.082635053
16090000000 -0.14065827 -0.067555666 -0.0012370667 0.0031031668 -0.0020273824 0.0026513438 0.0089853685 0.091571331
16100000000 -0.14046755 -0.068992794 -0.00014746212 0.0026302482 -0.00054350111 0.0033405602 0.016794514 0.082475193
16110000000 -0.14652997 -0.073814496 0.00035122898 0.0026205578 0.00093262526 0.0031459834 0.018867765 0.069696397
16120000000 -0.15071782 -0.075197205 0.0010624164 0.0029799077 0.0014058874 0.0025536311 0.019204047 0.057121351
16130000000 -0.16035774 -0.07305716 0.0030546833 0.0022644545 0.0026808935 0.0027130242 0.015030367 0.056452982
16140000000 -0.16699368 -0.071666569 0.0036393211 0.00057201833 0.0042672725 0.0011171303 0.011602348 0.065425731
16150000000 -0.17543159 -0.065019861 0.0028774047 -0.0011654038 0.0028197588 -0.0016529674 0.011040485 0.074543901
16160000000 -0.17713915 -0.061053902 0.0023232659 -0.001569027 0.0020124903 -0.0014747994 0.017330479 0.074961975
16170000000 -0.18206765 -0.062357165 0.0013137558 -0.002263596 0.0018811948 -0.0019350057 0.027364712 0.062364534
16180000000 -0.19060779 -0.067685992 0.0010356293 -0.0025223899 0.0014806099 -0.0032222215 0.028335121 0.045243122
16190000000 -0.19876012 -0.06947884 0.00015156879 -0.0033196148 -0.00058200443 -0.003778534 0.02080334 0.042944741
16200000000 -0.20995469 -0.075618707 -0.0020166961 -0.0034127457 -0.0030127703 -0.0028826063 0.012956329 0.056666568
16210000000 -0.22283849 -0.072794922 -0.0032016593 -0.0016623316 -0.0025971674 -0.00099147391 0.012889026 0.071506724
16220000000 -0.23077863 -0.067811511 -0.0029505317 8.3797844e-05 -0.0025896374 -0.00070314278 0.016053326 0.071636915
16230000000 -0.23185472 -0.060161475 -0.0024178994 0.00034934553 -0.0032715239 -0.00031146075 0.021864807 0.060858101
16240000000 -0.23410223 -0.058650065 -0.0026661779 0.0012598842 -0.003489648 0.002513167 0.020980563 0.040594161
16250000000 -0.23556697 -0.056538068 -0.0022289366 0.0025765575 -0.0010818 0.0036966302 0.010245998 0.035001554
16260000000 -0.24357876 -0.058261953 -8.950464e-05 0.0036941974 0.00027420209 0.0023344681 0.0027654059 0.044492677
16270000000 -0.25433955 -0.05297523 0.0005154066 0.0026505345 -0.00034948462 0.0025080801 9.2171133e-05 0.063295826
16280000000 -0.26943272 -0.047312897 0.0015317207 0.0023082558 0.0010684929 0.0032842662 0.017586291 0.063458197
16290000000 -0.27786314 -0.037706733 0.0025124263 0.0021419735 0.0037782649 0.0026001148 0.018508498 0.043092206
16300000000 -0.28648016 -0.029988728 0.0036098622 0.00051125232 0.0038306925 -0.0004981932 0.010703425 0.031776298
16310000000 -0.28812802 -0.026252259 0.0030942122 -0.0016063857 0.0022811582 -0.001916686 0.001316295 0.036772851
16320000000 -0.29730543 -0.029338591 0.0012163499 -0.0018649388 0.0011975889 -0.00051116472 0.006234901 0.052871816
16330000000 -0.30487856 -0.027761817 0.0012002345 -0.001670673 0.0024617906 -0.0019901467 0.0098796841 0.054613769
16340000000 -0.31651276 -0.025056928 0.0013601785 -0.0025270402 0.0015158171 -0.0035716724 0.0020080861 0.049566686
16350000000 -0.3214798 -0.017156236 -0.00057477609 -0.0038029351 -0.0018511984 -0.0035894462 -0.0090040024 0.050035987
16360000000 -0.33030808 -0.0065702647 -0.0031382614 -0.0022687279 -0.002694845 -0.0016085134 -0.0032443441 0.055982444
16370000000 -0.32754841 0.0055804681 -0.0025434983 0.00022191711 -0.001841557 -0.00035610117 0.010439895 0.04561463
16380000000 -0.32976079 0.010431472 -0.0012892114 0.00034400856 -0.0024746482 -0.00058503333 0.0019103242 0.032244448
16390000000 -0.33316186 0.014339797 -0.0025443162 -0.00086297689 -0.0027055666 0.00029393402 -0.019458603 0.039977334
16400000000 -0.3463816 0.020298734 -0.0028924234 0.0021745197 -0.0017908434 0.0023748181 -0.023460846 0.059971958
16410000000 -0.35520694 0.026959196 -0.0010629138 0.0031993552 -0.0011602312 0.0023864715 -0.0031723268 0.065672003
16420000000 -0.37217861 0.039313883 0.00086191256 0.0020437452 0.00021197693 0.0022416182 0.01041078 0.048686542
16430000000 -0.37400985 0.050965823 0.00040338439 0.0018411634 0.0006528435 0.0021898383 0.003422183 0.036023762
16440000000 -0.38022554 0.058040239 0.0011607595 0.0017786028 0.0015419922 0.0012082871 -0.012615627 0.044440787
16450000000 -0.37904787 0.063318968 0.0022630421 0.0010954842 0.0020104207 0.00090116798 -0.022206699 0.063931763
16460000000 -0.38464633 0.066073604 0.0021305555 0.00035833084 0.0017289551 4.7163689e-05 -0.01603147 0.07839974
16470000000 -0.38695624 0.068250731 0.0021219274 -0.00092934084 0.0021593859 -0.0004935828 -0.0005149059 0.067826822
16480000000 -0.39747566 0.078312188 0.0016157934 -0.0014192085 0.0019740222 -0.00088869967 -0.0011360757 0.047935046
16490000000 -0.40017074 0.089301988 0.00066889753 -0.0015955732 0.00067855336 -0.0023535262 -0.01270905 0.045893453
16500000000 -0.40485185 0.10323665 0.00046533011 -0.0016493058 1.8444523e-05 -0.0018442904 -0.018470842 0.062222268
16510000000 -0.40548092 0.11359061 -0.00027588391 -0.0023261174 -0.00047369773 -0.00187595 -0.013262303 0.074420117
16520000000 -0.41062722 0.12447355 -0.0014158428 -0.0015779216 -0.00095952163 -0.0014317306 -0.0061655706 0.074416317
16530000000 -0.41604936 0.13071153 -0.0017449533 -0.0012563939 -0.0014856644 -0.0014463518 -0.002890233 0.059087276
16540000000 -0.4270696 0.1422092 -0.0021017762 9.3336101e-05 -0.0025277864 -0.00033760397 -0.0083248802 0.055514082
16550000000 -0.43221384 0.15236855 -0.001633788 0.00086188002 -0.0019836577 0.0018058403 -0.0030951686 0.062753402
16560000000 -0.43850827 0.1626332 -0.0011250665 0.00097414036 -0.00044600165 0.0010549455 0.00054087862 0.072363362
16570000000 -0.43855721 0.17176622 -0.00098329177 0.0010687409 -0.00075893471 0.00082601939 0.0038598143 0.078255221
16580000000 -0.43897286 0.17887026 -0.00090254709 0.001817812 -0.0014768911 0.0019762684 -0.0023296603 0.075087517
16590000000 -0.44047943 0.18170807 0.00050636666 0.0024142731 0.00096032617 0.0031202475 -0.0058401879 0.075279273
16600000000 -0.44967797 0.19204557 0.0015409719 0.0012389636 0.0017165847 0.0010790828 -0.0043339282 0.067292109
16610000000 -0.45378792 0.20673198 0.0015189447 0.00041755126 0.0012497439 0.0004087225 -0.0019658357 0.067205049
16620000000 -0.45946032 0.22500327 0.0014750236 0.0001650629 0.0014101911 0.00051961537 0.0018441528 0.073121369
16630000000 -0.46018589 0.24378528 0.001407777 6.8869558e-06 0.0014902853 -4.9658294e-05 0.0093008764 0.080452882
16640000000 -0.45956808 0.26113349 0.0013744833 -0.0010124256 0.00096641603 -0.0010344835 0.016708292 0.071912818
16650000000 -0.45787904 0.27164307 0.0012230072 -0.0016263524 0.0010064389 -0.00096661877 0.0090744942 0.056620631
16660000000 -0.46291542 0.27927005 -0.00032465716 -0.0014903339 -0.00012547184 -0.0013010434 -0.0068061156 0.057784654
16670000000 -0.47155699 0.28579944 -0.00057076459 -0.0013596253 -0.00076624285 -0.0016207027 -0.0022241957 0.076671183
16680000000 -0.48265839 0.29952955 -0.00072278036 -0.00073214102 -0.0011245857 -0.00015229842 0.02140341 0.087005824
16690000000 -0.48939049 0.31587797 -0.00072742958 -0.00076559477 -0.00049074064 -0.00040853518 0.037413165 0.071665175
16700000000 -0.49045551 0.33612472 -0.00098849123 -0.00042992533 -0.00056348555 -0.0013264726 0.022380613 0.052295677
16710000000 -0.48479399 0.35365906 -0.0017453275 -9.1477268e-05 -0.0025423104 -0.00016117671 -0.002838884 0.054209642
16720000000 -0.47953492 0.36839187 -0.0012165292 0.00088602671 -0.0020214038 0.0014864521 -0.0081259757 0.072196066
16730000000 -0.47485673 0.38230282 -0.00053974526 0.001244562 -0.00010535799 0.0016122857 0.0073594134 0.085588232
16740000000 -0.47381738 0.39598712 -6.6072767e-05 0.00080082362 -2.9305869e-05 0.00051383418 0.031600196 0.074518658
16750000000 -0.47854698 0.41241363 9.3874027e-05 0.00073445146 -0.0004324356 0.0010375658 0.027852073 0.050195076
16760000000 -0.48025033 0.43487558 9.184354e-06 0.0012635177 0.00011143548 0.0017026966 0.011197174 0.041153349
16770000000 -0.48011428 0.45654029 0.00093394134 0.00069212785 0.0012503604 0.00087523129 -0.006098914 0.040302757
16780000000 -0.47625726 0.4769724 0.00089795224 0.00090531644 0.0011035916 0.00043862197 -0.0093179047 0.065305479
16790000000 -0.47224951 0.49422154 0.0012024092 -8.8720102e-05 0.00084578147 -0.00029795727 0.014771098 0.076645896
16800000000 -0.46623507 0.50954211 0.001275806 -0.00023973471 0.00079025375 -0.0002195983 0.030787516 0.064172581
16810000000 -0.4619979 0.52515972 0.00086539373 -0.00076936715 0.00083892432 -0.000481608 0.024001965 0.045821592
16820000000 -0.45416921 0.54271269 0.00062342442 -0.00072824408 0.00094521104 -0.0010025568 0.0044290107 0.033820733
16830000000 -0.44743943 0.56311154 0.00038962124 -0.00058133673 -8.4581581e-05 -0.0010236923 -0.012636481 0.038908765
16840000000 -0.43502629 0.58400929 0.00019085727 -0.0019556575 -0.00016551395 -0.0013170413 -0.011362797 0.05967094
16850000000 -0.42425811 0.60487086 -0.00090904359 -0.0013167183 -0.00073000073 -0.0009387781 0.012773871 0.071923152
16860000000 -0.41099703 0.62321705 -0.0015809856 -0.0007232257 -0.0017390634 -0.00083100493 0.024773076 0.061447114
16870000000 -0.40360254 0.64325291 -0.00089774205 0.00046733822 -0.0011904307 0.00062769622 0.013855221 0.04836433
16880000000 -0.39361823 0.66320181 -0.00081985892 0.00019368131 -0.00062637619 0.00050293287 -0.0059152348 0.042294316
16890000000 -0.38508838 0.68401897 -0.0010188335 8.4639323e-05 -0.00082788389 0.00023064463 -0.020255942 0.046410084
16900000000 -0.37266642 0.70127404 -0.0012511116 0.0015034297 -0.00090492732 0.00096538768 -0.018127188 0.05973826
16910000000 -0.36004847 0.71890682 0.00013331306 0.0018034208 -0.00036566175 0.0012741936 -0.00039593503 0.067345083
16920000000 -0.34369421 0.73154992 0.0010777161 0.00098880008 0.00056651735 0.0013763966 0.012267902 0.063996837
16930000000 -0.32868361 0.74552846 0.00048969511 0.00023011614 0.0008083338 0.00052792596 0.0091986414 0.055867486
16940000000 -0.31139892 0.75840712 0.00084876892 0.00089592743 0.00091427332 0.00070798164 -0.0062486953 0.047199722
16950000000 -0.29420483 0.77602935 0.001213331 0.00020292873 0.00078372553 0.00025137179 -0.025034666 0.050544664
16960000000 -0.27332091 0.79295397 0.0012592452 -0.00053585856 0.0012659231 -0.00013814331 -0.025012664 0.064854823
16970000000 -0.25125623 0.81226349 0.00059683563 -0.00081519026 0.0012268084 -0.0006441049 -0.013683196 0.073903531
16980000000 -0.22724329 0.82716137 0.00038804061 -0.00085560535 0.00017600285 -0.0014205534 0.0041124336 0.080944777
16990000000 -0.2056639 0.84169775 0.0001927393 -0.00092752918 -0.00010791008 -0.00068375189 0.014802406 0.067820661
17000000000 -0.18605594 0.85295379 -0.00051712804 -0.0011976041 -0.00050491758 -0.00063811889 -0.0013095625 0.047291674
