!Keysight Technologies,P9374A,MY57211807,A.19.30.04
!Date: Friday, May 01, 2026 14:14:49
!Correction: S11(C  2-Port  ) 
!S21(C  2-Port  ) 
!S12(C  2-Port  ) 
!S22(C  2-Port  ) 
!S2P File: Measurements: S11, S21, S12, S22:
# Hz S  RI   R 50
13000000000 0.046546709 0.1060114 -0.0037082967 -0.0006033018 -0.0037826505 0.00092928053 -0.03039977 0.1778844
13010000000 0.052836195 0.10779029 -0.0027116691 0.00066429854 -0.0015323168 0.00061846821 -0.027072273 0.19563231
13020000000 0.055049904 0.10129627 -0.0033349991 0.003091577 -0.0035973326 0.0019414639 -0.008865349 0.19252943
13030000000 0.052988835 0.096504211 -0.0014075899 0.0026860186 -0.0019685263 0.0032157123 -0.0007064715 0.18007237
13040000000 0.046479091 0.092566282 4.9350027e-05 0.0042182109 0.00041384849 0.0045046601 -0.0029920563 0.15744756
13050000000 0.046159439 0.089735478 0.0010143809 0.0032863573 0.0012915374 0.002845786 -0.035048608 0.15613842
13060000000 0.038145162 0.085332051 0.0028448366 0.0024058956 0.0024337671 0.0023504065 -0.039326515 0.18785197
13070000000 0.033441417 0.092017636 0.002743972 0.0017678346 0.0027522403 0.0022505233 -0.018695474 0.19899377
13080000000 0.03534665 0.097689755 0.0036916402 -0.00027161348 0.0039819134 -0.00041026797 0.0074329823 0.19093201
13090000000 0.04310042 0.10158287 0.0031021377 -0.00082347111 0.0032190778 -0.0013541926 0.011151649 0.15733835
13100000000 0.045770172 0.1010621 0.0021416629 -0.0026040885 0.0020227977 -0.0018590371 -0.019506898 0.15632004
13110000000 0.053904302 0.10141736 0.0018050757 -0.0029192776 0.0024067736 -0.0030894962 -0.028027322 0.1828097
13120000000 0.052257076 0.092750363 0.00050425559 -0.003389569 -7.0688366e-05 -0.0037093116 -0.017225003 0.19583075
13130000000 0.049403436 0.092601649 -0.00065560726 -0.0044263639 -0.00096665288 -0.0038026078 -0.005940564 0.19420932
13140000000 0.045993716 0.089488067 -0.0033228945 -0.0028938134 -0.0028128074 -0.0027579977 0.0040040128 0.17777124
13150000000 0.041103251 0.092626415 -0.0037429975 -0.00060123834 -0.0039221793 -0.0011894926 -0.0067368597 0.16223538
13160000000 0.040496305 0.097480789 -0.0022381248 0.00042048213 -0.0023915982 0.00074230478 -0.013289131 0.17512703
13170000000 0.046356924 0.099854603 -0.0033061453 3.5195379e-05 -0.0026807827 0.00033499103 -0.0034481138 0.18422461
13180000000 0.04814646 0.10002442 -0.0032244599 0.0023478181 -0.0034347335 0.0018150216 0.002326455 0.18446609
13190000000 0.057212263 0.10051126 -0.0017844911 0.0042150789 -0.0019734486 0.0043733106 0.0039780084 0.18276954
13200000000 0.059083495 0.09664885 0.00099873834 0.003737615 0.0014699986 0.0040229862 0.0054390784 0.18032399
13210000000 0.067364752 0.092394724 0.0014055031 0.0028259344 0.0014321362 0.0015827877 0.0093750544 0.17858563
13220000000 0.059876293 0.085998572 0.001073115 0.0018853722 0.00077256717 0.0022479419 0.016330771 0.17444563
13230000000 0.058581151 0.087886915 0.0026646089 0.0021050472 0.0028586036 0.0024514569 0.013513803 0.16820219
13240000000 0.055626795 0.091375589 0.0047477763 0.00064804428 0.004713736 0.00045933132 0.0075142831 0.17868461
13250000000 0.057617061 0.093514651 0.004744566 -0.0025751328 0.0041343011 -0.0024446654 0.017024104 0.18961535
13260000000 0.061381623 0.099149026 0.001832118 -0.0034345961 0.001421727 -0.002724801 0.029843731 0.1847979
13270000000 0.068758756 0.091733605 0.00024897954 -0.0025964624 0.0014164681 -0.0020101867 0.027922824 0.17192225
13280000000 0.071029581 0.091125391 0.00032279943 -0.0021539968 0.00051752338 -0.0034450823 0.024622802 0.17127541
13290000000 0.076972097 0.080407634 -6.6539738e-05 -0.0038093945 -0.00080061471 -0.0033095502 0.026115753 0.16891235
13300000000 0.073712721 0.075111791 -0.0026122399 -0.0037485007 -0.0020589221 -0.0029208143 0.030675583 0.16716176
13310000000 0.073056929 0.071265988 -0.0046721613 -0.00091747538 -0.0034257136 -0.0016023658 0.039965283 0.16447875
13320000000 0.069988333 0.073279284 -0.0031062821 0.001071027 -0.0036181242 -1.1309487e-05 0.043049727 0.16083308
13330000000 0.072286882 0.073338673 -0.0026236707 0.0011898063 -0.0033045802 0.0011265733 0.042759728 0.16864286
13340000000 0.075511426 0.078107782 -0.0028153989 0.0013760611 -0.00243289 0.0023165054 0.053133272 0.17164737
13350000000 0.080170423 0.07557217 -0.0021417162 0.0034020864 -0.0019797576 0.0027410197 0.04967916 0.16468221
13360000000 0.086601831 0.073210791 0.0003019392 0.0041000023 -0.0004736078 0.0041779717 0.049305979 0.15757073
13370000000 0.086299077 0.061539728 0.0016549206 0.0034080907 0.00088312884 0.003858258 0.043480501 0.1435304
13380000000 0.083748937 0.058390249 0.0028794275 0.0022199696 0.0031571328 0.0024910294 0.039026514 0.14834638
13390000000 0.079130597 0.05026513 0.0032987026 0.0015922595 0.003565711 0.001494229 0.051562842 0.16020329
13400000000 0.073766045 0.05157733 0.0034840335 2.4778536e-05 0.0033889136 -3.0924566e-06 0.077016532 0.15576105
13410000000 0.069976225 0.050566174 0.0028254394 -0.0010432038 0.0031917267 -0.00067244971 0.073237792 0.13185903
13420000000 0.077603422 0.052566778 0.0029961313 -0.0015606361 0.0031858496 -0.0017831698 0.04518659 0.12552223
13430000000 0.077791534 0.048468247 0.0022441153 -0.0037941416 0.0025640382 -0.0038161757 0.035169542 0.13933992
13440000000 0.085542448 0.045659065 -0.00014246244 -0.004032786 -0.00012287148 -0.0047609615 0.052948147 0.14484322
13450000000 0.082517952 0.038795069 -0.0014068282 -0.0037221566 -0.0019189855 -0.0034617861 0.070749968 0.13168621
13460000000 0.083889522 0.032706957 -0.0026697847 -0.0025351681 -0.0021674 -0.0025063665 0.077980198 0.12373216
13470000000 0.076044261 0.02797663 -0.0033463356 -0.0016524292 -0.0035884266 -0.0018926167 0.072057828 0.11718895
13480000000 0.073417172 0.025414959 -0.0030571625 0.00023995654 -0.0031647934 0.0001064738 0.059705228 0.11401635
13490000000 0.064042829 0.030515764 -0.0037440439 0.00093620468 -0.0039257733 0.0013501507 0.045024686 0.11925463
13500000000 0.066325113 0.029021464 -0.0029787389 0.0022332552 -0.0028038563 0.002516856 0.050438184 0.12141314
13510000000 0.063902698 0.03162159 -0.0020697671 0.004053547 -0.0016278983 0.0036743721 0.059858739 0.12037279
13520000000 0.071477264 0.027690679 0.00035459362 0.0034358837 -0.00034998701 0.0040434613 0.072400622 0.11092158
13530000000 0.070811272 0.022073941 0.0010984475 0.0035063778 0.0015144567 0.0037069519 0.068891309 0.097906142
13540000000 0.073502317 0.014045302 0.0022676615 0.0036609175 0.0026134872 0.0031672707 0.057373472 0.099471517
13550000000 0.066784054 0.0077176765 0.0041215988 0.0016604123 0.0036239077 0.0013009766 0.048521779 0.097864859
13560000000 0.059360482 0.0080214459 0.0035436708 0.00048479333 0.0033871466 0.0010499618 0.042841919 0.10695675
13570000000 0.056882441 0.012297831 0.0040987185 -0.0011968616 0.0045695715 -0.0015456325 0.060291108 0.10735442
13580000000 0.051127288 0.014408486 0.0031873286 -0.0029232276 0.0023785224 -0.0030919905 0.068596043 0.094683871
13590000000 0.050994016 0.023426384 0.001024121 -0.0045849946 0.0013580553 -0.0040416964 0.064934336 0.0846579
13600000000 0.053214759 0.021569381 0.00020721857 -0.0033768043 0.00070054195 -0.0037399051 0.047204129 0.08552286
13610000000 0.053883731 0.020943634 -0.00079164625 -0.0034701098 -0.0013937169 -0.0035721983 0.039183538 0.099027775
13620000000 0.057083096 0.015280908 -0.0023454861 -0.0038425303 -0.0024822501 -0.003546407 0.047341608 0.10206152
13630000000 0.050083388 0.0058605149 -0.0044800052 -0.0018214497 -0.003555655 -0.0012974436 0.048419304 0.096290573
13640000000 0.045165997 0.0061703362 -0.0044476478 0.00044755859 -0.0045631453 -0.0011323015 0.057815976 0.090474166
13650000000 0.041522268 0.0014213948 -0.0034196596 0.0022298344 -0.0044926046 0.0024946989 0.050345942 0.078621641
13660000000 0.034676284 0.004463648 -0.0035979876 0.0026645609 -0.0033694645 0.0032897193 0.044487521 0.082315706
13670000000 0.036396053 0.014027202 -0.0016231738 0.0043889522 -0.00074258249 0.0042401357 0.0402136 0.083938159
13680000000 0.041605022 0.015820749 7.0286333e-05 0.0044727526 -0.00022611918 0.0035150209 0.043064117 0.089449845
13690000000 0.045240283 0.021211997 0.0025662086 0.0033092205 0.00088960596 0.0039438531 0.051083565 0.091641814
13700000000 0.051577501 0.018175226 0.0023733061 0.0034704513 0.0029511987 0.0045866231 0.056367874 0.087061875
13710000000 0.049193628 0.015580218 0.0038535481 0.0015088712 0.0050132936 0.0009597321 0.053240672 0.08476267
13720000000 0.048460491 0.010945793 0.0050655743 -0.00027635449 0.0048706369 -0.0009267698 0.045066684 0.081277944
13730000000 0.041631781 0.0066456986 0.0028753881 -0.002216245 0.0021871165 -0.0018415193 0.040060867 0.089055493
13740000000 0.031130847 0.0082109217 0.0034668103 -0.002723705 0.0039657485 -0.0019206143 0.049780753 0.086505011
13750000000 0.02944418 0.013340501 0.0015920048 -0.004417649 0.0018873996 -0.0050504515 0.052639648 0.083219483
13760000000 0.029672336 0.015327282 -0.00052224193 -0.0044939835 -0.00086294301 -0.004696494 0.055109844 0.080924317
13770000000 0.034055527 0.018110748 -0.0018105169 -0.0034320387 -0.0020404761 -0.0032311606 0.050285894 0.082995012
13780000000 0.041579265 0.01594308 -0.003142996 -0.0028664588 -0.0028906155 -0.0028206846 0.048552617 0.086164355
13790000000 0.049324654 0.014564436 -0.0041980124 -0.0016098338 -0.0045144306 -0.0018785048 0.052636407 0.085711956
13800000000 0.052171513 0.0061579705 -0.0046858876 0.00081081968 -0.0047071283 0.00099317427 0.058341991 0.075901091
13810000000 0.051476289 -0.00050338637 -0.0038987433 0.0021908961 -0.0039196997 0.0025772718 0.05648116 0.066488683
13820000000 0.043685865 -0.0025524143 -0.0022733449 0.0035365936 -0.0019152551 0.003046124 0.050922923 0.072685845
13830000000 0.037897147 -3.5788864e-05 -0.00097731396 0.0032298118 -0.0014195739 0.0032095627 0.055538587 0.0895316
13840000000 0.032965887 0.0059327139 -0.00077588658 0.0038177283 -0.00046203344 0.0043542581 0.074018121 0.087313123
13850000000 0.033591416 0.0099423779 0.0021560208 0.0045873839 0.0023053498 0.0046880813 0.070797086 0.060984612
13860000000 0.037756003 0.012435744 0.0038633035 0.0038713499 0.0039130235 0.0027830915 0.052156739 0.051516488
13870000000 0.046117242 0.0080591384 0.0055121649 -6.6132518e-05 0.0049763285 0.00055875781 0.04329494 0.062890135
13880000000 0.048818301 -0.00018933788 0.0029990592 -0.0009183145 0.0035404339 -0.00089883374 0.059432514 0.078172728
13890000000 0.050839383 -0.013196629 0.0032402719 -0.0016090288 0.0027655812 -0.0013504574 0.080148369 0.070592903
13900000000 0.043082491 -0.020292483 0.0038690961 -0.0029957169 0.0037302226 -0.0028558455 0.075744793 0.053193532
13910000000 0.037501402 -0.0229923 0.0012626738 -0.0051092138 0.0014263197 -0.0044173789 0.060006972 0.046721954
13920000000 0.029637756 -0.017315151 -0.0017811557 -0.0046918755 -0.00087248546 -0.0054056989 0.058263771 0.051285811
13930000000 0.030019838 -0.010854391 -0.0020288178 -0.0026760597 -0.0031308872 -0.0022227468 0.0624502 0.048174489
13940000000 0.030357927 -0.0060884245 -0.00368234 -0.0030579907 -0.0026237185 -0.002974761 0.070394933 0.043194145
13950000000 0.037022457 -0.0040083751 -0.0039661522 -0.0011554089 -0.0041304706 -0.0011503082 0.063755363 0.043773837
13960000000 0.040952761 -0.010802819 -0.004943572 0.001280224 -0.0046130889 0.00047362293 0.071352907 0.049820974
13970000000 0.035404202 -0.023613336 -0.0026813289 0.0028131069 -0.0033850379 0.0027689864 0.074889876 0.0376435
13980000000 0.028465874 -0.029026052 -0.0019467276 0.0030486248 -0.0016229814 0.0032350619 0.062506758 0.026632164
13990000000 0.02047725 -0.038829956 -0.0015789027 0.0040181447 -0.002040108 0.0035418221 0.053849533 0.027920792
14000000000 0.0085162781 -0.036733154 0.0012434914 0.0051591559 0.00087110815 0.0056498945 0.051436309 0.03261593
14010000000 0.0064859651 -0.033384971 0.0033701709 0.0032836657 0.0033299939 0.0033275327 0.059056431 0.038940396
14020000000 0.0076906281 -0.028885361 0.0032102291 0.0013395634 0.0037686201 0.001431594 0.070594743 0.028868429
14030000000 0.014682535 -0.026238076 0.0034368932 0.00069908076 0.0031455569 0.0008281935 0.06217631 0.0096593853
14040000000 0.022386186 -0.028428128 0.0036461754 -0.00096164597 0.0039675524 -5.2873977e-05 0.043077715 0.0057191364
14050000000 0.020933824 -0.035690032 0.0034333151 -0.0019525061 0.0043351296 -0.0028136279 0.036752436 0.016681714
14060000000 0.016146706 -0.037076831 0.0029084624 -0.003456648 0.0020528219 -0.0040271278 0.042959671 0.024697401
14070000000 0.0071130032 -0.041585736 0.00026312596 -0.0047389162 5.0851144e-05 -0.003780239 0.052810203 0.021491444
14080000000 -0.0036493004 -0.036857743 -0.0014914745 -0.003311394 -0.00053466926 -0.0037286528 0.052297991 0.0059871161
14090000000 -0.013767772 -0.032594956 -0.0015950858 -0.002099965 -0.0018132636 -0.0029056037 0.038355671 -0.0070658512
14100000000 -0.016782269 -0.024918035 -0.0027215499 -0.0028004206 -0.0041140751 -0.002929975 0.022747675 -0.0016745143
14110000000 -0.018416971 -0.021145225 -0.0044843843 -0.001223874 -0.0044865706 -0.00033888523 0.031723123 0.0093090385
14120000000 -0.012489882 -0.024590688 -0.0043582981 0.0015984201 -0.0034293188 0.002166155 0.042714376 0.0035702549
14130000000 -0.013217196 -0.030122835 -0.0020704146 0.0022667455 -0.001781794 0.0012438151 0.036479726 -0.003410683
14140000000 -0.012329383 -0.034839038 -0.0018761075 0.0031227213 -0.0026234684 0.0031315398 0.02468536 -0.0005010356
14150000000 -0.019795466 -0.039825518 -0.0011996215 0.0031762589 -0.0013893484 0.0044986974 0.020904997 0.0039930125
14160000000 -0.024103645 -0.03952967 0.00049995782 0.0042286064 0.001919213 0.0039828392 0.026233472 -0.0014602258
14170000000 -0.034887552 -0.032495584 0.0024145991 0.0034740565 0.0022549764 0.0022021602 0.025765842 -0.0086057857
14180000000 -0.034740906 -0.021852566 0.0039568138 0.0013158163 0.0028727923 0.0017664372 0.018481189 -0.0064095375
14190000000 -0.032985546 -0.010145698 0.0031323885 0.00032776769 0.0030530933 0.00097441103 0.014535951 0.0089794472
14200000000 -0.025689619 -0.011511869 0.0027452209 -0.00066688959 0.0039541097 -0.0011547985 0.022633407 0.014773494
14210000000 -0.029558226 -0.011482089 0.0040574442 -0.0010259326 0.0033272128 -0.0020010092 0.017482081 -0.00072733243
14220000000 -0.025613472 -0.019492287 0.0022023926 -0.0044450583 0.0015026028 -0.0033714401 -0.00059934391 -0.0045767394
14230000000 -0.036721222 -0.02347197 0.00049162691 -0.0039814687 0.0010625087 -0.003360769 -0.0041897804 -0.0019039614
14240000000 -0.042333979 -0.025564995 -0.0020521765 -0.0026683267 -0.0011203326 -0.0032241284 0.0040462068 0.0090242811
14250000000 -0.050274439 -0.017428285 -0.0014486776 -0.0026086422 -0.002318281 -0.0031196352 0.016534112 0.0038789571
14260000000 -0.049726985 -0.012427551 -0.0025521175 -0.0021480038 -0.0024832252 -0.001258899 0.0053007537 -0.0025858129
14270000000 -0.045197323 0.00037937704 -0.0035383934 -0.0010156295 -0.0028729758 -0.0011189393 -0.0066906237 0.0060049277
14280000000 -0.033276446 -0.0035497665 -0.0039225882 0.00093206501 -0.0037914084 0.0003889103 -0.0045552058 0.01209856
14290000000 -0.029803067 0.0001610046 -0.002692074 0.0022604156 -0.003396576 0.0019204741 0.0029246025 0.0043718885
14300000000 -0.028072117 -0.0080408286 -0.0014747592 0.0025552812 -0.0014010316 0.0031479513 0.0027570219 -0.00099091185
14310000000 -0.033492692 -0.0065125162 -0.00089883979 0.003491729 -0.00091011683 0.0032740352 0.00020634849 -0.0014967273
14320000000 -0.042235911 -0.012172678 0.00072538015 0.0036702151 0.0002625644 0.0034256268 -0.007419175 0.007569782
14330000000 -0.049650721 -0.0025672354 0.0024769164 0.0031418065 0.0020332567 0.0030862829 -0.0044169584 0.017989738
14340000000 -0.052748993 0.0023891348 0.0028719516 0.0012538271 0.0028627445 0.0016614737 -0.0011491734 0.012568663
14350000000 -0.048451677 0.010832603 0.0029832995 0.00086044788 0.0033600763 0.00070848252 -0.0027116721 0.0053453185
14360000000 -0.040714432 0.0094610201 0.0030744402 -0.00043058061 0.0028213488 -0.00058402616 -0.0037596726 0.0028652593
14370000000 -0.033368103 0.0061599826 0.0034438942 -0.0015313344 0.0033971127 -0.001583463 -0.0052115819 0.0050393622
14380000000 -0.031026799 -0.0025997926 0.0021385085 -0.002897149 0.002222229 -0.0023802146 -0.0025857741 0.0099207694
14390000000 -0.02981559 -0.0050487472 0.00044196448 -0.0037558533 0.0010759213 -0.0044286409 -0.0036212683 0.0082946308
14400000000 -0.036165301 -0.008646071 -0.00083626003 -0.0026969765 -0.00092896388 -0.0030245986 -0.0071116104 0.01032277
14410000000 -0.039930768 -0.0020755008 -0.0020866944 -0.0025512159 -0.0018788564 -0.0027295982 -0.0027069321 0.01001346
14420000000 -0.044034097 0.0031669838 -0.0013548918 -0.0019334927 -0.0019419824 -0.0020250564 0.0012600578 0.0042574331
14430000000 -0.041946568 0.011317425 -0.0036127167 -0.0019719403 -0.0036497489 -0.0014682225 -0.0069025252 0.0020387259
14440000000 -0.040035613 0.014631774 -0.0044561424 0.00038720248 -0.0043433984 0.00027882133 -0.0094519621 0.013657656
14450000000 -0.036822814 0.013429024 -0.0025691884 0.0029300149 -0.0022328831 0.0030760667 -0.0010035322 0.010497779
14460000000 -0.0371322 0.010386142 -0.0012008245 0.0023413706 -0.0016178647 0.0021568164 -0.0038949349 -0.0025924277
14470000000 -0.033709094 0.00051057711 -0.00040991389 0.0019909935 -0.00018049986 0.0027920525 -0.014343846 -0.0039988835
14480000000 -0.041814558 -0.0048915371 -0.00066461315 0.0031436922 -0.00061893126 0.0029052375 -0.011509618 0.0067485934
14490000000 -0.044072241 -0.0078211585 0.0010031578 0.0036376361 0.0015176046 0.0035700041 -0.0014134869 0.010212854
14500000000 -0.047723655 -0.0064914078 0.0036145747 0.0030262119 0.0033425817 0.0023577434 0.005342287 0.0010636016
14510000000 -0.048871282 -0.0028635552 0.0040591317 -5.9150974e-05 0.0031992844 6.1601168e-06 -0.0076009417 -0.01944619
14520000000 -0.047169432 0.0022129789 0.0021066293 -0.0011804949 0.0023909698 -0.00025286799 -0.034856793 -0.011951878
14530000000 -0.042984236 0.0047335159 0.0020916867 -0.00023171399 0.002682091 -0.00068957976 -0.025242712 0.012242375
14540000000 -0.04140402 0.0071147773 0.0032609284 -0.0018111485 0.0024710079 -0.0025576961 0.0028931904 0.011126993
14550000000 -0.039655436 0.0068422053 0.0017001076 -0.005052316 0.0014878233 -0.0037538284 0.016108066 -0.009416854
14560000000 -0.042297073 0.0046161916 -0.0014517237 -0.0037452714 -0.00083312811 -0.0029441477 -0.012897559 -0.032886446
14570000000 -0.046814516 -0.0017848322 -0.0024006467 -0.0018494566 -0.0011929036 -0.0025905422 -0.048360057 -0.013657616
14580000000 -0.055444218 -0.0024189381 -0.00048769431 -0.0013104683 -0.0013663361 -0.0019687037 -0.045567013 0.010508372
14590000000 -0.061773505 -0.0049785245 -0.0028667911 -0.0026210397 -0.0030742926 -0.0022236053 -0.020419577 0.013533348
14600000000 -0.068746015 0.00042425469 -0.0048545683 -0.00060566165 -0.0041388664 -0.0002633729 0.0019888976 -0.016714949
14610000000 -0.068201981 0.0030020289 -0.0040275049 0.0031110425 -0.0039334707 0.0021783307 -0.020336922 -0.036089081
14620000000 -0.0665612 0.0096589103 -0.00097352138 0.0036259952 -0.0021440398 0.0030439536 -0.04128385 -0.021196861
14630000000 -0.059910398 0.010732168 0.00026890897 0.0019301489 4.5733177e-05 0.0031953624 -0.047875751 -0.0031073205
14640000000 -0.054969873 0.012840565 -0.001411575 0.0019958764 -0.00080262136 0.0021252926 -0.042009342 0.0056954501
14650000000 -0.052681264 0.0060040113 8.0938451e-05 0.0044492818 -5.7222205e-06 0.0042797807 -0.035247505 -0.0067283865
14660000000 -0.059781142 0.0051887538 0.0035694782 0.0040812152 0.0031150489 0.0038934222 -0.041142087 -0.014264065
14670000000 -0.0693947 0.0042624921 0.005238872 6.7697372e-05 0.0051124529 0.00060149259 -0.038492627 -0.011512448
14680000000 -0.076756194 0.011134822 0.0022661756 -0.002110661 0.0034156977 -0.0018886128 -0.039737727 -0.016538955
14690000000 -0.086542308 0.01496556 0.0010481094 -0.00029281864 0.0010281974 -0.0015229976 -0.057619397 -0.018788021
14700000000 -0.087934002 0.029847709 0.0035783076 -0.00053441426 0.0031686164 -0.00030923123 -0.070335969 -0.0038836412
14710000000 -0.082433961 0.032963432 0.0029278544 -0.0042257225 0.0030841385 -0.0038499669 -0.070365451 0.006688267
14720000000 -0.074180663 0.035906851 -0.00022753136 -0.0054431437 -0.00026126998 -0.0060946895 -0.053873304 0.015886962
14730000000 -0.065869682 0.027756199 -0.0027596033 -0.0031064677 -0.0032278639 -0.0028418137 -0.031325873 -0.0030366592
14740000000 -0.066059187 0.021739395 -0.0030151154 -0.00164183 -0.0028191239 -0.00099713833 -0.048922218 -0.032479834
14750000000 -0.072476551 0.016677998 -0.0026043218 -0.0005256951 -0.0023558503 -0.00054468284 -0.090441808 -0.017478604
14760000000 -0.079720914 0.023556696 -0.0037815399 -0.00044856104 -0.0034788076 -0.00022267702 -0.095990144 0.017760582
14770000000 -0.087742999 0.030317783 -0.0027264745 0.00079631375 -0.0028359138 0.00079923542 -0.071789794 0.039506115
14780000000 -0.088470221 0.050170872 -0.0031720921 0.0019134617 -0.0027509094 0.0019450381 -0.040865809 0.026682189
14790000000 -0.082415402 0.058270484 -0.0021634945 0.0044708252 -0.0019594179 0.0034999731 -0.045149833 -0.0071685417
14800000000 -0.073667981 0.066322282 0.0011242055 0.0047274167 0.00061026623 0.00474115 -0.07818567 -0.012716468
14810000000 -0.067367136 0.060576949 0.0026487526 0.002195179 0.0021532364 0.0027352148 -0.10634303 0.0088858046
14820000000 -0.065976769 0.057545591 0.0017562336 0.0014698443 0.0023133231 0.0012130154 -0.098319575 0.047630228
14830000000 -0.067010075 0.046112392 0.0023388236 0.0023905947 0.0019040934 0.0017504254 -0.064186603 0.046332918
14840000000 -0.075362027 0.044693414 0.0046133446 0.001069258 0.0038919619 0.0019455708 -0.049481247 0.025860343
14850000000 -0.081359111 0.047374252 0.0046471129 -0.0023976951 0.0050401054 -0.0021077411 -0.057009187 0.0069073155
14860000000 -0.08188121 0.057808064 0.0018596045 -0.0033991355 0.0026499021 -0.0031782412 -0.082668789 0.015256929
14870000000 -0.075767018 0.068301931 0.00032459525 -0.0033111856 0.00021665683 -0.0034240205 -0.088333145 0.037596356
14880000000 -0.06022878 0.078339651 1.409871e-05 -0.0032197023 0.00028677471 -0.0035980889 -0.086849622 0.052020431
14890000000 -0.049964007 0.076075226 -0.0010632069 -0.0031375764 -0.0011529489 -0.0035518266 -0.067392372 0.056998655
14900000000 -0.038838718 0.076219745 -0.0024597934 -0.003155658 -0.0032266565 -0.0032121476 -0.056476921 0.041608393
14910000000 -0.038651973 0.065830745 -0.0042550145 -0.0014560148 -0.0038150824 -0.0011366173 -0.05871141 0.035687432
14920000000 -0.047231175 0.064098932 -0.0043117194 0.0013215104 -0.0039445739 0.0007216098 -0.063438155 0.034833163
14930000000 -0.054643467 0.065356858 -0.0016347576 0.0017683764 -0.0033679912 0.000997514 -0.075794406 0.046466585
14940000000 -0.05798462 0.072575957 -0.0025261568 0.0015697851 -0.0031711161 0.0035931757 -0.078065187 0.054712616
14950000000 -0.058334932 0.076003164 -0.0023102383 0.0040222621 -0.00013468065 0.0046188207 -0.074494749 0.05957526
14960000000 -0.05252295 0.081182733 0.00098939519 0.0044825152 0.00095689768 0.0025932589 -0.057502083 0.062321812
14970000000 -0.043227956 0.0806209 0.0023153052 0.0025406601 0.0009137821 0.0028450389 -0.035755932 0.047582015
14980000000 -0.031902336 0.075362369 0.0020476852 0.0017154054 0.0026093035 0.0031223181 -0.046185307 0.029749248
14990000000 -0.024502866 0.064102903 0.0029046228 0.002049814 0.0044053113 0.0011647728 -0.066151105 0.043347925
15000000000 -0.024487861 0.0571879 0.0050702621 0.00034638122 0.0043078759 -0.0010557352 -0.070904195 0.063192636
15010000000 -0.026949216 0.052480921 0.003477993 -0.0028726121 0.0021347888 -0.0026821154 -0.059507046 0.073446192
15020000000 -0.03211518 0.054526508 0.0015490677 -0.0034660092 0.0017587339 -0.0020994502 -0.041049525 0.062572524
15030000000 -0.035088982 0.057973236 -6.2227307e-05 -0.0022165258 0.0011780546 -0.0026698334 -0.036827806 0.041226521
15040000000 -0.037443295 0.067856267 0.00092958286 -0.0032948582 0.00017020985 -0.0039926521 -0.04655917 0.036863886
15050000000 -0.030497758 0.071884967 -0.0011478524 -0.0038156623 -0.0016741815 -0.0034863385 -0.055771932 0.046661124
15060000000 -0.025136206 0.074133612 -0.0031206624 -0.0036200588 -0.0030294489 -0.0026423042 -0.058048639 0.05797682
15070000000 -0.017319636 0.062174845 -0.0050340467 -0.0005284592 -0.0039970139 -0.00060262938 -0.05422274 0.057244394
15080000000 -0.021730112 0.05462788 -0.0037823196 0.0019211 -0.0038119927 0.00073242653 -0.051718377 0.054015342
15090000000 -0.021870743 0.044986583 -0.0011793798 0.0020693252 -0.0024747779 0.0016093948 -0.040701039 0.048014082
15100000000 -0.029666379 0.039061636 -0.0023014178 0.0015972957 -0.0024763085 0.0030991309 -0.03372243 0.037141055
15110000000 -0.036468953 0.037569206 -0.0029631793 0.0031902378 -0.001456154 0.0028218799 -0.042214721 0.030413792
15120000000 -0.042116236 0.043591488 0.00058717025 0.0058413851 0.00029802334 0.0046279747 -0.059422813 0.037895359
15130000000 -0.040306766 0.052483346 0.0040797885 0.0030681412 0.0027424046 0.0034752807 -0.06657517 0.058529608
15140000000 -0.031809032 0.06050539 0.0032426962 0.00013947301 0.0039877403 0.0012514202 -0.050272182 0.066925853
15150000000 -0.022390908 0.056291793 0.0013509707 0.00038933259 0.0024603715 -7.7876961e-05 -0.035809036 0.053327754
15160000000 -0.02197618 0.054012343 0.0040883911 0.00084676815 0.0034377067 0.00031290227 -0.037625052 0.029102098
15170000000 -0.020578934 0.044765413 0.0040635052 -0.0023437245 0.0035720943 -0.0017370661 -0.061434887 0.023347259
15180000000 -0.02997674 0.039807893 0.0020109066 -0.0048221233 0.002235949 -0.0045426413 -0.07667958 0.047242101
15190000000 -0.039740302 0.038594168 -0.0010430942 -0.0030151855 -0.00051118631 -0.0033815417 -0.06754826 0.060735956
15200000000 -0.050234128 0.044511892 -0.00073636824 -0.0026326207 -0.0012280805 -0.0027846433 -0.055101573 0.060798757
15210000000 -0.051908594 0.05209963 -0.0010664967 -0.0025344628 -0.0011120824 -0.0021712075 -0.045991704 0.048693325
15220000000 -0.046538677 0.060717896 -0.0037843336 -0.00292987 -0.0038682797 -0.0026917998 -0.054734495 0.034100439
15230000000 -0.040331155 0.061080456 -0.0043694833 0.00094112521 -0.0040780045 0.00087789784 -0.067031421 0.042242423
15240000000 -0.030505974 0.061408121 -0.0021924197 0.0021518408 -0.0020561584 0.0021336786 -0.067365646 0.052018393
15250000000 -0.027230296 0.055546474 -0.001237682 0.0014512016 -0.0014208343 0.00090403447 -0.073127404 0.055015612
15260000000 -0.024990756 0.050127108 -0.0018253301 0.002086974 -0.0020711613 0.0020727371 -0.072412111 0.073767863
15270000000 -0.031145561 0.043505114 -0.00061753654 0.0026848458 -0.00090401492 0.00352073 -0.049373493 0.073130906
15280000000 -0.040815175 0.047957279 0.0011686217 0.0035679012 0.0018255042 0.0031257239 -0.049595874 0.053741865
15290000000 -0.04646232 0.058923975 0.0027770093 0.001835082 0.0020628192 0.0016610904 -0.067081466 0.052248366
15300000000 -0.044143435 0.067466468 0.0023978653 0.00046597183 0.0023365309 0.00068266521 -0.080812655 0.061627835
15310000000 -0.038448252 0.075919688 0.0019987219 -5.9792947e-05 0.0020688819 0.00019080343 -0.086215109 0.079502389
15320000000 -0.029654656 0.074746855 0.0013355921 -0.0006011033 0.0021072861 -0.00052950077 -0.064835675 0.086861685
15330000000 -0.021717042 0.07316637 0.0025443658 -0.00058628723 0.0027666059 -0.0012671794 -0.051482517 0.077119507
15340000000 -0.01622493 0.062786609 0.0018735037 -0.0028300611 0.0014468562 -0.0027667363 -0.045158319 0.068882361
15350000000 -0.01800555 0.055581011 -7.7154837e-05 -0.0029382403 9.924022e-05 -0.0026446674 -0.054832339 0.063766144
15360000000 -0.023607014 0.051655903 -0.0011310193 -0.0018797289 -0.0010422677 -0.0019409059 -0.071060352 0.077687785
15370000000 -0.026495589 0.055159181 -0.0009298583 -0.00092908181 -0.0012081065 -0.0015646029 -0.076806121 0.097167037
15380000000 -0.028286196 0.060340345 -0.0010083409 -0.0018183504 -0.0015883869 -0.0013753941 -0.057592258 0.1084239
15390000000 -0.024051555 0.067545146 -0.002811457 -0.0010110093 -0.0028214736 -0.00079953001 -0.036143366 0.091564476
15400000000 -0.017447872 0.073074482 -0.0027173806 0.00091050699 -0.002073511 0.00082628726 -0.039495207 0.070193566
15410000000 -0.0053400435 0.072191715 -0.0012640667 0.0019980555 -0.0014562443 0.0017795466 -0.059209228 0.074561886
15420000000 0.0012463387 0.065096185 -0.00087423256 0.00088770478 -0.0010037448 0.0013446473 -0.065092735 0.10039052
15430000000 0.0061085112 0.055448234 -0.0010948218 0.0021549899 -0.00053664995 0.0024445034 -0.04414 0.11346811
15440000000 1.0831282e-05 0.046634503 0.00038017612 0.0024476526 0.00082797691 0.0021989462 -0.033485014 0.093750514
15450000000 -0.002447091 0.044266142 0.0016406019 0.0018613484 0.0010588722 0.00090394646 -0.036767427 0.08199279
15460000000 -0.006969416 0.040500488 0.00053000828 0.00030314812 0.00043522025 0.0010690555 -0.041254699 0.087299123
15470000000 -0.010716234 0.046192501 0.002032741 0.0019279736 0.0019105205 0.0015633391 -0.030076295 0.095546685
15480000000 -0.0049796561 0.051258445 0.0027688956 -0.00044166303 0.0026890554 -0.00054999581 -0.02334656 0.098202154
15490000000 0.0040910449 0.051396932 0.0017201236 -0.0017994528 0.0012836547 -0.0014970362 -0.029465783 0.095314957
15500000000 0.0094699971 0.047665767 -0.00027837977 -0.001305026 0.00031942001 -0.0010259715 -0.03270885 0.104066
15510000000 0.017991744 0.041461349 0.0019849953 -0.00042009202 0.0018217855 -0.00084073091 -0.023005571 0.10659896
15520000000 0.017615486 0.029939279 0.00088418886 -0.0030395356 0.00076671632 -0.0026305874 -0.0076058246 0.094389275
15530000000 0.014577191 0.021490164 -0.0021610013 -0.0029050473 -0.0015597118 -0.0026687195 -0.014919966 0.077914432
15540000000 0.0046389448 0.015936948 -0.0018774159 0.0011086387 -0.0014316277 0.00053704192 -0.031439796 0.087070473
15550000000 0.00023696339 0.015974823 0.00029026912 -0.0010250284 -0.00016396781 -0.0016331244 -0.027235236 0.10324287
15560000000 -0.0067904484 0.019622784 -0.001876364 -0.0021667702 -0.0019691959 -0.0016457755 -0.010410368 0.10678843
15570000000 -0.00035826396 0.022411803 -0.0038529187 0.0011412197 -0.0041889623 0.0010733312 0.0051367953 0.089036681
15580000000 0.0016902415 0.019942947 -0.00090463873 0.0026516223 -0.00070305821 0.0019351479 -0.0027902611 0.068068087
15590000000 0.010247082 0.015663067 0.0015080814 0.0016332091 0.00067235733 0.0017610228 -0.021108195 0.075379834
15600000000 0.01286578 0.0069218879 -0.0010663173 -0.00082762493 -0.0013501518 -7.9268066e-06 -0.022075832 0.09324304
15610000000 0.012754708 -0.0043904698 -0.0016801268 0.002368391 -0.00081861048 0.0025305399 -0.0070848176 0.10534236
15620000000 0.0040593361 -0.0093364324 0.0010493597 0.0037169959 0.0014188958 0.0032482566 0.014396267 0.089825742
15630000000 -0.0006840094 -0.015093036 0.0037656846 0.00080723246 0.0033419658 0.00041566289 0.0060543381 0.058885127
15640000000 -0.012107773 -0.011011388 0.00075565575 -0.0013704994 0.0010701185 -0.00062343222 -0.019269986 0.059816837
15650000000 -0.011674218 -0.0085152918 0.00047433615 0.00081576931 0.0011246433 0.00052200514 -0.023364337 0.08440531
15660000000 -0.014101139 -0.004472462 0.0025136932 0.00074023067 0.0026342832 -0.00025090791 -0.0040977821 0.098809786
15670000000 -0.013163219 -0.0068506571 0.0025138191 -0.0022121642 0.0014944999 -0.0027720393 0.013751502 0.078160614
15680000000 -0.0088479966 -0.0070889606 0.00058529561 -0.0032008672 -0.00030650035 -0.0022797366 0.0038068062 0.054202698
15690000000 -0.0091507593 -0.02204234 -0.0014020687 -0.0015277709 -0.00066856539 -0.0010366464 -0.017527353 0.05243469
15700000000 -0.014554 -0.025005233 -0.00036303088 -0.0009475837 0.00017272809 -0.0015719892 -0.019033208 0.074063748
15710000000 -0.021555077 -0.034297407 -0.0010077994 -0.0014848248 -0.0020595361 -0.0017105311 0.0059636422 0.086472571
15720000000 -0.02795523 -0.032300845 -0.0018613588 -0.0014308587 -0.0021729972 -0.00045899994 0.013815248 0.069506451
15730000000 -0.033937372 -0.033314273 -0.0027470109 -0.00015910133 -0.001349743 0.00058727438 -0.0045932475 0.056253038
15740000000 -0.033035669 -0.026586596 -0.0025314041 0.001388232 -0.0022540702 6.500064e-05 -0.025832795 0.061443839
15750000000 -0.035369143 -0.029230455 -0.00091515272 0.0020328537 -0.0014088691 0.0016465691 -0.020862522 0.079469688
15760000000 -0.033698589 -0.023928732 -0.00018101229 0.0014276385 -0.00067748479 0.0023367733 0.0071245618 0.075290971
15770000000 -0.035030864 -0.030366065 -0.00037575746 0.0014095318 0.00049775245 0.0014608009 0.0091106743 0.052508116
15780000000 -0.03637344 -0.028392944 -0.00035036716 0.0027161599 0.00017595646 0.0018556844 -0.014928253 0.05142577
15790000000 -0.043398 -0.035817988 0.0025048004 0.0025838909 0.0009067551 0.0021524052 -0.029656868 0.071973175
15800000000 -0.047391936 -0.035172589 0.0029212879 0.00029541878 0.0027512428 0.0016760956 -0.021094522 0.085839383
15810000000 -0.055794142 -0.040564172 0.0017967566 -0.0010499203 0.0027381431 -0.0007016153 0.0021882476 0.074576035
15820000000 -0.059716716 -0.037995014 0.0014327709 -0.00075475703 0.0015248385 -0.0016077267 0.0055165202 0.047863144
15830000000 -0.064830273 -0.040821534 0.0017858109 -0.0007849597 0.0010407985 -0.0010384922 -0.014500082 0.040925458
15840000000 -0.064478099 -0.034652587 0.0010840571 -0.0028473604 0.0014931161 -0.0016425019 -0.028455911 0.066118367
15850000000 -0.063310556 -0.038845792 -0.00050781335 -0.0021151556 0.00048825121 -0.0027871113 -0.023391899 0.089559831
15860000000 -0.061116677 -0.037204854 -0.0012356233 -0.0017973997 -0.0014505092 -0.0027786708 -0.0054600276 0.094971783
15870000000 -0.062342431 -0.041973315 -0.001221553 -0.0010898466 -0.0020261544 -0.00099471083 0.0083855577 0.071807161
15880000000 -0.061651334 -0.040451135 -0.0018525629 -0.0013254827 -0.0017613925 -0.00096408906 -0.0023009721 0.045771539
15890000000 -0.066753328 -0.044674728 -0.0019531734 -8.3478408e-06 -0.0019084495 3.7045833e-05 -0.030281069 0.048869647
15900000000 -0.071402229 -0.042289633 -0.002489028 0.00057408772 -0.0027334034 0.00048448506 -0.032528531 0.08386413
15910000000 -0.078659452 -0.042197138 -0.0012205992 0.0018330361 -0.0016540209 0.0023046457 -0.0071127228 0.097498097
15920000000 -0.082302965 -0.037717439 -0.00062616658 0.0018205539 -0.00017832697 0.002115503 0.008271914 0.083049759
15930000000 -0.083934262 -0.038248904 -0.00046568163 0.0016507505 -0.00027406143 0.0013316936 0.0038043242 0.065973282
15940000000 -0.083191395 -0.039177962 0.00018099212 0.0025274919 1.4843419e-05 0.0028344102 -0.0079484638 0.060390919
15950000000 -0.086776316 -0.046087984 0.0017228331 0.0016582212 0.0023290853 0.0017969925 -0.017485922 0.073844761
15960000000 -0.089579739 -0.048965033 0.0024957634 0.0014893186 0.0030261648 0.00053988677 -0.011650059 0.085988536
15970000000 -0.093105003 -0.05419904 0.0024269172 -0.0003244066 0.0010282542 -0.0006183174 -0.0063068196 0.089784503
15980000000 -0.09560746 -0.05335281 0.0019700467 -0.0011125864 0.0020457676 7.169228e-05 -0.00069743767 0.089047045
15990000000 -0.097987391 -0.053639006 0.0011567716 -0.00079587084 0.0023040408 -0.00095817685 0.0087414309 0.077311039
16000000000 -0.096452281 -0.050497621 0.0023495723 -0.0018047042 0.001321855 -0.0033452879 0.0074067097 0.067869246
16010000000 -0.096809536 -0.055696167 0.00061767647 -0.0030551814 -0.00071710814 -0.0017742028 -0.00090398267 0.063106209
16020000000 -0.10018092 -0.055341672 -0.0018661846 -0.002571193 -0.00059907546 -0.0012320888 -0.015789963 0.075335249
16030000000 -0.10725609 -0.059953723 -0.001233555 -0.0009017259 -0.00062117877 -0.0023816165 -0.0098769786 0.096375212
16040000000 -0.1142605 -0.056682773 -0.0020339887 -0.0010813427 -0.0029715071 -0.001024218 0.014925382 0.093990266
16050000000 -0.12178885 -0.060563482 -0.0023284215 -0.00026620924 -0.0024376493 6.7427172e-05 0.027697839 0.070172623
16060000000 -0.1288729 -0.057353206 -0.0020699683 0.00061487255 -0.001872991 0.0010694219 0.022721499 0.052255802
16070000000 -0.13085467 -0.06005539 -0.0024600425 0.0012215358 -0.0018667346 0.0010335913 0.0015040208 0.058032535
16080000000 -0.13421237 -0.05922902 -0.0010052696 0.0029401421 -0.001140717 0.0021390654 -0.00091030449 0.084678777
16090000000 -0.13381276 -0.066135325 0.00046619921 0.0025563245 -0.00048324285 0.0027142672 0.007915399 0.096037164
16100000000 -0.1373398 -0.072135217 0.001334258 0.0015004306 0.0014172428 0.0024902036 0.021816246 0.085887477
16110000000 -0.14662354 -0.078197896 0.00071951409 0.0011443913 0.0018128043 0.0012878836 0.024684953 0.065667294
16120000000 -0.1529626 -0.075938851 0.001637449 0.0016201471 0.0017854844 0.0005392984 0.018573344 0.051837433
16130000000 -0.16264462 -0.075465456 0.0031527136 0.00099563983 0.0023604501 0.00081277941 0.011051331 0.054424256
16140000000 -0.16979447 -0.06779363 0.0036139053 -0.0019118328 0.0031737539 -0.00082664669 0.0081176758 0.068391547
16150000000 -0.17447747 -0.063517883 5.1531824e-06 -0.002815905 0.001014282 -0.0024755178 0.011960147 0.07981883
16160000000 -0.17620988 -0.060154743 -0.00017063733 -0.00021956285 0.00025873745 -0.0015838036 0.023024742 0.074163817
16170000000 -0.18012983 -0.062760115 0.0020590939 -0.0012657187 0.00029501956 -0.0013162353 0.028128225 0.058227967
16180000000 -0.1900989 -0.068157069 0.00021407311 -0.0040094331 -7.9105841e-05 -0.0029858132 0.026284005 0.041559163
16190000000 -0.19963412 -0.071220987 -0.0032281983 -0.0027175318 -0.0020083929 -0.0022220199 0.016190862 0.043960109
16200000000 -0.21012349 -0.073910311 -0.0032740589 0.00056543399 -0.0032118764 -0.00060101645 0.012613567 0.06148158
16210000000 -0.22097188 -0.073467597 -0.00062232494 0.00085982762 -0.0018080382 0.00078180933 0.017067119 0.072332941
16220000000 -0.22981083 -0.069332533 -0.0013404717 -0.00039703675 -0.0011461962 0.00068514387 0.018731102 0.068825871
16230000000 -0.23399946 -0.064386703 -0.0031156577 0.00012682326 -0.0021272432 2.2929959e-05 0.020145645 0.056228049
16240000000 -0.23886833 -0.058460515 -0.0018432144 0.0039110859 -0.0020202105 0.0029600523 0.016644627 0.041234765
16250000000 -0.23992766 -0.05423253 0.0012564985 0.0030230102 0.00052483229 0.003268237 0.010606108 0.038694385
16260000000 -0.24605736 -0.050781555 0.0017162005 0.00094847754 0.0018777293 0.0016936702 0.0072584376 0.046155196
16270000000 -0.2502557 -0.045713827 0.00030946615 0.00055489439 0.00079826993 0.00092530111 0.0045024566 0.059323251
16280000000 -0.25859329 -0.044645198 0.00086094957 0.0021688943 0.0014326699 0.0015948144 0.01399214 0.058620453
16290000000 -0.2692937 -0.044820376 0.0037101046 0.0013552782 0.0028478075 0.00073033292 0.01283217 0.044496961
16300000000 -0.28490025 -0.041615702 0.0034536931 -0.0024312236 0.0027491413 -0.0012926339 0.010288272 0.036664296
16310000000 -0.29732409 -0.036515266 0.00036961236 -0.0026917413 0.0016388433 -0.0023988858 0.0063490462 0.039695468
16320000000 -0.31079197 -0.029331893 -0.00056756951 -0.00057500566 3.4396595e-05 -0.0017850072 0.011495803 0.047742806
16330000000 -0.3155781 -0.018638924 0.0011618207 -0.0010895343 -0.00016739062 -0.0022563622 0.0060188062 0.048660755
16340000000 -0.3172763 -0.0091005862 0.00028008816 -0.0030494509 -0.00042274548 -0.0014076731 -0.0039837807 0.050350539
16350000000 -0.31050572 -0.0043185502 -0.0027341142 -0.0024786561 -0.0014642121 -0.0019981221 -0.0099983392 0.055724975
16360000000 -0.31171739 -0.006729424 -0.0030885381 0.0002269526 -0.0028685122 -0.0011818886 0.0019107852 0.059067998
16370000000 -0.31649533 -0.0068331864 -0.00091366284 0.00061225984 -0.0023375761 0.00094876508 0.014727969 0.041657891
16380000000 -0.3290759 -0.0065581538 -0.0013952926 -2.0752079e-05 -0.0013503286 0.0014676226 -0.00023095403 0.02857608
16390000000 -0.34646171 0.0018723011 -0.0027854352 0.00090217975 -0.0011592488 0.0008806847 -0.022752928 0.039809499
16400000000 -0.36251283 0.020247892 -0.00061217463 0.0032722615 -0.00078391517 0.0021253857 -0.024083572 0.063005999
16410000000 -0.36817044 0.039789915 0.00073082559 0.0017999995 -0.0002557172 0.0024737185 -0.0010256171 0.067131452
16420000000 -0.37109268 0.055147395 0.0005607261 0.0010996059 0.0013445974 0.0016470582 0.012393994 0.048411772
16430000000 -0.36400995 0.062359497 0.00074283197 0.0023794579 0.0012856746 0.0016231402 0.0044589778 0.035226636
16440000000 -0.36481485 0.05840132 0.0027149138 0.00104115 0.0020772277 0.00034820361 -0.012328292 0.042895928
16450000000 -0.36992767 0.054725748 0.002456943 -0.0007310877 0.0022730741 -0.00065442576 -0.024026057 0.061896756
16460000000 -0.38225791 0.053134359 0.00072709069 -0.0010268658 0.00062155671 -0.0002627316 -0.018879304 0.078923948
16470000000 -0.39422375 0.059850693 0.0016435012 -0.00089555141 0.0019159709 -0.0012616205 0.00016805902 0.07023818
16480000000 -0.4071019 0.07359831 0.0016644961 -0.0019862622 0.0015057119 -0.0020626758 0.0014428217 0.049085639
16490000000 -0.41090858 0.09402366 -0.00055137824 -0.0031970581 -0.0010382242 -0.0029972694 -0.01074227 0.044471718
16500000000 -0.40906978 0.11045814 -0.0021554008 -0.0011414576 -0.0017896843 -0.00052280509 -0.018331125 0.060029764
16510000000 -0.40589616 0.12376203 -0.00076012436 -7.2137096e-05 -0.00032279512 -0.00044701903 -0.015312443 0.073174909
16520000000 -0.40502447 0.13086399 -0.00068792049 -0.0015078402 -0.001039835 -0.001999035 -0.0075753788 0.075610638
16530000000 -0.40743312 0.13526019 -0.0029216229 -0.00087009021 -0.0030852321 -0.00054826029 -0.0026554391 0.060681406
16540000000 -0.41710383 0.13783637 -0.0027936376 0.0019288111 -0.0029252123 0.0021156229 -0.0061322153 0.056724995
16550000000 -0.42698193 0.1448016 2.7549802e-05 0.0032327105 0.0002290837 0.0028833477 -0.00029611401 0.060729459
16560000000 -0.4386884 0.15072988 0.00096091005 0.00046322195 0.00052427663 0.00051158835 -0.00032887422 0.069403656
16570000000 -0.44646442 0.16376495 -0.0004902397 0.0003114882 -0.00052856264 0.0012988601 0.0010955278 0.07921882
16580000000 -0.45337185 0.17586611 -0.00067872717 0.0022430352 0.00038296523 0.0019632503 -0.002926047 0.077610932
16590000000 -0.45234561 0.1931095 0.0023765834 0.002180282 0.0021459432 0.0015862434 -0.0033723656 0.076884151
16600000000 -0.45177388 0.20653571 0.0026161049 -0.00060209993 0.0017818701 -0.0003602324 -0.0014834646 0.064142846
16610000000 -0.44484282 0.2214247 0.00077500043 -0.0011623949 0.0014609023 -0.00033552095 -0.0029486418 0.065089427
16620000000 -0.44263601 0.22841188 0.00079225801 -0.00038097249 0.0014627044 -0.0011454268 -0.00033670291 0.072710358
16630000000 -0.44263759 0.23558274 0.00098314078 -0.00034864232 0.00022140365 -0.0011283359 0.0076483544 0.082836479
16640000000 -0.45560655 0.24117398 0.0011919057 -0.0019230286 0.00029905903 -0.0011879579 0.018821612 0.073199034
16650000000 -0.46776018 0.25567126 -0.00047420943 -0.0021589964 0.00028475156 -0.0014409494 0.011276897 0.055619758
16660000000 -0.48275551 0.27463385 -0.0018811547 -0.00076989701 -0.0012716467 -0.0013860328 -0.0057920199 0.054753628
16670000000 -0.48716846 0.29673004 -0.00095314247 -0.0002829638 -0.00160488 -0.00072872289 -0.0039894283 0.074607946
16680000000 -0.48775935 0.31727427 -0.00057232508 5.8353748e-05 -0.00088073453 0.00077884807 0.018783212 0.088221721
16690000000 -0.47850388 0.33265916 -0.001349034 -0.00069705519 -0.00051977299 -0.00018330198 0.038804244 0.074717402
16700000000 -0.47370136 0.3393752 -0.001556122 0.0011331239 -0.00085614069 -0.00013572651 0.024815425 0.052912392
16710000000 -0.46878526 0.34563762 -0.00060611521 0.0013325375 -0.0016503347 0.00099730573 0.00020518899 0.051685922
16720000000 -0.47631171 0.35087809 8.5149077e-07 0.00077140558 -0.00020571385 0.0016391909 -0.0097888978 0.068239391
16730000000 -0.48295987 0.36938724 -0.00016051324 0.0011489685 0.00083628215 0.00121464 0.0036303997 0.085612625
16740000000 -0.48890716 0.39276922 0.00069205445 0.0011125442 0.00043395197 0.00018915838 0.029756919 0.07739488
16750000000 -0.48884091 0.41965652 0.0013234692 0.00051454396 0.00049685594 0.00090034795 0.029779917 0.052483026
16760000000 -0.4853279 0.44632718 0.0007224516 -0.0002265076 0.0011210178 0.00075515814 0.015222053 0.040882688
16770000000 -0.47366807 0.46726334 0.00050002988 -9.8398843e-05 0.0014544642 -0.00057735835 -0.0044099391 0.035181876
16780000000 -0.46788329 0.48033252 0.00098551321 0.00037990979 0.00077303714 -0.0001956156 -0.013052681 0.062327594
16790000000 -0.4627451 0.49082834 0.00092430646 -0.001247306 0.00042980228 -0.0010502787 0.011897823 0.077962697
16800000000 -0.46363223 0.5017941 -0.00015646617 -0.00093593198 0.00035502779 -0.00081510091 0.029711556 0.068108752
16810000000 -0.46335411 0.51875377 -0.00019163557 -0.00046171524 -0.00025636604 -0.00067527412 0.027948786 0.047668442
16820000000 -0.4596301 0.53899139 0.00044682244 -0.00052636408 0.0002986383 -0.0007204538 0.0073793298 0.032005515
16830000000 -0.451511 0.56230241 -0.000532704 -0.00071868172 -0.00083795405 -0.00066034152 -0.011612792 0.035698824
16840000000 -0.44069818 0.58624423 -0.00075847912 -0.00094970688 -0.00087920413 -0.00053211383 -0.014343129 0.0563084
16850000000 -0.4259156 0.60990572 -0.00096103677 0.00051730749 -0.00083361147 0.00065778138 0.0078407666 0.074036404
16860000000 -0.41028562 0.62890524 -0.00071356783 -0.00012673539 -0.00040162914 -2.9181592e-05 0.025667647 0.066700347
16870000000 -0.39885724 0.64665627 -0.00045911851 0.0005540069 -0.00071342097 5.0670351e-06 0.017878979 0.049991459
16880000000 -0.38812727 0.66401339 -0.00077923608 0.00044713586 -0.00078330305 0.00079726055 -0.00062040053 0.039244812
16890000000 -0.37973425 0.67997146 -0.00041533887 0.00090878084 -4.7473324e-05 0.0010549736 -0.021927055 0.03917966
16900000000 -0.37194937 0.69523829 0.00033159237 0.0011956941 0.00040781035 0.00082360685 -0.024434028 0.059609964
16910000000 -0.36345294 0.71280253 0.00055880827 0.00032852593 0.00018282612 0.0001364139 -0.0019899793 0.071434021
16920000000 -0.35088217 0.73019308 0.00066260161 0.00021264338 0.00031379066 0.00078427431 0.014661876 0.06867525
16930000000 -0.33463064 0.74915749 0.00047263625 0.00014222207 0.00090548798 0.00040593182 0.015313709 0.055795465
16940000000 -0.31315598 0.76583683 0.0011875889 0.00028408924 0.0012464467 -0.00021914742 -0.0034587262 0.041867588
16950000000 -0.28967488 0.78119671 0.00083136949 -0.00070511911 0.00034894829 -0.00059459626 -0.028414495 0.047484025
16960000000 -0.26687893 0.79423833 0.00023685521 -0.00087741786 0.00057440175 -0.00046739905 -0.02900555 0.065491326
16970000000 -0.24570888 0.80827677 9.2441813e-05 -0.00037057375 0.0004185221 -0.00064074993 -0.014882047 0.077766828
16980000000 -0.22636677 0.82109797 2.9827206e-05 -0.00070668675 -8.3698658e-05 -0.0011769208 0.0083464868 0.083827794
16990000000 -0.20960161 0.83679652 -0.00023644869 -0.00069794466 -0.00050917687 -0.00050200638 0.018623972 0.065011971
17000000000 -0.19189511 0.85318154 -0.00067600521 -0.0005770537 -0.00055133807 -0.0003912338 -0.0022811862 0.043769788
