!Keysight Technologies,P9374A,MY57211807,A.19.30.04
!Date: Friday, May 01, 2026 14:24:41
!Correction: S11(C  2-Port  ) 
!S21(C  2-Port  ) 
!S12(C  2-Port  ) 
!S22(C  2-Port  ) 
!S2P File: Measurements: S11, S21, S12, S22:
# Hz S  RI   R 50
13000000000 0.046751145 0.097025186 0.0014056641 0.0010567661 0.0014850476 0.0014477386 -0.0059775338 0.17371504
13010000000 0.049117349 0.10546105 0.0012170016 -0.00073374255 0.00159259 -0.00027091429 -0.022526607 0.1716786
13020000000 0.047668912 0.098608017 9.4177638e-05 -0.00050347165 0.00063772534 -0.0012567617 -0.030804873 0.17643487
13030000000 0.048983902 0.10418677 0.00046578702 -0.00058248761 -3.3045319e-05 -0.00059111638 -0.033917245 0.18701087
13040000000 0.046982296 0.091676809 0.0002971279 -0.00038413698 -7.1715134e-05 -1.3388431e-05 -0.021941597 0.19991261
13050000000 0.044343382 0.09671554 0.00040652489 -0.00047030294 0.0007329575 -0.0002231032 -0.0040006307 0.19758476
13060000000 0.043017443 0.086992323 0.00062196096 -0.0011542353 0.00088040018 -0.0012871103 0.00219208 0.18426736
13070000000 0.038616717 0.094799392 -0.00074186409 -0.0012948727 -0.00087631994 -0.0015710806 -0.0023285784 0.16940972
13080000000 0.039827079 0.091175295 -0.0014314333 -0.00055546465 -0.0019171669 -0.00060840166 -0.013746716 0.16192564
13090000000 0.041780662 0.097899184 -0.0011869697 0.00063363143 -0.0011080401 0.0014439089 -0.025252342 0.16691256
13100000000 0.044502996 0.096130446 -0.00054362201 0.00079343439 -0.00040587358 0.0011714429 -0.025328413 0.18571606
13110000000 0.047352146 0.10102516 3.3404358e-06 0.00085404242 0.00050002645 0.00019640254 -0.015277788 0.19926915
13120000000 0.04819442 0.095116585 0.00021324477 0.00037939177 -0.0002401012 0.00035521199 -0.0019222926 0.20113237
13130000000 0.049571089 0.10036447 5.0633644e-05 0.00063156371 -0.00013166535 0.00080317497 0.0028917026 0.18975586
13140000000 0.050027065 0.090598688 -2.631692e-06 0.00025178207 -3.9795792e-05 0.00037995121 0.00018751994 0.17598441
13150000000 0.045042135 0.097512946 -0.0003424075 0.00082102965 0.00014599832 0.00097735343 -0.0063126832 0.16824214
13160000000 0.046317428 0.091776945 0.00078651466 0.00083216652 0.00086521899 0.00052806624 -0.013215177 0.17164612
13170000000 0.044375256 0.098476425 0.0022391262 -4.1055609e-06 0.0016291228 -0.00015568454 -0.011287689 0.18618026
13180000000 0.05122678 0.095925495 0.00039068915 -0.0017460411 0.00030341066 -0.0013493722 -0.0011391118 0.19323418
13190000000 0.05411461 0.098465815 -0.00043674448 -0.0006608172 7.7175428e-05 -0.00049797451 0.0070054345 0.19268927
13200000000 0.058544528 0.094028458 -0.00037180478 -2.7543989e-05 -0.00037512369 -0.00061325578 0.012332501 0.18419373
13210000000 0.060293697 0.095651314 0.00068252732 -0.00086038234 0.00026364106 -0.00068213331 0.012065053 0.17682174
13220000000 0.063161775 0.090162493 -0.00014958611 -0.00063524023 0.00016093203 -0.00012955123 0.0085644424 0.17342478
13230000000 0.061212406 0.091299534 -0.00064983731 -0.00083337631 -0.00042463964 -0.0010468063 0.0043579414 0.18094802
13240000000 0.062378541 0.089351639 -0.0014240044 1.3815821e-05 -0.0013707584 -3.1328294e-05 0.014593236 0.19113219
13250000000 0.059686981 0.092042789 -0.00083748851 0.000911084 -0.001095298 0.00068238855 0.027223749 0.18756711
13260000000 0.063762948 0.091758884 -0.00039125339 0.00030767548 -0.00077562954 0.00066207635 0.030111779 0.18053304
13270000000 0.064210951 0.090513945 -0.00047575074 0.0011778574 0.00018123479 0.0014127742 0.029360035 0.17321381
13280000000 0.069899745 0.08789178 0.00058516185 0.00096110633 0.00074504921 0.00068354455 0.02150394 0.16668889
13290000000 0.07166066 0.08207047 0.0011548846 2.7670176e-06 0.00052885577 -0.00035323264 0.01377786 0.17074499
13300000000 0.073265634 0.079380482 -0.00023365644 -4.9606373e-05 -0.00044277267 0.00040707545 0.020873994 0.17872842
13310000000 0.075182132 0.074539371 8.3367195e-07 0.00033109036 0.00053533266 0.00086977007 0.037891414 0.18200925
13320000000 0.075103439 0.072267845 0.00088376121 0.00055861735 0.0012523499 2.3132154e-05 0.056149088 0.17494169
13330000000 0.076222576 0.072103232 0.0013332728 6.2351479e-05 0.00082391122 -0.0004601776 0.064398251 0.16504842
13340000000 0.077230841 0.071583025 0.00026877125 -0.0015025288 6.9047936e-05 -0.0011783077 0.05762748 0.15367438
13350000000 0.077367783 0.070809446 -0.00031838976 -0.00087727443 -0.00034123406 -0.00022130617 0.036996398 0.14959843
13360000000 0.081810042 0.069839835 5.5197961e-05 0.00029857867 0.00061952439 4.3341017e-05 0.02250126 0.15914376
13370000000 0.081057727 0.06267865 0.00020459981 -0.0012026733 0.00021384106 -0.0016565623 0.02758076 0.16934112
13380000000 0.081242196 0.062365521 -0.00045456665 -0.00050346635 -0.0012872759 -0.00064352201 0.047990397 0.16985744
13390000000 0.07891836 0.05541452 -0.00072418613 -0.00023643795 -0.00065041712 0.00035944401 0.070444688 0.16320272
13400000000 0.078919731 0.053298846 -0.00067698059 0.00011745962 -0.00028568177 0.00043414207 0.082728624 0.14757562
13410000000 0.07552433 0.047341108 -0.00065536372 0.00059968303 -0.00036661711 0.00020636599 0.072857164 0.1296749
13420000000 0.078283489 0.048256516 -0.00060733157 0.00058264541 -0.00099304819 0.00042166404 0.04783012 0.12461058
13430000000 0.076399967 0.042940073 1.6274367e-05 0.00074986252 -8.7836292e-05 0.00087918411 0.032602083 0.12890507
13440000000 0.079643197 0.044304539 0.00029286684 0.00097774621 0.00037807476 0.0013252173 0.03479116 0.1387347
13450000000 0.078466639 0.038570859 0.00059843255 0.00035860453 0.00092835585 0.00034712814 0.051117498 0.14657803
13460000000 0.080485217 0.035907533 0.00029519969 -0.00025209607 0.00035253703 -0.00074398267 0.07424067 0.14547934
13470000000 0.075775675 0.031509243 0.00046652154 0.00059114821 0.00032703966 0.0002698914 0.085738897 0.1331962
13480000000 0.076002836 0.030555876 0.00096230349 -0.00027281011 0.00043893713 -5.4661374e-05 0.080484778 0.11453459
13490000000 0.068223424 0.029361285 0.00029794261 -0.00067057455 0.00054127374 -0.00030236351 0.057707217 0.10028516
13500000000 0.070222497 0.027117353 8.7407672e-05 -4.626294e-05 0.00039582662 -0.00010756266 0.038809456 0.10243522
13510000000 0.064935163 0.023623517 0.00089746132 -0.00093182758 0.000884498 -0.0013711605 0.036845155 0.11207108
13520000000 0.068183757 0.02413707 5.1171897e-05 -0.00074627902 -0.0002438825 -0.00071655237 0.049078181 0.12432111
13530000000 0.064665504 0.018079674 -0.001011609 -0.00079263432 -0.00099852029 -0.00041921146 0.065301724 0.12703066
13540000000 0.066217341 0.017531449 -0.00076821685 -6.6537381e-05 -0.00027892622 -0.00013238974 0.07580667 0.11493602
13550000000 0.063933499 0.011334278 -0.00051002076 0.00011782744 -0.0004227992 2.4592009e-06 0.069236539 0.096932761
13560000000 0.061143115 0.012737308 -0.00049371284 -9.6764372e-05 -0.00064659014 -0.00020976382 0.054033909 0.08435341
13570000000 0.057851698 0.01354407 -0.00083778636 1.9248546e-05 -0.00095412566 1.8005812e-05 0.042239919 0.08743374
13580000000 0.056499738 0.016908776 -0.00061026018 0.0012166987 -0.00074271951 0.0012717353 0.040974848 0.099233054
13590000000 0.054386623 0.01651882 0.00035244724 0.00086364377 0.00050261774 0.00081623794 0.049747318 0.10836875
13600000000 0.052097067 0.017768916 0.00066902826 0.00055749092 0.00051931466 0.00035078582 0.058438987 0.10766473
13610000000 0.050697047 0.012948638 -8.7941095e-05 0.00054987287 -0.00012574552 0.00049687817 0.06066674 0.097063065
13620000000 0.047299013 0.015778342 0.0012216147 -0.00013199687 0.0013360549 0.00036372652 0.051494703 0.084173962
13630000000 0.04542451 0.0086177681 0.00014562024 -0.00049918814 0.00027149179 -0.00076168031 0.038965244 0.081988089
13640000000 0.039931506 0.013177734 -0.00014462192 -0.00011612014 0.00026522719 -9.7250027e-05 0.033404481 0.090258926
13650000000 0.042549219 0.0064709643 0.00059486972 0.00055033597 0.00052215729 0.00011671148 0.039531082 0.10002602
13660000000 0.039432347 0.010900376 0.0010059157 -0.00032876682 0.00068556011 -0.00021383152 0.050265066 0.10189752
13670000000 0.042533208 0.011352671 0.00064556929 -0.00087381847 0.00093869836 -0.00061287731 0.060217313 0.090055034
13680000000 0.0444047 0.013294828 -0.00080439175 -0.0017706329 -0.00053950353 -0.0020657789 0.054601114 0.07236395
13690000000 0.043737195 0.013264947 -0.0013198783 -0.00025200739 -0.0015565581 -0.00028353889 0.043041695 0.070854336
13700000000 0.045802798 0.015570214 -0.00053318567 0.00092151732 -0.00097253115 0.0010241658 0.032442331 0.079323158
13710000000 0.04297613 0.013331498 0.00014058608 0.00020555171 0.00042983642 0.0005491933 0.028118437 0.098102048
13720000000 0.038991019 0.017757576 -4.5093839e-07 -0.00064504927 0.00052918709 -0.0004052585 0.038396493 0.11222126
13730000000 0.04012436 0.013822149 -0.0010361624 -0.00017628464 -0.00084315595 -0.00053219829 0.058953319 0.10899533
13740000000 0.034488693 0.01739982 -0.0012864282 0.0009223239 -0.0017274526 0.00060646277 0.070979945 0.083679467
13750000000 0.037335008 0.01493836 -0.00056822214 0.0014887422 -0.0007992069 0.0017437981 0.06261225 0.061904706
13760000000 0.036024507 0.014276494 0.00092026236 0.0015861451 0.0015725574 0.00190378 0.043023091 0.057855517
13770000000 0.038710281 0.01041501 0.0020017282 0.00015796459 0.0023104865 -0.00052725564 0.024993801 0.073125377
13780000000 0.038988266 0.010880915 0.00067024655 -0.0014889388 -0.00021077675 -0.0017435792 0.020703839 0.098547913
13790000000 0.043737531 0.0091596823 -0.00055566482 -0.00046115866 -0.0010104764 5.610699e-05 0.040690869 0.11507124
13800000000 0.042035379 0.0072201719 -0.0003833251 0.00071496487 -5.9911799e-05 0.0010580866 0.06910827 0.10312501
13810000000 0.044773336 0.0078180293 0.0011153085 0.00061085529 0.0015342165 0.00063230633 0.083298728 0.076128922
13820000000 0.042784147 0.0072451998 0.0016922719 -0.001037951 0.001518617 -0.0017182163 0.07789658 0.055150308
13830000000 0.043998305 0.009058224 7.071672e-05 -0.0017049898 -0.0005086186 -0.0014714354 0.056639463 0.046639491
13840000000 0.042750224 0.0077048233 -0.0013148991 -0.0010898362 -0.0014471496 -0.0004349142 0.029528217 0.059445076
13850000000 0.041824732 0.0058203554 -0.0011144327 0.0001619184 -0.00077206257 8.3770923e-05 0.025418352 0.087624341
13860000000 0.041490186 0.0029003047 -0.00034830128 0.00090000796 -0.00026904378 0.00035632672 0.046241969 0.099905759
13870000000 0.038946994 -0.0014267694 0.00041900782 0.00025922238 0.00021672438 -0.0001170705 0.073779479 0.088748306
13880000000 0.03936398 -0.0019134693 -0.00026681754 -0.00082230847 -0.00076832442 -0.00043610204 0.089026712 0.066693485
13890000000 0.041399755 -0.0069432845 -0.0011617418 7.5727003e-06 -0.00097501214 0.00030128716 0.083776027 0.042344227
13900000000 0.039394811 -0.0092142662 -0.0011473165 0.0013490128 -0.00080713962 0.0010471842 0.06223359 0.033464223
13910000000 0.04192806 -0.012065546 0.00059038686 0.001672174 -7.0273527e-06 0.0016048823 0.038098834 0.041853838
13920000000 0.038800653 -0.012274398 0.0012670041 0.0010185729 0.0015753249 0.0011043218 0.035210013 0.059095606
13930000000 0.041566439 -0.012816845 0.0014568068 -0.00087755162 0.0015800864 -0.00069607497 0.054147668 0.071730979
13940000000 0.03603315 -0.014918897 -0.00014455737 -0.0009894704 -0.00012800618 -0.0009288718 0.078240268 0.064739361
13950000000 0.035421591 -0.013218007 -0.00077853672 0.00051096163 -0.00046835034 9.8733544e-05 0.087840706 0.045726143
13960000000 0.029869687 -0.01804517 0.0011170954 0.0010221084 0.0008614579 0.00095450965 0.07798785 0.026690025
13970000000 0.025727022 -0.017949691 0.0013271557 -0.0006189791 0.001003786 -0.00047841689 0.055815898 0.021553332
13980000000 0.023588698 -0.021540282 0.00018297724 -0.0016862843 0.00076685462 -0.0014960833 0.041115295 0.028321233
13990000000 0.021789905 -0.024830652 -0.00074214756 -0.00095231808 -0.00097232015 -0.0014261509 0.040802453 0.041769855
14000000000 0.017767079 -0.030489724 -0.00089903298 -5.973213e-05 -0.0011200039 -0.00028620771 0.054589134 0.047427297
14010000000 0.018944966 -0.032955818 -0.00042789019 -0.00011576083 -0.00086281169 0.00042795384 0.068076536 0.040681124
14020000000 0.014473017 -0.038674545 -0.00051316503 0.00030314672 7.3257659e-05 0.00071311253 0.068916112 0.020623093
14030000000 0.015926184 -0.033946969 6.6443623e-05 8.1874146e-05 0.00045085352 -1.955402e-05 0.055757977 0.005754739
14040000000 0.012871348 -0.036467146 -0.00044032047 -0.00034815155 -0.00048916996 -0.00080869388 0.036970954 0.0028982367
14050000000 0.013480389 -0.03116392 -0.00104394 2.426625e-05 -0.0014715025 0.00012473634 0.026713725 0.012820749
14060000000 0.01047398 -0.032673776 -0.00089122215 0.0016698355 -0.00077878567 0.0019959006 0.030895222 0.02771914
14070000000 0.0073251966 -0.030212514 0.00026392523 0.0015633992 0.00087306771 0.0013816224 0.042128365 0.032639612
14080000000 0.0013533155 -0.029033303 0.0018613904 0.00069883052 0.0015188735 0.0003198421 0.053421739 0.022162894
14090000000 -0.00049387664 -0.027875621 0.0010552777 -0.00066777976 0.0007187117 -0.00088121695 0.051531345 5.4473057e-05
14100000000 -0.0086251404 -0.032324411 -0.0002531776 -0.00087595888 -0.00044616847 -0.0004788615 0.035554416 -0.021689242
14110000000 -0.013591949 -0.031123713 -0.0002811795 0.00016161958 0.00020564145 0.00058602192 0.014156452 -0.021361213
14120000000 -0.018811639 -0.033963162 0.00092546293 9.7594137e-05 0.0011705663 -7.2550407e-05 0.0030310196 0.00015386066
14130000000 -0.021412184 -0.029810458 0.0012584054 -0.00024585851 0.0010659407 -0.00076591567 0.0097901961 0.023718253
14140000000 -0.020346474 -0.031569302 -3.9586688e-05 -0.0019035465 -0.00018602071 -0.0016290614 0.028717589 0.032305196
14150000000 -0.021878801 -0.028547335 -0.0010466486 -0.0008194485 -0.0010958086 -0.00056603632 0.044867005 0.015542373
14160000000 -0.019023508 -0.031380735 -0.0010199607 0.00037745721 -0.0008115914 0.00038924281 0.044969637 -0.015119689
14170000000 -0.023513203 -0.02690885 -0.00036714613 0.00022736547 1.9673178e-05 -0.00025541006 0.025464505 -0.036933113
14180000000 -0.022841886 -0.028102901 0.0001193168 0.00016033683 -0.00040125562 8.7392677e-05 -0.0035186615 -0.028748784
14190000000 -0.029380484 -0.020341448 -0.00047984574 -0.0005423862 -0.00089525856 -0.00039168319 -0.019286685 0.0022668778
14200000000 -0.029616266 -0.022918716 -0.00071757589 -5.633157e-05 -0.00067753653 0.00050212984 -0.013302596 0.035679106
14210000000 -0.038733512 -0.014750804 -0.0011053397 0.0013532348 -0.00065798964 0.0011596765 0.010173543 0.042888463
14220000000 -0.037200108 -0.017495798 0.00062248693 0.001154628 0.00057459204 0.00090296997 0.030253675 0.02142703
14230000000 -0.041303631 -0.010728922 0.00073273055 0.00070268812 0.00041557077 0.00064899464 0.032405373 -0.015118444
14240000000 -0.037766434 -0.015172343 0.00051582063 -9.6412259e-06 0.00068205089 0.00022152158 0.0091326591 -0.036582664
14250000000 -0.038865685 -0.011412623 0.00041810196 0.00013874256 0.00072256883 0.00026708533 -0.021004658 -0.02752592
14260000000 -0.037920982 -0.017347379 0.00083129451 0.00026042166 0.0012442362 -0.00013127422 -0.04068736 0.0041997693
14270000000 -0.039590731 -0.011052276 0.00093762204 -0.00042873752 0.00073271291 -0.00084697211 -0.030887563 0.037624724
14280000000 -0.038420606 -0.013543496 0.00065952213 -0.00089777412 2.4394743e-05 -0.00066665962 -0.00034528645 0.043338284
14290000000 -0.039054547 -0.0036918349 -0.00050105923 -0.00087000517 -3.7035526e-05 -0.00032970405 0.024683461 0.020726232
14300000000 -0.037486665 -0.0057855053 -7.2911134e-05 -0.00042109381 -0.0001658101 -0.00080174417 0.0279168 -0.012205228
14310000000 -0.039220907 0.0031730169 -0.00040071807 -0.00034692787 -0.00048557451 -0.00041097743 0.0034303693 -0.031544819
14320000000 -0.039245851 -0.0012063831 -0.00054864137 -0.00011718243 -0.00085865939 9.3224895e-05 -0.030668784 -0.019727934
14330000000 -0.041481823 0.0047757663 -0.00065838685 -0.00018222394 -0.00045986276 0.00016912704 -0.045024514 0.013961798
14340000000 -0.040033918 0.0019464782 -0.00041771843 -0.00012684701 5.4204142e-05 -0.00024577149 -0.031002782 0.038392529
14350000000 -0.040896706 0.0011525769 -0.0010039677 0.00026464634 -0.0012348628 -0.00016417488 -0.00067084748 0.041950505
14360000000 -0.041229315 -0.0014885088 -0.00079919369 0.00064638851 -0.00078447338 0.00090864283 0.025091644 0.017433427
14370000000 -0.040103767 -0.0005732486 0.00024916083 0.001363111 0.00025590416 0.0016364151 0.020082435 -0.013061244
14380000000 -0.039215617 -0.0033032093 0.00051660329 0.0007429471 0.00069116324 0.00052127306 -0.0084156478 -0.024325833
14390000000 -0.037059989 0.0025161877 0.00062056276 0.00025366101 0.00069340749 -3.3148652e-05 -0.03528494 -0.0093658967
14400000000 -0.03367456 -0.0029310733 0.00045707956 -7.8504934e-05 -0.00019953183 -0.0001174112 -0.04179997 0.016291678
14410000000 -0.037245799 0.0048813084 0.00060128811 0.00061362877 0.00070308917 0.0010654002 -0.02064269 0.036270637
14420000000 -0.033850238 0.0048472011 0.0013949673 -0.00035196738 0.0016808073 -4.9428287e-05 0.0090806354 0.033593882
14430000000 -0.036635336 0.0073834346 0.00084916997 -0.0010563175 0.00089878531 -0.0013596195 0.022068789 0.0088215554
14440000000 -0.035159323 0.008165299 -2.9141345e-05 -0.00095432164 3.1428732e-05 -0.001126152 0.0087491227 -0.013011324
14450000000 -0.037197966 0.0062634731 -0.00061161694 -0.00090280431 -0.00079222955 -0.00094251178 -0.018929105 -0.02248076
14460000000 -0.04088321 0.0037494488 -0.00062959391 -0.00022047145 -0.00069661159 8.687505e-05 -0.042927817 -0.010822261
14470000000 -0.042942129 0.00024826638 -0.00034884387 8.8411063e-05 -0.00013420254 0.00022178401 -0.042409182 0.01396108
14480000000 -0.044741757 -0.0012470838 -0.00046849204 -0.00017129464 -0.00030846643 -0.00068872026 -0.017115366 0.029623883
14490000000 -0.046875644 -0.0013508257 -0.000354527 -0.00015734829 -0.00062460237 -0.00038495136 0.010245298 0.022553839
14500000000 -0.042126421 -0.00062359346 -0.00065206201 7.7792705e-05 -0.0011738316 0.000440704 0.015812771 -0.0016794928
14510000000 -0.04429042 -0.001742213 -0.00052541931 0.00036265311 -0.00022083834 0.0010644339 -0.00011680275 -0.02476324
14520000000 -0.040147055 -0.00056999829 -0.00076640362 0.00040200044 -0.00036066934 0.00049840345 -0.028999299 -0.034534812
14530000000 -0.04147971 -0.00012924895 -0.00013592804 0.0013154189 -0.00024272993 0.00070930587 -0.050632291 -0.018738041
14540000000 -0.039146222 0.00077466108 0.00067432167 0.00093079178 0.00026605235 0.00090645382 -0.044542536 0.010450445
14550000000 -0.044752214 0.00060026161 0.00075690425 -3.67022e-05 0.00073256111 0.00086516957 -0.018891359 0.025381688
14560000000 -0.04774138 0.0025381669 0.0007617923 0.00023904454 0.0011728089 5.2864183e-05 4.5428984e-05 0.01627622
14570000000 -0.055057358 0.00068125059 0.00069778535 -1.9996149e-05 0.00091153558 -0.00082149659 0.0020667906 -0.0067055169
14580000000 -0.057023026 0.0046780678 0.00078494096 -0.00048500893 0.00040692452 -0.00085523934 -0.015610171 -0.032533504
14590000000 -0.061362341 0.0027584322 0.00075483468 -0.0010458509 0.00018442096 -0.00054502522 -0.044768281 -0.044342037
14600000000 -0.059767641 0.0045137927 -0.0005341635 -0.00087629666 -0.00014050782 -0.00023166728 -0.066012621 -0.026723418
14610000000 -0.061374038 0.0019373726 -0.00027975775 -0.00052779011 8.5060339e-05 -0.00078110292 -0.060391586 0.0044545177
14620000000 -0.058632847 0.0026918594 -0.00023713465 -0.0002143336 -0.00058168301 -0.00076992699 -0.038229536 0.021398693
14630000000 -0.062586255 0.0010734741 -0.00066177768 -0.00084573694 -0.00082523545 -0.00046520977 -0.017172534 0.01541274
14640000000 -0.059293516 0.0059358906 -0.00076906424 8.3765699e-05 -0.00055620092 0.00066851638 -0.013639471 -0.0095698424
14650000000 -0.063288487 0.0052262298 -0.00074576621 0.00022718191 -0.00048443317 9.7204029e-05 -0.029641688 -0.03867729
14660000000 -0.065382183 0.010516183 -0.00042957522 0.00059690874 -0.00011456855 0.00010948937 -0.060974605 -0.047056135
14670000000 -0.071863137 0.012932431 -0.00046613856 0.00042582012 -0.00069383177 0.0004016475 -0.084869891 -0.023525909
14680000000 -0.071774453 0.018354798 -4.6381101e-05 0.0003374886 -0.00014999631 0.00055428123 -0.082014114 0.010191754
14690000000 -0.07879971 0.019718317 0.00011928924 0.00097422372 -1.982355e-05 0.0010445527 -0.061492763 0.027020626
14700000000 -0.076931745 0.026208902 0.00021212873 0.00065603876 0.00055867538 0.00072705391 -0.039949063 0.019733248
14710000000 -0.077211373 0.022285968 0.0010629097 0.00049142446 0.000921208 0.00034442695 -0.030296255 -0.0077963178
14720000000 -0.07732939 0.024834165 0.00087398378 0.00029847014 0.00089980499 0.00031657418 -0.045549426 -0.035845868
14730000000 -0.075744182 0.021651007 0.00093862775 -0.00078523887 0.0010885383 -0.00063750416 -0.078903168 -0.03694801
14740000000 -0.077570193 0.023554809 0.00021327153 -0.0008620607 0.00026795449 -0.00061613449 -0.10180376 -0.011253502
14750000000 -0.077922702 0.026765065 1.4579215e-05 -0.00074023858 0.00043790185 -0.0010594211 -0.098844096 0.022466127
14760000000 -0.076819837 0.032130998 4.5937501e-05 -0.00045407243 -0.00016589632 -0.00090366765 -0.077895075 0.040909246
14770000000 -0.081189148 0.037842155 -0.00037898569 -0.00072803616 -0.0006547356 -0.00055316929 -0.049077719 0.031978481
14780000000 -0.076645784 0.047319323 -0.00092433352 -0.00051241496 -0.0005913669 -0.00020206065 -0.03965015 0.0027185217
14790000000 -0.077533849 0.049976014 -0.00067096879 4.5939894e-05 -0.00057520694 -0.00045663939 -0.059941094 -0.017760964
14800000000 -0.073915593 0.056259714 -0.00042856918 -5.7349476e-05 -0.00073765893 -2.1801679e-05 -0.091310091 -0.013909973
14810000000 -0.07410311 0.053890653 -0.00058030977 0.00047719493 -0.0010194405 0.00082720263 -0.11424573 0.011180341
14820000000 -0.074757859 0.056249447 -0.00064374408 0.00062145485 -0.00024155912 0.00093616889 -0.11128715 0.043902457
14830000000 -0.076201126 0.05144725 5.0009956e-05 0.00048273819 0.00025806055 0.00030581592 -0.081723616 0.057123382
14840000000 -0.078257419 0.054340784 -1.1309821e-05 0.00048687556 0.00024064738 0.0001711853 -0.049492016 0.042567022
14850000000 -0.07493148 0.054665651 -0.00016402826 0.00067613815 -0.00057346298 0.00053548865 -0.043700244 0.016365716
14860000000 -0.073850341 0.0599472 0.00034072739 0.0013577651 0.00039526873 0.0019561159 -0.065596126 0.0011591092
14870000000 -0.066567175 0.063810572 0.0011878118 0.00055741053 0.0017139448 0.00040224224 -0.095417917 0.010074463
14880000000 -0.060300872 0.068767786 0.0017081769 -0.0003278752 0.0014609068 -0.001050847 -0.11394288 0.037311647
14890000000 -0.053432487 0.06977383 0.00028351479 -0.0011593611 1.3973389e-05 -0.0013247021 -0.10081389 0.064219333
14900000000 -0.047909223 0.072050691 0.00023842737 -0.00065570977 1.2476914e-05 -0.00024460925 -0.069259398 0.070275001
14910000000 -0.045761954 0.071049213 -1.3310797e-05 -0.00089885428 0.0003047291 -0.00059625413 -0.042388037 0.055289291
14920000000 -0.049119189 0.071335331 -0.00013282496 -0.00089720642 -3.2337564e-05 -0.0011245969 -0.041070841 0.029563146
14930000000 -0.050608195 0.070892595 -0.00073323562 -0.00056664186 -0.00087395828 -0.00062827213 -0.067833893 0.018632364
14940000000 -0.054600514 0.074745104 -0.0015636391 -0.0004889578 -0.0016169857 -0.0002116746 -0.09680602 0.031284038
14950000000 -0.052614342 0.074778907 -0.0006030426 0.00085167011 -0.00048471143 0.00084188231 -0.10282275 0.055103965
14960000000 -0.050733112 0.07775075 -0.00046719477 0.00032448955 -0.00037302409 0.00034920449 -0.082779698 0.073372617
14970000000 -0.040333696 0.074517682 -0.0002014905 0.00043353226 -2.8526782e-05 0.00035890506 -0.04883711 0.074869148
14980000000 -0.039415773 0.069767103 -0.00028917228 0.00088522205 -9.31635e-05 0.0004964805 -0.026651319 0.054301362
14990000000 -0.029259972 0.064453855 0.00045753858 0.00060520286 -5.3693671e-05 0.00053471618 -0.035556614 0.033301815
15000000000 -0.031682428 0.061144836 9.128097e-05 0.00020085924 -8.9622306e-05 0.00089342927 -0.063728593 0.026200488
15010000000 -0.024825681 0.058113508 0.00056290644 0.000404491 0.0011493022 0.00030711858 -0.0876927 0.041214433
15020000000 -0.031379431 0.057842992 0.00060897449 0.00018082926 0.00087811262 -0.00020720027 -0.087586716 0.062602051
15030000000 -0.028376235 0.061087746 0.0007106358 0.00041810126 4.9521434e-05 0.00025603117 -0.063904077 0.077709764
15040000000 -0.03324629 0.064792521 0.0011162556 -0.00086703262 0.00084243104 -0.00024370858 -0.033683077 0.0750608
15050000000 -0.027168129 0.065430924 0.00030858233 -0.00089857681 0.00089545362 -0.00046514531 -0.017817441 0.05225629
15060000000 -0.02959553 0.06782712 -0.00043498821 -0.0007483128 0.00022272358 -0.0014252978 -0.033684336 0.026046943
15070000000 -0.022056574 0.060490362 -0.00015312372 -0.00078601216 -0.00085681141 -0.0012756978 -0.066638343 0.020745091
15080000000 -0.029220974 0.055621933 -0.00091485446 -8.8386063e-05 -0.0014431818 0.00044830822 -0.08504197 0.034872584
15090000000 -0.024940908 0.050513715 -0.00035863629 1.8180333e-05 2.8897979e-05 0.00031301018 -0.081605524 0.056248881
15100000000 -0.031708088 0.044805679 -0.00045838329 0.0001561667 -0.00025632422 0.00014105841 -0.057193276 0.072935119
15110000000 -0.030691341 0.0442826 -0.0002565285 -5.8716843e-05 -0.0001895516 -0.00062935584 -0.026381532 0.068178467
15120000000 -0.035249136 0.043347236 -0.00045523272 0.00053214311 -0.0011382073 0.00050752168 -0.015927015 0.044456795
15130000000 -0.03332381 0.046870545 -0.00021326214 0.00014853291 -2.72326e-06 0.0009487744 -0.03519401 0.021311793
15140000000 -0.034500469 0.051450949 8.8558765e-05 0.00045953784 0.00054932787 0.00059275731 -0.064391658 0.015020899
15150000000 -0.027265206 0.052028131 0.00026905458 0.00069476455 0.00063749054 0.00021832522 -0.087634869 0.028489681
15160000000 -0.030790806 0.05217715 0.0010585731 -0.00028546058 0.00054020411 -0.00051069102 -0.08864636 0.055743054
15170000000 -0.025457291 0.050573263 6.8867608e-05 -0.00011327935 -0.00030942145 0.00015424396 -0.067016274 0.074437529
15180000000 -0.034404613 0.047240052 -0.00038277323 0.00012678956 0.00014583656 0.0002941812 -0.040179767 0.070116788
15190000000 -0.034006998 0.048041333 7.4538075e-06 0.0006677229 0.00034890062 0.00031716077 -0.031778533 0.045616597
15200000000 -0.041983306 0.045771725 0.001370062 0.00066017098 0.00066899462 7.4823125e-05 -0.044100948 0.020496096
15210000000 -0.043500021 0.048702255 0.0012113299 -0.001274714 0.00070939225 -0.0006782937 -0.070655018 0.013775079
15220000000 -0.045354951 0.051025026 -5.2295043e-05 -0.0015114287 0.0003069402 -0.0010850388 -0.091808662 0.029430967
15230000000 -0.043960646 0.055320527 -0.0011396776 -0.00068989745 -0.00073924352 -0.00086666091 -0.093744949 0.057265308
15240000000 -0.038957972 0.056708682 -0.00088371593 0.00030354946 -0.0010699269 -0.00024627786 -0.078046091 0.080121323
15250000000 -0.033577871 0.058127798 -0.00016715692 0.00061362732 -0.0005437645 0.00062734075 -0.051864009 0.078866735
15260000000 -0.033560451 0.056253776 0.00020871364 3.0876596e-05 0.00020245701 0.00053807412 -0.040453363 0.059368934
15270000000 -0.029701922 0.055966944 -0.00011996301 -0.00020577885 0.0002892061 -0.00020518526 -0.049084913 0.03729647
15280000000 -0.033986654 0.05455067 -0.00090299069 -0.00016249166 -0.00074701977 -0.00053720531 -0.072988659 0.033007871
15290000000 -0.033865657 0.059601072 -0.00036928087 0.00055796036 -0.00084853586 0.0004656502 -0.095633715 0.052179739
15300000000 -0.039050844 0.058397632 -0.0003439752 0.00063219736 -0.00059238489 0.00090205204 -0.097890899 0.079189107
15310000000 -0.036975812 0.066611379 0.00091493368 0.00035543647 0.00086750084 0.00064024911 -0.078965113 0.093749657
15320000000 -0.03707397 0.065759197 0.0002606718 -0.00025142217 0.00063738786 -5.3138356e-05 -0.056298375 0.084876962
15330000000 -0.031878896 0.072448216 0.00017211787 -0.00017046704 -0.00011705101 -0.00072209764 -0.045558307 0.06601721
15340000000 -0.026079524 0.068868138 -0.00020872527 0.00028598536 -0.00029191127 0.00045958333 -0.051084913 0.054349024
15350000000 -0.021267889 0.06768994 0.00033939147 0.00073861086 0.00036896922 0.0011560557 -0.067837723 0.056988664
15360000000 -0.018457228 0.060252763 0.0014622905 0.00017538026 0.0018018634 0.0002700467 -0.084130011 0.077906355
15370000000 -0.016339917 0.060260545 0.00076736871 -0.0011649921 0.001178355 -0.0018926032 -0.081446841 0.10287023
15380000000 -0.019282429 0.055982951 4.6696514e-06 -0.0015240791 -0.00096440845 -0.0018860181 -0.060247038 0.10865438
15390000000 -0.018630285 0.061071333 -0.0014713428 -0.00088243291 -0.0016330824 -1.4865393e-05 -0.040708452 0.094588086
15400000000 -0.017495669 0.06003949 -0.00095322967 0.00053233706 -0.00031462911 0.00082706788 -0.035396099 0.074465856
15410000000 -0.015552414 0.066508472 7.8683908e-05 0.00098786585 0.00018124927 0.00053819624 -0.046054695 0.065307371
15420000000 -0.0097461231 0.065392002 0.00061513076 -0.00063123804 0.0002105349 -0.00070797867 -0.066106625 0.072143398
15430000000 -0.0017003901 0.065711081 -0.00083778938 -0.00095818652 -0.0012573504 -0.00069821201 -0.078505486 0.095065355
15440000000 0.00020792894 0.056066871 -0.0013468978 0.00054263079 -0.00093208207 0.0011265016 -0.062741473 0.11719812
15450000000 0.0044572018 0.052431252 -0.00029916008 0.0020978337 7.4875599e-05 0.0016805013 -0.031677764 0.11405834
15460000000 0.0013685254 0.042102709 0.0011630716 0.0011455431 0.0013657006 0.00085720443 -0.0073637376 0.093378685
15470000000 -0.0016718121 0.04286157 0.0012046171 -0.00062700332 0.00073166145 -0.00098930404 -0.0063612689 0.069536053
15480000000 -0.0020564254 0.040647641 -0.00029443833 -0.0011811662 -0.00067903107 -0.00058124011 -0.028561715 0.059267838
15490000000 -0.00038543157 0.044033431 -0.00087785063 0.00031412009 -0.0002570962 0.00067473447 -0.056859843 0.076782763
15500000000 0.0020349585 0.042071201 0.00011310441 0.0013234926 0.00019087651 0.00085954531 -0.062371843 0.10628976
15510000000 0.0081236158 0.043926284 0.0014485748 0.00065573212 0.0013487545 0.0003112125 -0.04161891 0.12729841
15520000000 0.011637981 0.037773304 0.0018394485 -0.0011955593 0.0011375428 -0.0010295461 -0.0058626644 0.12345619
15530000000 0.013473636 0.032379191 -0.00034935167 -0.0022399875 -0.00014510989 -0.0015875048 0.017728755 0.093752086
15540000000 0.011916528 0.023559136 -0.0018236976 -0.00071735278 -0.0011993441 -0.0009778057 0.0090318834 0.062487911
15550000000 0.0097503997 0.018240672 -0.0013278363 0.0010032679 -0.0016382445 0.0004111242 -0.022193402 0.048801422
15560000000 0.0013015759 0.014108257 0.00015237124 0.00089558959 -5.9920014e-05 0.0010868843 -0.050224632 0.065202191
15570000000 0.0020095664 0.013940535 0.00049801101 0.00010753715 0.00052394153 0.00045281794 -0.050785229 0.093787462
15580000000 -0.0012679342 0.011966771 0.00032205496 -0.00076314947 0.00058482972 -0.00057009858 -0.02671783 0.11469045
15590000000 0.0026205545 0.011367937 -0.0010953089 -0.00023725891 -0.00093264692 -0.00066999154 0.0083999448 0.115054
15600000000 0.0034178947 0.0090086795 -0.00094149733 0.00074024231 -0.0013789875 0.00062461523 0.029338116 0.088276453
15610000000 0.0069876555 0.0038497229 0.00016385192 0.0013963375 6.6465211e-05 0.0015974082 0.020158095 0.054478623
15620000000 0.0058609424 -0.00029697083 0.0014277243 0.0006744737 0.001566442 0.00092672918 -0.013030552 0.04054188
15630000000 0.0049874289 -0.0077724541 0.0011870186 -0.0010734774 0.0014662646 -0.0010607458 -0.037408032 0.054558329
15640000000 -0.0016335088 -0.0093540717 -0.00055081397 -0.0010811312 -0.00075866218 -0.001578151 -0.03995619 0.080894932
15650000000 -0.0051422478 -0.014811961 -0.00099391711 0.00027225903 -0.0014610571 0.00054362416 -0.020446371 0.10111881
15660000000 -0.01268117 -0.011091355 -1.9662752e-05 0.0012612562 0.00020430092 0.0015838159 0.0063213855 0.10081469
15670000000 -0.014963262 -0.014673218 0.0015276627 0.00042963101 0.0019952012 0.00049445522 0.021915657 0.074823104
15680000000 -0.017390152 -0.011838142 0.00091087318 -0.0013223825 0.00094784313 -0.0019756891 0.011922001 0.043223623
15690000000 -0.017437125 -0.017911971 -0.0004444558 -0.0014351674 -0.00095628144 -0.001533946 -0.010032529 0.031807002
15700000000 -0.018055368 -0.018350339 -0.0013837205 -0.00010377634 -0.0016282263 0.00035868061 -0.028479189 0.043425679
15710000000 -0.019867212 -0.026361674 -0.00052258617 0.00084323413 -0.00019084645 0.00085623906 -0.029466636 0.07265278
15720000000 -0.020801231 -0.028168051 0.00011633869 0.00065141101 0.00033607343 0.00024665581 -0.01203993 0.093241803
15730000000 -0.027596302 -0.035070676 0.00055582594 -0.00060886261 0.00033927165 -0.00036502257 0.0054866895 0.088271402
15740000000 -0.028708071 -0.031434946 -0.00061859062 -0.00048708316 -0.00033067554 -0.0006809723 0.012310845 0.061806995
15750000000 -0.0358225 -0.034627143 -0.00097099267 0.00025368921 -0.0011182613 0.00010262018 0.00030266971 0.037448544
15760000000 -0.036213614 -0.028647725 9.4971387e-05 0.00098863628 3.1566393e-05 0.0011105448 -0.018433284 0.03186873
15770000000 -0.04077857 -0.031871989 0.0006791678 0.00040261936 0.00068304443 0.0007033908 -0.03387009 0.051573239
15780000000 -0.039600838 -0.026598517 0.0011446705 -0.0003434091 0.0012018344 -0.0002571783 -0.030427171 0.080148682
15790000000 -0.046850748 -0.03138585 2.0674954e-05 -0.0011283794 0.00010544783 -0.0015452958 -0.012425248 0.091577746
15800000000 -0.045308631 -0.031131087 -0.0013930936 -0.00017521798 -0.001526817 -0.00011211459 0.004246613 0.076384164
15810000000 -0.055504173 -0.036034245 -0.00059875974 0.0011721946 -0.00067798846 0.0015286263 0.0069919336 0.047517195
15820000000 -0.053008009 -0.0364899 0.000826523 0.0012099325 0.0012500999 0.0010401016 -0.0061383033 0.02700025
15830000000 -0.060855072 -0.042562008 0.0018540779 -0.00074172433 0.0016540242 -0.00099022756 -0.028269749 0.0308384
15840000000 -0.060894616 -0.039740417 -0.00027561336 -0.00158977 -0.00028494786 -0.001680312 -0.040786833 0.061910797
15850000000 -0.067750812 -0.044449855 -0.00097849336 -0.00038312213 -0.0014408207 -0.00016785687 -0.033137593 0.093599662
15860000000 -0.06459675 -0.037919089 -0.00093724596 0.00084452156 -0.0004280392 0.0014082741 -0.0082036853 0.099745631
15870000000 -0.067303456 -0.042190425 0.00063699146 0.00072699448 0.0006118099 0.00034549661 0.013784632 0.080518782
15880000000 -0.065117292 -0.035919935 0.00099398149 -0.00029593051 0.00099621434 -0.00048501528 0.017470077 0.047227722
15890000000 -0.066242509 -0.039465345 0.00010943002 -0.0014586202 -0.0003975525 -0.0012753607 -0.0022069493 0.024687104
15900000000 -0.068136454 -0.037252195 -0.0012300179 -0.00032555856 -0.00091476849 -0.00010945498 -0.036206577 0.036799438
15910000000 -0.072083183 -0.040365145 -0.0010467699 0.00084503356 -0.00087856723 0.00099223282 -0.048880644 0.070186913
15920000000 -0.075556442 -0.042341471 0.00039002267 0.0012545916 0.00062045216 0.00071471615 -0.033666551 0.10088982
15930000000 -0.084048808 -0.044398155 0.0010268741 0.00021019264 0.00067830755 0.00023051446 -0.0022773892 0.10905725
15940000000 -0.086341336 -0.044165712 0.00037852381 -0.0012975701 0.00045438649 -0.0011412904 0.030687496 0.089163885
15950000000 -0.09348163 -0.04653208 -0.0012062448 -0.00068329647 -0.001041902 -0.00057402137 0.034743268 0.053155191
15960000000 -0.093722552 -0.044534359 -0.00098946458 0.00074780808 -0.0010450453 0.00076846336 0.0043329378 0.030393861
15970000000 -0.092418291 -0.047982246 0.00037672871 0.0017050037 0.00035639075 0.0013856993 -0.031273697 0.042800371
15980000000 -0.091088116 -0.050323658 0.0016101612 0.00021134759 0.0014268812 0.00037348235 -0.047714621 0.071746111
15990000000 -0.092177905 -0.054057948 0.0011509163 -0.0012245749 0.0010641168 -0.00096573093 -0.031276371 0.10178145
16000000000 -0.093015492 -0.055142168 -0.0010001528 -0.00096870173 -0.00047068787 -0.0009646531 0.0071558096 0.11137696
16010000000 -0.09787482 -0.061032727 -0.00028285049 0.00051990466 -0.00071082741 0.00025205198 0.039619528 0.090893835
16020000000 -0.10350765 -0.057590194 0.00035398055 0.00018680011 0.00026897574 0.00021256262 0.041706361 0.055572189
16030000000 -0.11070157 -0.060557973 0.00042707703 -0.00029846921 0.00037483172 3.8750924e-05 0.011911225 0.033586346
16040000000 -0.1180869 -0.053569399 -0.0004663241 -0.00069113076 0.00030625548 -0.00079556135 -0.020238955 0.03787303
16050000000 -0.12067252 -0.055133522 -0.00055356167 -0.00027029234 -0.00090635242 -0.00066830969 -0.030915372 0.064245179
16060000000 -0.12495182 -0.054953072 -0.00057671964 0.00012344205 -0.00089852582 0.00025763403 -0.010800861 0.092766047
16070000000 -0.12598047 -0.061084308 -0.00013238842 0.00052582903 4.1422463e-05 0.00074895425 0.02464693 0.10405274
16080000000 -0.13262883 -0.064102523 -7.228092e-05 0.00052348903 0.00015850176 0.00044474896 0.050252847 0.086300313
16090000000 -0.1349224 -0.070480809 0.0006078977 -1.3089026e-05 0.0006381587 -0.00013829023 0.043094434 0.055098526
16100000000 -0.1434377 -0.073515363 5.0193528e-05 -0.00059461454 -0.00021949585 -0.00046359593 0.014892494 0.034938175
16110000000 -0.14851163 -0.075065553 -0.00069465674 -6.4026128e-05 -0.00070928002 5.906132e-05 -0.01341571 0.036567196
16120000000 -0.1557692 -0.07306011 -0.00023361365 0.00097085582 -2.322928e-05 0.00098816305 -0.01904618 0.059976019
16130000000 -0.15958235 -0.070202515 0.00087723474 0.00059368607 0.00087114563 0.00054521387 0.0023682825 0.086788088
16140000000 -0.16613801 -0.066346325 0.00095058745 -0.00069424271 0.001013884 -0.0009192272 0.035830751 0.090787441
16150000000 -0.16815415 -0.065655373 -0.00026687776 -0.00067011535 -0.00064529607 -0.00065184367 0.052233927 0.067141794
16160000000 -0.17593978 -0.065002158 -0.00053137494 -6.6345587e-05 -0.00048321087 0.0002662304 0.039754212 0.03385631
16170000000 -0.18141709 -0.066287816 0.00022557018 0.00058252987 0.00030818355 0.00062768441 0.011542296 0.017453006
16180000000 -0.19425198 -0.069220982 0.00063589448 -7.3043484e-05 0.00083771965 -0.000291062 -0.010264712 0.029624555
16190000000 -0.20061576 -0.070081115 0.00081002142 -0.00095004297 0.00035473728 -0.0011725867 -0.0069899894 0.062198076
16200000000 -0.21386707 -0.071422614 -0.0011086788 -0.001179067 -0.0012744432 -0.00093377789 0.017445996 0.085023448
16210000000 -0.2185006 -0.071032569 -0.0012182966 0.00021972466 -0.00084580807 0.00042691719 0.042485032 0.08347553
16220000000 -0.2299868 -0.066388644 -0.00064798747 0.0010288807 -0.00054345105 0.00080792862 0.050525576 0.053305253
16230000000 -0.22776569 -0.064008422 0.00057255808 0.00052585773 0.00057930895 0.0004599739 0.032288246 0.018793672
16240000000 -0.23684284 -0.059815858 0.00075424043 7.6362485e-06 0.0007032844 -5.6930578e-05 -0.00032464729 0.0057022269
16250000000 -0.23560973 -0.059251331 6.7424844e-05 -0.00085219898 4.7109279e-05 -0.00063585496 -0.020916406 0.02605159
16260000000 -0.24792707 -0.055232376 -0.00099077018 -0.00023554184 -0.00079944998 -0.00042274239 -0.016097793 0.06108664
16270000000 -0.2517094 -0.04977829 -0.00086670992 0.00069010368 -0.00094300776 0.00056412356 0.0083073601 0.081660397
16280000000 -0.2660329 -0.045948025 0.00034808478 0.0012064278 0.00036122641 0.0010714947 0.036051549 0.070851244
16290000000 -0.27372956 -0.041608751 0.001384341 0.00055826874 0.001244161 0.00048484147 0.045914844 0.036169808
16300000000 -0.28675246 -0.034478113 0.00080537325 -0.001073698 0.00096958404 -0.00083299365 0.030954821 0.0016183045
16310000000 -0.29364535 -0.031278726 -0.00039462623 -0.0012796499 -0.00034914867 -0.0012565429 -0.0006173799 -0.0021977841
16320000000 -0.30317742 -0.024489097 -0.0010275806 0.00060833449 -0.0010492188 0.00045601896 -0.025960378 0.026190573
16330000000 -0.30614376 -0.023419917 0.00049951416 0.00079976436 0.00024185331 0.00080250035 -0.024420248 0.064164899
16340000000 -0.31270957 -0.018539563 0.0010057199 -3.4230412e-05 0.00088515121 0.00014136278 -0.0040946528 0.083433151
16350000000 -0.31429267 -0.01704713 0.00038687541 -0.0010633273 0.00080998265 -0.0011689371 0.022631979 0.072544798
16360000000 -0.32446155 -0.010097809 -0.00068029528 -0.00087773375 -0.00093482999 -0.0011046283 0.036923785 0.0397067
16370000000 -0.32643953 -0.0025476599 -0.0013327154 -0.0003281743 -0.0014434454 -7.8225981e-05 0.022603737 0.0053368947
16380000000 -0.33650303 0.0054849759 -0.00032330694 0.00085750187 -0.00033831559 0.00092511822 -0.011146598 0.0015612042
16390000000 -0.33878788 0.014618725 8.16799e-06 0.00098109187 0.00014055512 0.00093930977 -0.037984025 0.02660363
16400000000 -0.35074061 0.024512753 0.00112187 0.00035853538 0.00087248813 0.00022818329 -0.041054435 0.060373466
16410000000 -0.35430336 0.033810601 0.00038062417 -0.0010852548 0.00037694539 -0.0011313504 -0.014973985 0.079682514
16420000000 -0.36636287 0.041924223 -0.0010759132 -0.00063887291 -0.0010798596 -0.00039624202 0.020055406 0.071004003
16430000000 -0.36876428 0.048422582 -0.00094158377 0.0011430824 -0.00095728319 0.00092331436 0.035004575 0.042608995
16440000000 -0.37807432 0.054272525 0.00059421989 0.0013442376 0.00058340194 0.0014139941 0.020658329 0.021797596
16450000000 -0.38028491 0.057752952 0.0012489547 -3.8064012e-05 0.0013235038 -0.00010279694 -0.012844479 0.019081263
16460000000 -0.38857991 0.065559797 0.00073243456 -0.001115707 0.00069029431 -0.001112073 -0.043120109 0.038344461
16470000000 -0.38992888 0.06944266 -0.0011153556 -0.0006514939 -0.0012907332 -0.00067452714 -0.044834465 0.069064319
16480000000 -0.39638901 0.080854654 -3.0094991e-05 0.0012099508 -0.0001834209 0.0011995469 -0.016707726 0.085804716
16490000000 -0.39808771 0.087934524 0.00083735446 0.0006005615 0.00085621682 0.00058062124 0.01645913 0.078744426
16500000000 -0.40482903 0.10115538 0.0012754083 -0.0010073064 0.0013857568 -0.0011530515 0.030453557 0.05522494
16510000000 -0.40764999 0.11291755 -0.00026321775 -0.0013473146 -0.00044941582 -0.0013905932 0.014582057 0.030460779
16520000000 -0.4127768 0.12507635 -0.0014523838 -0.00070984254 -0.0014176283 -0.0003550665 -0.019050151 0.023538139
16530000000 -0.41682112 0.13516143 -0.00064493087 0.0011775887 -0.00050318427 0.0011147916 -0.043314118 0.042978197
16540000000 -0.4216896 0.14369988 0.00011588105 0.00061170838 0.00031667721 0.00035608976 -0.035042129 0.073662408
16550000000 -0.42897004 0.14998218 0.0004907226 -0.00026493712 0.00043303304 -0.00015879398 0.0005710274 0.09302073
16560000000 -0.43576148 0.15827291 0.00015837123 -0.00057667482 -0.00015221842 -0.00063565577 0.033095364 0.088492721
16570000000 -0.4408235 0.16532308 -0.00095921539 -0.00033195372 -0.00082891068 -0.000162654 0.041270442 0.064924292
16580000000 -0.44555247 0.1752924 -0.00086584012 0.00091307814 -0.0008407862 0.0010024802 0.018877186 0.038901985
16590000000 -0.44856653 0.18581803 0.00016074631 0.00149814 0.00023201383 0.001223037 -0.018296028 0.030434547
16600000000 -0.45067161 0.19975558 0.0014270216 0.00033952005 0.0013679069 0.0004668106 -0.040737078 0.055357918
16610000000 -0.45030943 0.21310145 0.00076220947 -0.00086402451 0.00061382534 -0.00086402392 -0.025240872 0.088698752
16620000000 -0.45103616 0.22637649 -0.00065457844 -0.00064630498 -0.0002912053 -0.00060506375 0.010497771 0.10332245
16630000000 -0.45304379 0.23946789 -0.00027160344 0.00082987995 -0.0003874859 0.000573945 0.041752577 0.090110019
16640000000 -0.45732355 0.2513496 0.00065471401 0.00077026518 0.00073639106 0.0006951798 0.047087014 0.054174002
16650000000 -0.4650526 0.26486149 0.0012491359 -0.00080054085 0.0011684326 -0.00057699444 0.023449587 0.024385024
16660000000 -0.47050241 0.27845863 0.0001116184 -0.001466124 4.9001683e-05 -0.0014511218 -0.010189315 0.023812946
16670000000 -0.4783828 0.29108125 -0.0010621774 -0.0010534998 -0.00093039172 -0.001077802 -0.025095776 0.053471137
16680000000 -0.48176202 0.30683202 -0.0014193776 0.0001557885 -0.0013670754 -2.4502457e-05 -0.0094171539 0.090244636
16690000000 -0.48413825 0.32006288 -0.00046154059 0.00084086019 -0.00056640065 0.0010084882 0.024682496 0.10682404
16700000000 -0.48404872 0.3349368 0.00021923485 0.00048144255 0.00038091041 0.0005324941 0.054680258 0.088491917
16710000000 -0.48196241 0.34911063 0.0004982375 -0.0002265615 0.00032506528 -0.0001543055 0.056317553 0.046995338
16720000000 -0.47942442 0.36248827 -0.00035584311 -0.00051023375 -8.7647102e-05 -0.00053590769 0.027165174 0.017687395
16730000000 -0.47983217 0.37967747 -0.00089396298 0.00043932139 -0.0010004994 0.00019168622 -0.0099619431 0.022399625
16740000000 -0.47804472 0.39671642 -0.00030939249 0.0012198144 -0.0002250619 0.0013562994 -0.026486745 0.053854808
16750000000 -0.48021543 0.41615421 0.00090962916 0.00058436807 0.00091309834 0.00067714398 -0.013712674 0.087969825
16760000000 -0.47914252 0.43576336 0.0011736189 -0.00024099069 0.0012250136 -0.00025321753 0.023640838 0.094365999
16770000000 -0.47946507 0.45658678 3.7544931e-05 -0.00082681491 0.00013299257 -0.00090415368 0.055549443 0.064547949
16780000000 -0.47608912 0.4756557 -0.00032911563 -6.0732273e-06 -0.0005726433 -1.4040386e-05 0.054288249 0.024292002
16790000000 -0.47317851 0.4943369 8.0419573e-05 0.00030690597 0.0003202208 0.00038379972 0.024376225 0.0046401974
16800000000 -0.46662006 0.50991899 0.00071038917 4.1582782e-05 0.0008536356 -0.00014129018 -0.011550764 0.016909562
16810000000 -0.46115023 0.52648878 0.0006941586 -0.00092306535 0.00068461319 -0.00074102147 -0.030284148 0.052867141
16820000000 -0.45297578 0.54153693 -0.00041598131 -0.00093743752 -0.00054041314 -0.00081290118 -0.013243709 0.083784416
16830000000 -0.44624558 0.56177521 -0.00091374415 -0.00038278714 -0.00093021657 -0.00052203954 0.024704495 0.082486823
16840000000 -0.43629527 0.58037013 -0.00066759775 0.00035630655 -0.00065909198 0.00021022517 0.050702188 0.051639676
16850000000 -0.4275775 0.60394716 -5.2727119e-05 0.00062525761 -0.00021295878 0.00078604586 0.045166746 0.019850032
16860000000 -0.41469133 0.62429649 9.758657e-05 8.2853105e-05 0.00033093445 0.00017279759 0.013598189 0.0094742561
16870000000 -0.40504384 0.64748609 -9.1125228e-05 -0.00020140849 -0.00021355793 -0.00027615533 -0.023430027 0.025141912
16880000000 -0.39172745 0.66618967 -0.00060544012 0.0002564051 -0.00047289909 0.00027501053 -0.040517054 0.057267688
16890000000 -0.38183087 0.68459916 -2.0841806e-05 0.00076223724 -3.6081095e-05 0.00072050618 -0.020070447 0.083942771
16900000000 -0.36990857 0.69949847 0.00059825962 0.00061873673 0.00055320794 0.00061824656 0.019561799 0.078863293
16910000000 -0.35958514 0.71469992 0.00068591849 8.2581304e-05 0.00073493819 0.00010790204 0.042145338 0.05280282
16920000000 -0.34676033 0.72850567 0.00040736236 -0.00034832128 0.00046895281 -0.00041404812 0.035314478 0.025382601
16930000000 -0.33292761 0.74537522 0.00015212259 -0.00017816927 -0.00011853667 -0.00026974286 0.0022375444 0.015020778
16940000000 -0.31417656 0.76102346 6.3139392e-05 -0.00011697275 -4.3841042e-05 7.0196067e-05 -0.036294073 0.031376857
16950000000 -0.29411012 0.77911448 0.00033708828 0.00010053309 0.00047118144 1.7025493e-05 -0.04703366 0.066049226
16960000000 -0.27127206 0.79479074 0.0004982549 -0.00044230619 0.00046245829 -0.00061311183 -0.019204326 0.09006466
16970000000 -0.24906829 0.81153286 -6.7491463e-05 -0.00061868271 -0.00019412412 -0.00079538103 0.01652129 0.086669415
16980000000 -0.22652586 0.82540274 -0.00073770655 -0.00052524998 -0.00074374117 -0.00022868984 0.037191875 0.06494543
16990000000 -0.20675677 0.83999759 -0.00064579921 0.00022419769 -0.0005651656 0.000238077 0.028271563 0.037610658
17000000000 -0.18761617 0.85254121 -0.00029659452 0.00050488976 -0.0001924274 0.000413186 -0.0059339795 0.025257096
