!Keysight Technologies,P9374A,MY57211807,A.19.30.04
!Date: Friday, May 01, 2026 14:24:58
!Correction: S11(C  2-Port  ) 
!S21(C  2-Port  ) 
!S12(C  2-Port  ) 
!S22(C  2-Port  ) 
!S2P File: Measurements: S11, S21, S12, S22:
# Hz S  RI   R 50
13000000000 0.045704126 0.098959818 0.0012420446 0.00037247196 0.0014243515 0.00038081972 -0.0069873109 0.17464736
13010000000 0.049780905 0.10699236 0.00067677436 -0.0010823234 0.00099346309 -0.00086336525 -0.021503352 0.1732468
13020000000 0.048155725 0.10099952 0.00024489363 -0.00089859031 0.00017422219 -0.0011373085 -0.029537216 0.17676032
13030000000 0.050808717 0.10251905 8.8158238e-05 -0.0012783126 -5.4579577e-05 -0.0012206491 -0.033244748 0.18657428
13040000000 0.046967261 0.091833696 -0.0009583722 -0.00045292015 -0.0011111741 -0.00044146134 -0.022141375 0.20034729
13050000000 0.045496918 0.09564016 -0.00054618425 4.5603272e-05 -0.00038280978 8.2905135e-05 -0.004165384 0.19742003
13060000000 0.042321563 0.087178022 0.00011053696 -0.00025533853 0.00047836933 -0.00012603754 0.0027584843 0.18369596
13070000000 0.039734837 0.093366742 -0.00053575425 -0.00038830645 -0.00075488037 -0.00065734144 -0.0041800104 0.16900824
13080000000 0.03817866 0.088789567 -0.0011942955 -0.00014695741 -0.0011517924 6.9213565e-06 -0.014120147 0.16400605
13090000000 0.039464898 0.098413005 -0.0012330009 0.0011227146 -0.0013420369 0.00075591553 -0.023896463 0.1681264
13100000000 0.042980906 0.098371983 -0.00026858947 0.0013727047 -0.00034203782 0.0018983516 -0.02618454 0.18569607
13110000000 0.047936335 0.10359993 0.00098853162 0.0010630226 0.0010975142 0.0012945193 -0.015715275 0.20102274
13120000000 0.050739791 0.095749862 0.0011500379 0.00019088143 0.0011479744 -0.00023307507 -0.00061391015 0.20212597
13130000000 0.050337963 0.099534295 0.00040536243 0.00036606059 3.6269696e-05 -0.00024472704 0.0040809475 0.18780078
13140000000 0.050529845 0.090575598 0.00073129684 -0.00034762721 0.00025427641 0.00050253398 -0.00071923062 0.17581296
13150000000 0.045878313 0.095770508 0.00028859876 -0.0002034965 0.00077686331 7.558128e-05 -0.0055694655 0.16848889
13160000000 0.046590433 0.091999196 -0.0001013492 -0.00060711842 0.00056731945 -0.00069200236 -0.013416179 0.17093638
13170000000 0.043925889 0.095658757 0.00097186683 0.0003481968 0.00058734918 -0.00035704632 -0.014090601 0.18615806
13180000000 0.047871828 0.096292801 0.00057226932 -0.0013273123 -3.3812423e-05 -0.001176441 -0.00096100196 0.19679637
13190000000 0.051967345 0.099012762 -0.00028471099 -0.0014165725 2.4975459e-05 -0.00080383575 0.0094356621 0.19266513
13200000000 0.057443831 0.097677909 -0.0014621271 -0.0010433849 -0.00063294772 -0.001169949 0.012009477 0.18446288
13210000000 0.062464211 0.096882865 -0.0012334881 0.00047170089 -0.0015764101 -0.00029385515 0.014069229 0.1779135
13220000000 0.064958185 0.09079624 0.00025827237 0.00098945398 -0.00052909809 0.0013631603 0.00939776 0.17157653
13230000000 0.06301415 0.089571863 -0.00019016094 -0.00040544523 0.00016029752 -4.8109683e-05 0.0029013231 0.17985453
13240000000 0.06310837 0.088650659 -0.00106504 -5.7412515e-05 -0.00057267869 -0.00040641497 0.01325158 0.19068022
13250000000 0.059793867 0.08936163 -0.00066152913 0.00074136205 -0.00095348107 0.00057667954 0.025620781 0.18835303
13260000000 0.061861023 0.089662135 -7.6371398e-05 0.0014984685 -0.00062420266 0.0014367301 0.029723966 0.18135348
13270000000 0.061859678 0.090368949 0.00047119975 0.0011394158 0.00068092952 0.0017716136 0.028866021 0.17561245
13280000000 0.066859312 0.088154607 0.0014103323 0.00033866335 0.0018421339 0.00055836642 0.024182938 0.16872132
13290000000 0.069606602 0.086436555 0.001294027 -0.00045027776 0.0012286445 -0.00085177965 0.016457051 0.16882783
13300000000 0.075579546 0.082340948 0.00024185191 -0.00043868297 -0.00025632256 -0.00039189999 0.020314738 0.17771666
13310000000 0.077306286 0.075942054 -2.132509e-05 -0.00067371433 0.00051136158 -0.00021812183 0.038722951 0.18046919
13320000000 0.078942277 0.071623079 0.00039439579 -0.00022937443 0.00041319366 -0.00030039443 0.05443624 0.17327116
13330000000 0.077539906 0.068777405 0.00025654302 -5.686755e-05 0.00044749017 -0.00022481647 0.061710864 0.16490445
13340000000 0.078273326 0.069076046 0.00067096599 -0.0013688677 0.00038456306 -0.0013361576 0.055184089 0.15664068
13350000000 0.074933566 0.067384936 -0.0010693244 -0.0011798999 -0.0011362721 -0.0011635814 0.038752999 0.15379652
13360000000 0.078477234 0.069746301 -0.0010054903 0.00029918569 -0.00078297255 0.00043225905 0.02445925 0.15934099
13370000000 0.077413261 0.065379828 -0.00034748836 -0.00046934368 -0.0009131789 -0.00032562541 0.030522961 0.16958137
13380000000 0.081478618 0.066386253 -0.00066875143 0.0005046255 -0.00040709478 0.00042775166 0.050384421 0.16679376
13390000000 0.080374643 0.058561362 -0.00038358636 0.00082574104 -0.00033888151 0.0003804458 0.068897337 0.15887591
13400000000 0.08238852 0.054823332 8.3186154e-05 0.00057239691 7.0505892e-05 0.000924539 0.077979267 0.14690872
13410000000 0.078383535 0.046584684 -0.00015463281 0.00035326986 -0.00031190118 0.00051675225 0.069880575 0.13324086
13420000000 0.08195328 0.045097012 -0.00052522734 0.0011826128 -0.00010668274 0.00097974343 0.048584394 0.12660991
13430000000 0.075580716 0.037979305 0.0004451905 0.00086041063 0.00087884942 0.00081552542 0.032469042 0.13186373
13440000000 0.077483058 0.040837493 0.0017078535 0.00079354353 0.0010453893 0.00066434959 0.039078712 0.14131238
13450000000 0.07263764 0.038409166 0.0011545508 -0.00052024197 0.001506823 -0.00024208575 0.054576293 0.14350662
13460000000 0.077705666 0.038968623 0.00021826077 -0.0020343121 0.00042775436 -0.0016995566 0.073630497 0.14164867
13470000000 0.075266071 0.03580391 -0.00052273192 -0.00030145331 -0.00028690777 -0.00042612624 0.083041847 0.1323728
13480000000 0.078781307 0.03386192 1.563059e-05 0.00047985814 -1.5332334e-05 -0.00025349171 0.07887388 0.11353998
13490000000 0.070987359 0.030937703 0.00073871895 -0.00033250998 0.00016829652 -0.0001267659 0.053471558 0.10131756
13500000000 0.075107433 0.02590601 -0.00016756874 -0.0012205564 0.00018149843 -0.00060443243 0.03734678 0.10660571
13510000000 0.066561088 0.020995522 -0.00059956801 -0.0010438986 -0.00030196781 -0.0011540004 0.040328186 0.11635654
13520000000 0.06908723 0.018747017 -0.0013885309 -3.2794582e-05 -0.0012315965 -0.00054922572 0.052923243 0.12225305
13530000000 0.059971388 0.014252384 -0.00014991821 0.00048115951 -0.0012319662 0.00055842055 0.064817227 0.12490679
13540000000 0.061249875 0.017507408 -0.00049082492 0.00063130504 -0.00022754644 0.0010914494 0.076876678 0.1141054
13550000000 0.058668286 0.015327128 -0.00057118078 0.00018706932 0.00012435635 0.00055647793 0.068101697 0.093667395
13560000000 0.06142455 0.01937988 0.00025752929 0.00081104203 8.3460232e-05 8.7815206e-05 0.049583867 0.083684951
13570000000 0.061427996 0.017006747 0.00034562018 0.00043681002 -0.00015726156 -0.00031726924 0.042499177 0.092290878
13580000000 0.0611347 0.017594788 0.00038332632 0.00093298691 -0.00048306459 0.0012554625 0.042921513 0.10230775
13590000000 0.058164515 0.013834789 0.0011486808 0.00098209758 0.00058299711 0.0011708554 0.051789001 0.11030913
13600000000 0.053810719 0.01404779 0.0014885187 -0.00067942287 0.0018938122 0.00039973701 0.061179511 0.10839173
13610000000 0.049772371 0.0086978357 -8.7969936e-05 -0.0011622868 0.00098369713 -0.00073092873 0.059257206 0.095719002
13620000000 0.044386085 0.012575617 -0.00015465067 -0.00039788097 0.00055229623 -0.0016826324 0.049876682 0.085846119
13630000000 0.038450781 0.0085492544 0.00011624191 -0.00020591289 -0.00035228892 -0.0011759342 0.03756116 0.083935693
13640000000 0.037009738 0.017485714 4.2145446e-05 -0.0004213684 -0.0012115198 -8.1853708e-05 0.032176208 0.09405309
13650000000 0.042659678 0.012191857 -3.1242183e-05 -0.00028286455 -0.00013926403 0.00084639952 0.041460928 0.10507309
13660000000 0.043552581 0.015352046 -5.7368539e-05 -0.00047183433 0.0013843714 -0.00025268825 0.054908194 0.10331475
13670000000 0.047674526 0.011447039 0.00017407112 -0.00054376718 6.6453329e-05 -0.0017532874 0.063049056 0.087667711
13680000000 0.048565015 0.0094933808 -0.0012414737 -0.00082835706 -0.0022687307 -0.0014499591 0.054792013 0.071691453
13690000000 0.04412277 0.0086124651 -0.001769427 -0.00022204837 -0.002332527 0.0011638864 0.041401919 0.070288874
13700000000 0.043868262 0.011792647 -0.0011052984 0.0020248089 -0.00031566422 0.002468274 0.029635368 0.081405818
13710000000 0.038713157 0.011703777 0.0010513345 0.0015765369 0.0019505721 0.0012328082 0.028503634 0.10363705
13720000000 0.034729064 0.018035572 0.0010733376 -0.00022771594 0.0011246938 -0.00088220392 0.043419272 0.11706282
13730000000 0.036727265 0.017664209 0.00054702244 -0.00075657695 -0.00083495246 -0.0009557929 0.065484539 0.1084648
13740000000 0.034346007 0.021887541 -0.0010418721 -4.5830355e-05 -0.0014559566 0.00096500106 0.073937654 0.081170052
13750000000 0.040676944 0.019315183 -0.00087978528 0.0012181848 0.00028505159 0.0018619751 0.062294476 0.05821906
13760000000 0.040934261 0.014885577 0.0018475201 0.0014945861 0.0021487931 0.00092042476 0.038686104 0.057848278
13770000000 0.042956125 0.0080248993 0.0019302496 -0.00089787645 0.0021350984 -0.0015531383 0.021328991 0.078738868
13780000000 0.040164519 0.0060784281 0.00017891149 -0.0016293275 -0.0003560129 -0.0020965831 0.023018066 0.10744356
13790000000 0.041390583 0.00301289 -0.00063596707 -0.00083139772 -0.0012683081 -0.0005557423 0.04827036 0.12046445
13800000000 0.03656508 0.0078220535 -0.00037877687 -0.00020157036 -0.00087622955 0.00059225934 0.077621676 0.10309581
13810000000 0.041706905 0.0078270463 -0.00040752927 -0.00025777242 0.00044316211 0.00078603486 0.088213116 0.070500344
13820000000 0.040009711 0.012365387 -0.00019623191 -0.00032064901 0.0010511095 -0.00087484391 0.07440944 0.049052641
13830000000 0.045848235 0.012037823 -0.00028254138 -4.0935425e-05 -0.00048057816 -0.0014992433 0.049349722 0.046721026
13840000000 0.043712251 0.010704664 -0.00085230969 -0.00020595248 -0.001926446 -0.00071403565 0.024690343 0.066741705
13850000000 0.046152957 0.0072472878 -0.00084948371 0.00028490057 -0.0015264251 0.0013789078 0.026407441 0.096437581
13860000000 0.04485229 0.00078528933 -3.0146068e-05 0.0012513405 -1.2598946e-05 0.0016948272 0.053091083 0.10568923
13870000000 0.041652586 -0.0056278468 0.00042840687 0.00074664457 0.0012312221 0.00076520559 0.082278483 0.087414391
13880000000 0.0372358 -0.0059090448 0.00059992692 -0.00029192079 0.00059270201 -0.00057312509 0.091630347 0.059024185
13890000000 0.037956193 -0.010477786 -0.00026379531 -0.00034177609 -0.00037825934 -0.00015115045 0.080282211 0.036959268
13900000000 0.033686511 -0.0066861408 -0.00046702745 0.00057985337 -0.00052377116 0.00091793679 0.054659013 0.030583048
13910000000 0.040811002 -0.008537475 0.00025243004 0.00077821431 0.00084527524 0.0011303754 0.030177157 0.045612901
13920000000 0.038538489 -0.0079153562 0.0008249376 0.0011797237 0.001682048 0.00039526218 0.033642445 0.067209512
13930000000 0.04430199 -0.010488388 0.0015832563 -0.00042644632 0.0014576933 -0.0014959511 0.058362342 0.076806992
13940000000 0.039093498 -0.013261038 0.00089439249 -0.0020039931 -0.00058984786 -0.0019011938 0.083264783 0.064069502
13950000000 0.038864434 -0.01609708 -0.00082851382 -0.0010387066 -0.0013346153 4.7805777e-05 0.091305077 0.041733969
13960000000 0.031235842 -0.019971227 -0.0012206787 -0.0001504221 -0.00026262677 0.00084765453 0.078173995 0.020771727
13970000000 0.02609043 -0.023435298 -0.00019633748 0.00052112585 0.00090300583 2.271065e-05 0.05165384 0.016924892
13980000000 0.0186668 -0.023129379 0.00026920118 -0.00015289514 0.00052970485 -0.0013054966 0.035398189 0.028446518
13990000000 0.01905755 -0.025076646 -0.00025609258 -0.00070123287 -0.001433889 -0.0012836867 0.037833508 0.045921244
14000000000 0.013501836 -0.027167499 -0.00089764508 -0.00041088834 -0.001805407 0.00066063838 0.054984305 0.051747337
14010000000 0.018897448 -0.028783757 -0.0006287978 0.00058151386 -6.161003e-05 0.0015719063 0.071153261 0.043736998
14020000000 0.017863605 -0.033403039 -0.00039045012 0.0012228508 0.00093870994 0.00088442722 0.074530378 0.020850133
14030000000 0.019736256 -0.03533642 0.00020785003 0.00034438077 0.00056315272 -0.0005788015 0.059869476 0.0013817418
14040000000 0.016570229 -0.036750846 -8.915129e-05 0.00033887362 -0.00033924336 -0.00024106722 0.036459297 -0.0013616364
14050000000 0.015494227 -0.03664241 0.00027321465 0.00032873618 -0.00071224058 0.0005024799 0.023012847 0.010178931
14060000000 0.0079035591 -0.035156019 0.0001757471 0.00068461779 0.0001707687 0.0014967496 0.025737114 0.029912017
14070000000 0.0050989678 -0.032043882 0.00083796791 0.00094483211 0.0013973708 0.0010651374 0.039133877 0.036945306
14080000000 -0.002307704 -0.029158805 0.001220013 -0.00034927871 0.0018745887 -0.00069835805 0.053590503 0.027427511
14090000000 -0.0035596159 -0.025851553 0.00095234235 -0.0012126572 0.0007335702 -0.0016280578 0.054785475 0.0019490719
14100000000 -0.0095416438 -0.028318534 -0.00019203321 -0.0010698664 -0.0010524576 -0.00093600282 0.038698711 -0.021650953
14110000000 -0.012625553 -0.027965631 -0.00067286397 -0.00068456266 -0.00050807511 0.0002306043 0.014938381 -0.0253375
14120000000 -0.014345548 -0.031126488 -0.0004725171 0.00016243738 0.00028782655 0.00012304033 -0.00020910637 -0.0031874885
14130000000 -0.016437013 -0.032790497 0.00019974637 2.7454775e-05 0.00042280013 -0.00082235102 0.0056057055 0.022158582
14140000000 -0.019415822 -0.035110272 3.9466857e-05 -0.00037447881 -0.00054421829 -0.0011994684 0.023123264 0.032308109
14150000000 -0.023306722 -0.032631598 -0.00065731688 -0.00058466016 -0.0017148937 -0.0002800884 0.041801389 0.01903313
14160000000 -0.022515699 -0.033253409 -0.00083609472 1.6697362e-05 -0.0011138079 0.00099142059 0.046600364 -0.011849787
14170000000 -0.027472148 -0.025509201 -0.00082872505 0.00051567907 4.9978262e-05 0.0012640633 0.028585242 -0.036735915
14180000000 -0.024067149 -0.025390757 -0.00040048253 0.0012060313 0.00059646828 0.00082032185 -0.0013093129 -0.030479621
14190000000 -0.030374682 -0.017624754 0.00057277939 0.0010162819 0.00067611254 -0.00030142808 -0.017341759 -0.00036987849
14200000000 -0.028500307 -0.019345261 0.00088245142 -0.00016702602 -0.00041018112 -0.00021754348 -0.014575824 0.03046963
14210000000 -0.03490204 -0.013406534 -0.00016896411 -8.9344809e-05 -0.00046565419 0.00072707166 0.0047968682 0.042155024
14220000000 -0.032745078 -0.018445555 -9.6870703e-05 0.00057941896 0.00066733937 0.0010188238 0.02795727 0.025106307
14230000000 -0.039183825 -0.01497736 0.00059235934 0.00081278355 0.0016006137 0.00042255779 0.033257458 -0.010784611
14240000000 -0.038593017 -0.01942111 0.0014961932 -6.4803695e-05 0.0011426895 -0.0013816957 0.011289059 -0.034780212
14250000000 -0.043062679 -0.014112329 0.001091195 -0.0010468508 -0.00041264974 -0.0013787831 -0.018576596 -0.027744558
14260000000 -0.041034583 -0.01593085 1.878594e-05 -0.0013481457 -0.00056557672 -5.0218412e-05 -0.0382891 0.0013009124
14270000000 -0.041063704 -0.0087508485 -0.00072767725 -0.00073919573 0.00043818541 0.00025002926 -0.032919336 0.033488732
14280000000 -0.039329514 -0.010322921 -0.00082078588 -0.00027158152 0.00043157543 -0.00087831245 -0.0047527915 0.043011341
14290000000 -0.035222601 -0.0012637862 -0.00040056807 0.00012309218 -0.00072735886 -0.0012697799 0.02299775 0.024154458
14300000000 -0.03565383 -0.0059862733 -0.00028564286 -0.00020291776 -0.0016682049 -0.0001117686 0.028633943 -0.010637242
14310000000 -0.036447484 0.0032147923 -0.00048919558 0.00025355257 -0.00065058889 0.0012452247 0.005183327 -0.030051704
14320000000 -0.037215784 -0.0047374424 -0.0006287687 0.00037382601 4.9367343e-05 0.00081633031 -0.027483333 -0.019703837
14330000000 -0.042474315 0.0027122386 -0.00035489071 0.00034980534 0.0003888908 0.00016341847 -0.042902291 0.0098471697
14340000000 -0.041459337 -0.00062429905 -0.00015802964 0.00063134445 -0.0001537817 -0.0001598493 -0.031995125 0.036173511
14350000000 -0.044384856 0.0011630831 -0.00015460653 0.00075746054 -0.00081121817 0.00075958821 -0.0029906956 0.041257087
14360000000 -0.04377364 0.00019821568 0.00054819527 0.00090448349 0.00014441246 0.0011082215 0.02361007 0.019829828
14370000000 -0.040273823 0.0038243919 0.0011942761 8.5932174e-05 0.0011559502 0.00072155951 0.020788599 -0.009612428
14380000000 -0.037008703 -0.0025776895 0.00059709704 -0.00031976271 0.00096440507 -0.00051128579 -0.0057034758 -0.022171471
14390000000 -0.034186549 0.0027660821 1.8905717e-05 -0.00036146771 0.00053960172 -0.00047637711 -0.032357927 -0.011215912
14400000000 -0.032256309 -0.0035762042 0.00063923479 0.00020380793 0.00014621127 -0.00070862396 -0.041452989 0.013793839
14410000000 -0.036326755 0.0024048975 0.00048852438 -0.00068649394 -3.2919655e-05 -0.00020936303 -0.023124611 0.034310758
14420000000 -0.03431667 0.003750619 0.00026236699 -0.00072778424 0.00026750879 -0.00013595876 0.0050587081 0.034187783
14430000000 -0.037260398 0.0053949305 -0.00026201713 -0.00079270836 0.00049701461 -0.00076600729 0.019535182 0.011567425
14440000000 -0.037460767 0.0071730623 -0.00071033835 -0.00074326049 -0.00032658555 -0.0011609528 0.0086798631 -0.01033486
14450000000 -0.039792515 0.008051075 -0.00073502643 -0.00010311179 -0.0012983908 -0.00084493402 -0.016797727 -0.021167388
14460000000 -0.041654088 0.0059479326 -0.0007379796 0.00068808289 -0.0016443538 0.00084325159 -0.040301412 -0.011802441
14470000000 -0.042561226 0.0032078978 -0.00021845671 0.00061436475 -0.00027302615 0.0012352029 -0.041046947 0.010950996
14480000000 -0.04196322 -0.000657456 -6.5487266e-06 3.327593e-05 0.0006072016 0.00035948987 -0.019377843 0.02573997
14490000000 -0.045122627 -0.0024841335 -0.00030555887 0.000605546 3.5731115e-05 8.7099332e-05 0.005349495 0.022322388
14500000000 -0.041153654 -0.0039666756 0.00014485588 0.00049721211 -0.00016099823 0.00046490534 0.012674304 0.0011646593
14510000000 -0.045022715 -0.002096653 0.00029468478 0.00027177497 0.00021437228 0.00030660394 -0.00028115138 -0.02142713
14520000000 -0.04083135 -0.0023355 -2.3044908e-05 0.00051313592 -9.5057549e-05 0.00049593754 -0.026788712 -0.0303616
14530000000 -0.042901333 0.0011624806 0.00070083688 0.0006086973 0.00067172589 0.00097694097 -0.044567734 -0.018495888
14540000000 -0.040136617 0.00049261004 0.0009225175 0.00031961023 0.0012420539 2.4002686e-05 -0.042019792 0.005755499
14550000000 -0.04565075 0.0026837252 0.0010881166 -0.00070691959 0.00083981099 -0.00077908824 -0.022442874 0.021264268
14560000000 -0.047529433 0.0032770513 4.3254637e-05 -0.0012872919 0.00012437714 -0.00056568626 -0.0045723026 0.016030405
14570000000 -0.053666912 0.0032042114 -0.00080503983 -0.00049636618 -0.00010284471 -0.00065050047 -0.0017319368 -0.0045648827
14580000000 -0.055425324 0.0027305055 -0.00041210419 0.00013775713 -0.00011286533 -0.00017315346 -0.017536292 -0.028027128
14590000000 -0.060728502 0.0032926071 0.00029873368 -1.6753329e-05 -4.4095708e-05 -0.00051836122 -0.041373752 -0.038507994
14600000000 -0.059769459 0.0020827483 1.2188102e-05 -0.00062684342 -0.00042407651 -0.00066114776 -0.060347535 -0.02714172
14610000000 -0.062806293 0.002715582 -0.0010073434 -0.00084629585 -0.00083810755 -6.857852e-05 -0.058880605 -0.00050791167
14620000000 -0.058339991 0.001839526 -0.00086961919 0.00032151619 -0.00052033545 8.7446839e-05 -0.039778255 0.018315921
14630000000 -0.062279951 0.0019515809 -9.9279998e-05 0.00074410375 -0.000402565 0.00024407837 -0.021257659 0.012289418
14640000000 -0.059527319 0.0039498354 -0.00043652035 8.6690627e-05 -0.00034034447 0.00061977084 -0.018860489 -0.0093482444
14650000000 -0.064052112 0.0059484947 -0.00036579336 0.00080481765 0.00012634796 0.00084488315 -0.03315676 -0.033036616
14660000000 -0.065882519 0.010356794 0.00018027381 0.0011897517 0.00053831399 0.00027294309 -0.058075704 -0.041842479
14670000000 -0.072794974 0.015122481 0.0011709474 8.7922672e-05 0.00022105289 -0.00049660681 -0.079813629 -0.023982605
14680000000 -0.070262507 0.019497603 0.00037579672 -0.00049009395 -0.00025352719 0.00023463681 -0.081233285 0.0066222847
14690000000 -0.076374635 0.019334096 -0.00029378125 -0.00016762204 0.00023430257 0.0008267659 -0.061246634 0.023449402
14700000000 -0.076284975 0.024238626 0.00013246424 0.00026892286 0.00076886686 0.00037736865 -0.042679667 0.016014334
14710000000 -0.077177659 0.021542944 0.00091360504 0.00015211507 0.0010143849 -0.00065007678 -0.036308277 -0.0075826435
14720000000 -0.079203062 0.022220409 0.00029362109 -0.00038081669 0.00036562717 -0.00042653159 -0.048746921 -0.030418593
14730000000 -0.076142743 0.023087082 0.000242195 -0.00089470064 0.0001255292 -0.00065040804 -0.076069802 -0.032784369
14740000000 -0.078626297 0.022033136 -0.00015260502 -0.00041494649 -0.00042817858 -0.00063101365 -0.09916196 -0.012077473
14750000000 -0.079054326 0.028016154 -0.00037739135 -0.00053695019 -0.0003485473 -0.00057118997 -0.097611807 0.021602944
14760000000 -0.07823766 0.034182757 -0.0002739164 -0.00042711239 -0.00040433562 -0.00034212874 -0.076540284 0.037093446
14770000000 -0.079253837 0.040031277 -0.00055792124 -0.00034123432 -0.0006819893 -0.00056151825 -0.052507419 0.028678056
14780000000 -0.074467979 0.04863891 -0.00091815006 5.598319e-05 -0.0010038094 0.0004862895 -0.04340446 0.0038625407
14790000000 -0.073868655 0.049579598 -0.00069428905 0.00039929186 -0.00068492378 0.00066733884 -0.061815206 -0.015509527
14800000000 -0.073210716 0.051766202 -0.00028480284 0.00088120165 9.9172292e-05 0.0009331312 -0.091417968 -0.011322651
14810000000 -0.07668262 0.051545918 -5.718859e-05 0.00087381597 0.00019249212 0.00085285126 -0.11218146 0.012779918
14820000000 -0.076631397 0.055234253 0.00055146217 0.00050636899 0.00065161719 0.00044989915 -0.10862103 0.042058144
14830000000 -0.079443887 0.052337065 0.00058002939 0.00026967219 0.00027341407 9.3708964e-05 -0.082313657 0.053812027
14840000000 -0.079149202 0.056220662 0.00085372751 -0.00020542167 0.00042622464 -0.00010668425 -0.052571733 0.042713497
14850000000 -0.075533368 0.056493554 9.461517e-06 -0.00028813619 -0.00019888887 0.00065746548 -0.044516597 0.017399823
14860000000 -0.07332509 0.062233608 -4.188712e-05 0.00050197757 0.0007363219 0.00061350665 -0.066076957 0.0011847354
14870000000 -0.06307321 0.065418787 0.00061129429 0.00044275034 0.0010706414 -0.00011299102 -0.096687153 0.011459444
14880000000 -0.057124157 0.067665875 0.001316507 -0.0006359893 0.00051796727 -0.0010993269 -0.11292557 0.038717829
14890000000 -0.051633768 0.066524237 0.0004396408 -0.001145874 -0.00024484002 -0.00091881223 -0.099796601 0.06333895
14900000000 -0.048880473 0.067997463 -0.00062943064 -0.0013177291 -0.0004073731 -0.00056722458 -0.069748521 0.068722948
14910000000 -0.048954636 0.068247505 -0.0010407472 -0.00052063284 -0.00050272129 -0.00040998065 -0.043855187 0.05556725
14920000000 -0.053664614 0.072233737 -0.00091745163 3.092151e-05 -0.00073395215 -0.00010286264 -0.041279253 0.029709145
14930000000 -0.053434137 0.074745037 -0.00035448739 8.6364606e-05 -0.00059687719 -0.00029304845 -0.068371102 0.018910974
14940000000 -0.054299675 0.078281276 -0.00085803162 0.00026304167 -0.0014947503 0.00057233701 -0.095924944 0.032757092
14950000000 -0.049274456 0.078534134 -0.00055372977 0.00086910138 -0.0003789725 0.000842084 -0.10243865 0.05485186
14960000000 -0.046406634 0.077532858 -0.00020170173 0.00079631939 -2.1708867e-05 0.0009508481 -0.082331575 0.072739944
14970000000 -0.03748516 0.072586477 0.00015847149 0.00099351455 0.00031705608 0.00059018383 -0.050399251 0.07344801
14980000000 -0.037956081 0.066316165 0.0006831325 0.00091975479 0.00026085516 0.00040815183 -0.028467294 0.05433077
14990000000 -0.030455027 0.06028302 0.0013345852 -3.540967e-05 0.00072302384 0.00041491649 -0.037230745 0.034577027
15000000000 -0.03448166 0.058800161 0.00028587211 -0.00022966639 0.00040779161 0.00012915328 -0.06336277 0.027614096
15010000000 -0.029659744 0.057926401 0.00036079279 -0.00035334524 0.0010443672 -0.00023904309 -0.086076796 0.041888222
15020000000 -0.035663497 0.061591104 0.00036620206 -0.00031060603 0.00042691609 -0.00066189811 -0.085886709 0.061446488
15030000000 -0.028519189 0.06597057 0.00043521728 -0.00036576894 0.00030607585 -0.00024103365 -0.063672289 0.075797245
15040000000 -0.030083477 0.069360673 0.00042263369 -0.00080762786 0.00059175782 -0.00091071724 -0.034842644 0.072058223
15050000000 -0.020767491 0.066440202 -0.00010334649 -0.0010521899 -1.3590528e-05 -0.001399175 -0.022011077 0.051229481
15060000000 -0.025663123 0.064473487 -0.00064280414 -0.00064895634 -0.0013392112 -0.00053691608 -0.036103662 0.029646024
15070000000 -0.021118401 0.055501491 -0.0010093893 -0.00015718886 -0.0009949262 -5.4249103e-05 -0.064848468 0.023568053
15080000000 -0.031555481 0.051581252 -0.00093241176 0.0002725987 -0.00046741552 0.00030952893 -0.082797028 0.035519417
15090000000 -0.029014142 0.04833772 -0.00065328414 0.00074836606 -0.00061460177 0.00040850806 -0.079307266 0.055231765
15100000000 -0.035804138 0.046219096 -0.00035267932 0.0004978014 -0.00066620595 0.00053948944 -0.05579634 0.069307841
15110000000 -0.034358103 0.046842851 -0.00024760654 0.00055808818 -8.3509047e-05 0.0009316004 -0.02925122 0.063831113
15120000000 -0.035701133 0.048797313 0.00025772792 0.00088211556 0.00080932357 0.00079126423 -0.020539936 0.04467155
15130000000 -0.030701596 0.050670739 0.00080105546 0.00067270262 0.00065984047 0.00016662851 -0.037266184 0.023952268
15140000000 -0.028005077 0.054150216 0.00077069306 0.00024916086 0.00016877014 9.4932184e-05 -0.064644061 0.018691314
15150000000 -0.022259463 0.047741216 0.0010612091 -7.0299488e-05 0.0011407619 0.00033933527 -0.085249647 0.030066466
15160000000 -0.028714174 0.047505513 0.00066318543 -0.0014366502 0.0011403719 -0.00096935011 -0.085691802 0.055693574
15170000000 -0.028291851 0.043980457 -0.0004824434 -0.00063574017 -0.00046486367 -0.0011758532 -0.064594328 0.071314454
15180000000 -0.039150119 0.045488946 -0.00046463273 -1.8238788e-06 -0.00082735508 -1.6441918e-06 -0.041594382 0.066564649
15190000000 -0.039403368 0.04932351 -2.0265961e-05 0.00022496303 2.2755954e-05 0.00053739047 -0.035024859 0.043633644
15200000000 -0.045386359 0.051011045 0.00049441506 -0.00045396201 0.0010897876 -0.00029887856 -0.048143957 0.022199564
15210000000 -0.042931702 0.053288139 -0.00021574594 -0.00063177332 -8.3358842e-05 -0.0013437266 -0.070923775 0.016278947
15220000000 -0.041524939 0.055396445 -0.00049601356 -0.0007077257 -0.0011528891 -0.00050915248 -0.091520399 0.031934697
15230000000 -0.038618274 0.055281039 -0.00094696757 -4.1080464e-05 -0.001094679 0.00040889162 -0.091010228 0.057463922
15240000000 -0.03421364 0.055077992 -0.00050638773 0.0007513648 -0.00015820372 0.00069536362 -0.075074255 0.078404903
15250000000 -0.03149835 0.051957782 -0.00011585149 0.00068320805 -0.00044655584 0.00074299925 -0.051914711 0.075813308
15260000000 -0.034828145 0.051030196 -4.6234192e-05 0.00046478579 0.00052377925 0.00041115581 -0.042609587 0.057471439
15270000000 -0.035256721 0.051770426 0.00054654211 0.000227831 0.00014545007 0.00012645904 -0.051832113 0.037812546
15280000000 -0.03979139 0.056881677 -0.00015377476 0.00021859311 -0.00024199483 -0.00021686974 -0.074479252 0.03471569
15290000000 -0.038023051 0.063819334 0.00060728955 0.00015567969 -2.2696331e-05 0.00054354582 -0.095083356 0.053565551
15300000000 -0.038666725 0.065916032 -6.4074222e-05 0.00014507312 0.00021711156 0.00052370911 -0.096804783 0.07957875
15310000000 -0.032700729 0.070438221 0.00066543621 -0.00016531811 0.0012911973 -8.5812499e-05 -0.078602955 0.092505932
15320000000 -0.030534176 0.067206882 0.00026325561 -0.00036354701 0.00035985303 -0.00095295766 -0.057488807 0.085038528
15330000000 -0.026340256 0.067890316 -4.5415385e-05 -0.00049926952 -0.0007921895 -0.0010454108 -0.044595718 0.066295743
15340000000 -0.025312433 0.062117577 -0.00025498829 0.00010477348 -0.00055201771 0.00078311691 -0.05069907 0.052626241
15350000000 -0.023797901 0.061836362 0.00013169067 0.0003340767 0.00067830848 0.00086569361 -0.069527954 0.055769578
15360000000 -0.024840476 0.058461566 0.00086655136 -0.00020043759 0.0011495445 -0.00044903214 -0.084850959 0.078753777
15370000000 -0.021581063 0.061282288 0.0001430588 -0.00099436217 -0.00030618435 -0.001531637 -0.081235461 0.10236815
15380000000 -0.023429073 0.061046138 -0.00063811708 -0.0010720084 -0.0008205864 -0.00068912143 -0.062054198 0.10902285
15390000000 -0.018177109 0.067389339 -0.0015596383 0.00021401115 -0.0012128088 0.00034589766 -0.041537691 0.096259311
15400000000 -0.013132147 0.065364301 -6.0381186e-05 0.0012956958 -0.00022887481 0.00092807354 -0.033059161 0.075136177
15410000000 -0.00907127 0.066937372 0.00046711124 0.00037188191 0.00033924996 0.00059606537 -0.045841776 0.063155122
15420000000 -0.0033118036 0.061108757 0.00011719811 -0.00044084917 0.00040455133 -0.00022837808 -0.067113385 0.072542347
15430000000 -0.0021066498 0.057734746 -0.00077614258 -7.2763243e-05 -0.00043331448 -0.00029814441 -0.078048021 0.094969705
15440000000 -0.0027560163 0.051645495 0.00021726199 0.00086895621 -0.00052166084 0.00060121808 -0.061935037 0.1159482
15450000000 -0.0026886147 0.050021663 0.00021157676 0.000716382 0.00010098732 0.0014721986 -0.033460002 0.11229305
15460000000 -0.0039332146 0.045461211 0.00049561996 0.00046009617 0.0011284959 0.00057728309 -0.0087973019 0.093707621
15470000000 -0.0033681826 0.047738172 0.00087734114 -5.2160784e-05 0.0012790581 -0.00091370527 -0.007432369 0.068818592
15480000000 -0.00089697167 0.045765098 0.00013156564 -0.00092472532 -0.00056394935 -0.0015014642 -0.030284572 0.061330467
15490000000 0.0040524919 0.047823228 -0.00017714762 -0.00020007615 -0.00095464836 0.00035990597 -0.055151477 0.079519771
15500000000 0.0075559653 0.042406067 -0.00026641818 0.00050436542 5.8226055e-05 0.0011169558 -0.058508255 0.10674804
15510000000 0.012355577 0.039890632 0.00076424098 0.00018086459 0.0010922737 9.8789547e-05 -0.039838426 0.12350962
15520000000 0.012975815 0.032396849 0.00063074601 -0.00082224014 0.00079191732 -0.00099574099 -0.0074888244 0.11923064
15530000000 0.010755893 0.027229819 -0.00051302474 -0.0014549438 -0.00076196773 -0.0014309098 0.014734033 0.091971576
15540000000 0.0063899728 0.021468399 -0.00171168 -0.00058267952 -0.0013660651 -0.0003881813 0.0045976043 0.062495131
15550000000 0.0038268724 0.020422561 -0.0010719122 0.0013013455 -0.001161698 0.0011494368 -0.024471138 0.053466313
15560000000 -0.0011017015 0.019025015 0.0005039855 0.0012301911 2.5582762e-05 0.00077173091 -0.047270823 0.06874688
15570000000 0.002581914 0.019649126 0.001111548 -0.0001485289 0.00081958261 0.00054510386 -0.046974875 0.093679868
15580000000 0.0038879178 0.015645184 -5.4776901e-06 -0.00099086296 0.00019765564 -0.00073951 -0.024353523 0.11095376
15590000000 0.0073668649 0.010731993 -0.0011889448 0.00012130715 -0.00096835301 -0.00013934588 0.0084846839 0.11193682
15600000000 0.0070573944 0.0053532091 -0.00080902816 0.0010088399 -0.00089498458 0.00081657927 0.027592393 0.084705614
15610000000 0.0084925201 -0.00013410606 0.0004862473 0.0011661788 0.0006969833 0.0013460991 0.015252893 0.054253891
15620000000 0.0039845686 -0.0059409607 0.0016309147 0.00031351735 0.0017103419 1.7002865e-05 -0.015299992 0.044032667
15630000000 0.00053547416 -0.0091220858 0.0008181507 -0.0011987507 0.00037433184 -0.0016289144 -0.036216304 0.057688117
15640000000 -0.0067845518 -0.0095772594 -0.00026070545 -0.00084891135 -0.00085334014 -0.00070338021 -0.037552178 0.080514237
15650000000 -0.0090146046 -0.0095882611 -0.0006355333 -5.3129188e-05 -0.0010241918 0.00066473102 -0.019703243 0.10119928
15660000000 -0.012625368 -0.0054507852 6.4180778e-05 0.0002963391 0.00060301891 0.00097418117 0.0086354315 0.098769248
15670000000 -0.0097856577 -0.010059305 0.00070729462 -0.0002363707 0.00096965686 -0.00013849174 0.021930207 0.072078981
15680000000 -0.012432765 -0.012120049 0.00016908179 -0.0011453269 6.0821483e-05 -0.0011334014 0.0098537207 0.040833715
15690000000 -0.01273794 -0.021497203 -0.001170497 -0.00065261486 -0.00078606704 -0.00056113058 -0.013438471 0.032234322
15700000000 -0.017806191 -0.024059925 -0.0013819834 0.00089492742 -0.0012534922 0.00016119197 -0.029917983 0.044680879
15710000000 -0.021309512 -0.030288052 0.00047354697 0.0013225735 -0.00059836573 0.0010953585 -0.029389581 0.07385499
15720000000 -0.026074335 -0.030457526 0.00099063909 -9.1213064e-05 0.00029116333 0.00088694273 -0.010681726 0.094727129
15730000000 -0.031517342 -0.033643644 0.00010783761 -0.0010335183 0.00070989056 -0.00010694565 0.0074506756 0.087948278
15740000000 -0.032632209 -0.027305517 -0.0012715049 -0.00033773514 -0.00036692317 -0.00050788489 0.013923801 0.060061075
15750000000 -0.033589214 -0.029509883 -0.0010817234 0.00091264304 -0.00086437794 0.00035562538 2.9146206e-05 0.034428164
15760000000 -0.033898856 -0.025937369 0.00074709865 0.0017656832 0.00027751073 0.0016695483 -0.020202376 0.031178638
15770000000 -0.034879103 -0.031443313 0.0017242049 0.00023362477 0.0010916656 0.0004781335 -0.035520218 0.051085785
15780000000 -0.037095513 -0.029775713 0.0011781295 -0.0012596596 0.0015085373 -0.00090559782 -0.031467866 0.081348121
15790000000 -0.044878304 -0.036450721 -0.00059714442 -0.0015919276 -0.0004530845 -0.0013266443 -0.012109511 0.092881553
15800000000 -0.049078021 -0.034884606 -0.0013714432 2.4617708e-05 -0.0013695259 0.00037425186 0.0056604408 0.075836256
15810000000 -0.058641322 -0.037660599 -0.00061107567 0.0013174601 9.0455476e-05 0.0014447651 0.0077905133 0.046608321
15820000000 -0.05828689 -0.035721116 0.00090479333 0.00077137811 0.00099301978 0.00029975752 -0.0071810018 0.026040696
15830000000 -0.062207103 -0.037793156 0.0015216679 -0.00079409941 0.00070504262 -0.0010494184 -0.028364517 0.031126982
15840000000 -0.060520306 -0.036240608 -0.00044734916 -0.0017624525 -0.00073597237 -0.0010597877 -0.040606 0.061170377
15850000000 -0.063241661 -0.040922705 -0.0015925589 -0.0001246148 -0.001074224 0.00030897299 -0.033015016 0.092441544
15860000000 -0.060972985 -0.038434744 -0.00058528152 0.0013493092 -0.00039924303 0.00081331364 -0.0085326619 0.099592343
15870000000 -0.06366767 -0.044620477 0.00091736997 0.00078630925 0.00054316322 0.00040892072 0.014167724 0.079070158
15880000000 -0.064740248 -0.039761268 0.00058951229 -0.00091263402 0.00018598168 -0.00025905977 0.015169959 0.045958139
15890000000 -0.067604907 -0.042823549 -0.00082961639 -0.00091123715 -0.00035063509 -0.00067272322 -0.0041511352 0.026872121
15900000000 -0.072621308 -0.039077722 -0.00073887332 0.00067202176 -0.00058617117 9.7250493e-05 -0.034838945 0.038485255
15910000000 -0.075996734 -0.039363965 0.00017068697 0.00083278067 -0.00033336255 0.00077678025 -0.046808772 0.069616146
15920000000 -0.07766366 -0.038153037 0.00062848139 0.00057959434 0.00049482926 0.00096135301 -0.032531057 0.099247053
15930000000 -0.082602695 -0.040723879 0.00061939203 -0.0001250527 0.00095174642 -0.00011846112 -0.00055713207 0.10632911
15940000000 -0.083167247 -0.040854804 0.00037838871 -0.0007429914 0.00024384417 -0.001178788 0.028931594 0.087209657
15950000000 -0.088415951 -0.047869176 -0.00075481884 -0.00049672468 -0.0010660945 -0.00042157513 0.031350054 0.052427389
15960000000 -0.092027493 -0.046991792 -0.00086486887 0.00061218702 -0.00059083942 0.00076063542 0.0034709482 0.032654449
15970000000 -0.091730647 -0.051825002 0.00076722912 0.0014488131 0.00078558299 0.0011913126 -0.031530175 0.044080984
15980000000 -0.093925096 -0.052371673 0.0015354411 -0.00057330658 0.0014317399 -0.00047942635 -0.045908548 0.072899207
15990000000 -0.094168857 -0.055291541 8.1583392e-05 -0.0017905266 0.00022404472 -0.0010121842 -0.02893088 0.1012477
16000000000 -0.097292602 -0.054083481 -0.0013168816 -0.00044722715 -0.00056144473 -0.00074609066 0.0088758692 0.109614
16010000000 -0.098179258 -0.058048464 -0.00069079472 0.0012883779 -0.00063702301 0.00049920729 0.039717846 0.08756645
16020000000 -0.10447485 -0.054431658 0.00090186042 0.00038928492 5.9161393e-06 0.00041581175 0.039376315 0.05452612
16030000000 -0.10674433 -0.057735212 0.00083136105 -0.00093730219 0.00082390057 -0.00023958844 0.010409078 0.033380453
16040000000 -0.11533785 -0.054371521 -0.0011255727 -0.0009068246 -0.00034753754 -0.00073059916 -0.021864943 0.038112365
16050000000 -0.11810234 -0.057472967 -0.0013474915 0.00032118507 -0.00087630964 -0.00031841715 -0.031247683 0.065539569
16060000000 -0.12489732 -0.057995722 -0.0002564436 0.00121849 -0.00074257632 0.00089730776 -0.008708436 0.095261812
16070000000 -0.12808526 -0.062973835 0.00083406689 0.00059356476 5.0636823e-05 0.0010694866 0.027444951 0.10260327
16080000000 -0.13577339 -0.06406799 0.00037824971 -6.9055255e-05 0.00090774416 0.0002001518 0.050831541 0.083866298
16090000000 -0.13705969 -0.069566078 0.00040706756 -0.00049912551 0.0001745199 -0.00063475239 0.043371569 0.053209104
16100000000 -0.14389564 -0.071373358 -0.00033228967 0.00019350511 -0.0003629686 -0.00036541288 0.013730761 0.031976234
16110000000 -0.14811152 -0.07328409 -0.00034386839 0.00037277763 -0.0004294377 0.00091055222 -0.016183723 0.036275096
16120000000 -0.15396708 -0.071962833 0.00066720502 0.00047399802 0.00081117114 0.00052028667 -0.020666761 0.062608816
16130000000 -0.15781695 -0.069895163 0.00089262391 -0.00038371084 0.00076230388 -0.00035585253 0.003673166 0.087588757
16140000000 -0.16491273 -0.06806688 3.4010707e-05 -0.00092305301 6.6508685e-05 -0.00084589503 0.03652849 0.090477765
16150000000 -0.16768506 -0.066784017 -0.00061528012 -0.0005113121 -0.00096956524 -0.00030967357 0.052745286 0.066920735
16160000000 -0.17726161 -0.067701586 -0.0004601955 0.00050247344 -0.00037795067 0.00032703715 0.04091778 0.032885473
16170000000 -0.18353263 -0.065667383 0.00054308714 0.00071899756 0.00013753033 0.00027168845 0.011012981 0.015265953
16180000000 -0.19571643 -0.069063053 0.00085239293 -0.0014475681 0.00039312145 -0.00040368564 -0.010695089 0.02912518
16190000000 -0.20129153 -0.068032101 -0.00072375475 -0.0013449983 -6.0343853e-05 -0.00080319459 -0.0074595679 0.061454296
16200000000 -0.21213134 -0.069961391 -0.0022236914 0.00016041659 -0.0011568526 -0.00062251335 0.016764168 0.084837273
16210000000 -0.21808988 -0.070654973 -0.00092581223 0.0016608854 -0.0013813043 0.00083088165 0.041351229 0.083035938
16220000000 -0.2285284 -0.066488601 0.00093266903 0.0015431807 -0.00033249834 0.0015967358 0.051125545 0.054728545
16230000000 -0.22762059 -0.064659826 0.0013083387 -0.00027598871 0.0012593273 0.00088971894 0.032999456 0.018469134
16240000000 -0.23596221 -0.060233362 0.00020429594 -0.0010782033 0.00081057334 -0.00049221504 0.0005081186 0.0052775042
16250000000 -0.23639849 -0.060120881 -0.00061948551 -1.0068499e-05 -0.0001731302 -0.0007917711 -0.019877009 0.025455624
16260000000 -0.24851218 -0.055063792 -0.00052868505 0.00064263924 -0.00093692407 7.7872886e-05 -0.016125472 0.05871756
16270000000 -0.25221407 -0.050220907 0.00051702873 0.00093433051 -5.0392497e-05 0.00099332724 0.0073294528 0.080400631
16280000000 -0.2663016 -0.044875421 0.0012684439 0.00023748761 0.001067195 0.00045398757 0.035551667 0.070780262
16290000000 -0.27240714 -0.042163678 0.0011378982 -0.0010258027 0.0011718909 -0.00075597828 0.045244694 0.035484158
16300000000 -0.28752765 -0.035296056 -0.00017799137 -0.0019189803 0.00027543557 -0.0014579749 0.03107498 0.0035516825
16310000000 -0.29384974 -0.030782156 -0.0019223536 -0.00056113652 -0.0011364641 -0.00081566913 0.00019357899 -0.0013063705
16320000000 -0.30419141 -0.024829857 -0.0010282522 0.0015733959 -0.00077406783 0.00088708813 -0.024159577 0.025227547
16330000000 -0.30539462 -0.021704704 0.0013913256 0.0010735519 0.0003480512 0.00094997307 -0.024720386 0.063074209
16340000000 -0.31191576 -0.018502742 0.0010735989 -0.00084354659 0.00057919801 -7.5398071e-05 -0.0041478164 0.082476899
16350000000 -0.31350228 -0.017304391 -0.00050881086 -0.0012073515 -0.00027375488 -0.0010322175 0.022860659 0.070706777
16360000000 -0.32413998 -0.011063561 -0.0015527009 -0.0002763287 -0.0015457678 -0.00035151668 0.035411846 0.037928849
16370000000 -0.32670328 -0.0038013617 -0.00087483355 0.0012465079 -0.0014219007 0.0010550433 0.021593843 0.0066882819
16380000000 -0.33693197 0.0043184347 0.00038644779 0.00072792103 0.00062136567 0.0013466441 -0.0096850991 0.002029178
16390000000 -0.34113693 0.014409266 0.00054047129 0.00033531873 0.0012089745 7.7966833e-06 -0.03785032 0.026495006
16400000000 -0.3520489 0.026008859 0.00030969537 -0.00011685962 0.00081939576 -0.0003751897 -0.040475346 0.060819723
16410000000 -0.35544449 0.035872057 -0.00013200073 -3.6796471e-05 -0.00015996126 -0.00036838662 -0.013066428 0.07856112
16420000000 -0.36460003 0.044318393 -0.00018893268 0.00046232145 -0.00023799909 0.00036217514 0.018890882 0.068541542
16430000000 -0.36644182 0.048979208 0.00070533744 0.00086250954 0.00024210804 0.00045495445 0.034160733 0.042973489
16440000000 -0.37599644 0.052769162 0.0014488171 -0.00041228053 0.00061232771 0.00031948925 0.020232409 0.021065727
16450000000 -0.37922403 0.056051008 0.00030878413 -0.0021800611 0.0001685397 -0.00068156415 -0.014032128 0.018766001
16460000000 -0.38886908 0.061957017 -0.0012852633 -0.00094677124 -7.2279901e-05 -0.00050347461 -0.042543374 0.03895545
16470000000 -0.3929792 0.068630427 -0.0015688477 0.00059058086 -0.0010449681 -0.00073166983 -0.04398451 0.069065832
16480000000 -0.39933446 0.08095333 0.00026087387 0.0016367511 -0.00037781167 0.0007216956 -0.015798658 0.08549732
16490000000 -0.40039527 0.090781212 0.0015350102 0.00026676978 0.00061482162 0.00050024316 0.016189398 0.077578753
16500000000 -0.40455964 0.10522353 0.00057249807 -0.0014571671 0.00061891827 -0.00073920732 0.030092362 0.054572422
16510000000 -0.40426269 0.11564595 -0.001252948 -0.0010953278 -0.00082769594 -0.00083733129 0.014887289 0.029969065
16520000000 -0.40850109 0.1244744 -0.0012462497 0.00075293891 -0.0012473046 0.00049352966 -0.01897458 0.023188287
16530000000 -0.41470063 0.13221785 -8.0872211e-05 0.0012494784 -0.00014816684 0.0014505427 -0.04345116 0.043557249
16540000000 -0.42096376 0.14005879 0.00072646455 0.00030416803 0.0008409298 0.00074025465 -0.03423189 0.073085286
16550000000 -0.43162531 0.14684297 0.00060319353 -0.00060411938 0.00087476178 -0.00061117462 0.00021458417 0.091774315
16560000000 -0.43916872 0.15720658 -0.00044251641 6.0168619e-05 -5.7056284e-05 -0.00065029343 0.032633193 0.087886766
16570000000 -0.44441983 0.16671117 -0.00063873449 0.00048402132 -0.00056730962 0.00034298404 0.040837318 0.06497395
16580000000 -0.44830474 0.17898351 0.00017559818 0.00093583803 0.0002182825 0.00084137777 0.019138142 0.038739227
16590000000 -0.44706804 0.19099267 0.00088844204 0.00025910113 0.00091526867 0.00029657711 -0.017603731 0.031440753
16600000000 -0.44544923 0.20139365 0.0012306381 -0.00094122987 0.0008084866 -0.00069921464 -0.038363013 0.054107413
16610000000 -0.44648033 0.2115228 -0.00015361921 -0.0012916147 -0.00019289629 -0.00092603464 -0.025333375 0.086725049
16620000000 -0.44813174 0.22235844 -0.0011427099 -0.00031522289 -0.000831465 -0.00035663863 0.0096583143 0.1022274
16630000000 -0.45490938 0.23508622 -0.00057740824 0.00061237201 -0.00031181372 0.00072876649 0.040648516 0.089191958
16640000000 -0.46032766 0.24906802 0.00039947758 0.00076361949 0.00042791004 0.00047187958 0.046329215 0.05523029
16650000000 -0.46962553 0.26440039 0.0010604538 -0.00051811436 0.00068928686 -0.00061701966 0.024761179 0.025654849
16660000000 -0.47390616 0.28137624 -0.00034940828 -0.0015079617 -0.00059116329 -0.0011155301 -0.0089914175 0.023431361
16670000000 -0.47945207 0.29596013 -0.0015095803 -0.00026268431 -0.0014121301 -0.00017842895 -0.024192881 0.051935755
16680000000 -0.47850421 0.31099209 -0.00071680697 0.0014980623 -0.00078051048 0.0012516651 -0.0095779449 0.089251727
16690000000 -0.48037344 0.3210153 0.0004894305 0.001059491 0.00069187558 0.0012714729 0.025050208 0.10531642
16700000000 -0.47899866 0.33288902 0.00063852116 -0.00017435403 0.00073804118 -0.00046034943 0.053003579 0.08678928
16710000000 -0.48092818 0.34401041 0.0003680212 -0.00045262903 -0.00013440264 -0.00038765027 0.054371588 0.048131589
16720000000 -0.48141187 0.35882041 -0.0005388229 -0.00015023754 -0.00033656153 0.00015605829 0.028908549 0.019576609
16730000000 -0.48383912 0.37783062 -0.00018134381 0.0009360406 0.00012892853 0.00053311465 -0.0083122924 0.021175578
16740000000 -0.48229349 0.39787292 0.00078198372 0.00044358423 0.00077308668 0.00030940201 -0.02609079 0.054139979
16750000000 -0.4829663 0.42030329 0.00092685746 -0.0002245878 0.00056554837 -0.00042401152 -0.011683345 0.086594746
16760000000 -0.47804454 0.44021952 0.0002594454 -0.0011349181 8.2799626e-05 -0.00053851434 0.023697101 0.090801641
16770000000 -0.47615793 0.45947212 -0.0005166909 -0.00086507096 -0.00032357452 -0.00038720423 0.052611537 0.062987678
16780000000 -0.47157466 0.47538131 -0.0010215465 0.00037026606 -0.00050452712 -9.6765121e-05 0.053216279 0.027133122
16790000000 -0.47052783 0.49103895 0.00023286625 0.00044261003 -9.6091229e-05 -2.9838407e-05 0.025880834 0.0049960818
16800000000 -0.46642834 0.50551009 0.00057245512 -0.0001519725 0.0002603858 7.3054383e-05 -0.010609834 0.017326862
16810000000 -0.46383348 0.52318192 -0.00014848739 -0.00068184437 0.00026228977 -0.00041473209 -0.027878072 0.052490838
16820000000 -0.45668161 0.54096448 -0.00084416138 -0.00019583062 -0.00077328173 -0.00046677137 -0.011709943 0.081108794
16830000000 -0.45012665 0.56376481 -0.0005996658 0.00064606976 -0.00086483092 0.00042449075 0.022353036 0.079459324
16840000000 -0.436876 0.58452219 0.00019693295 0.00062832236 -0.00010851404 0.0010665072 0.048506677 0.052426755
16850000000 -0.42628893 0.60693604 0.00024853376 0.00035154101 0.00081351068 0.00033070456 0.044500869 0.021274487
16860000000 -0.41134503 0.62600827 0.00028453409 0.00010152321 0.00028084297 -0.0003832503 0.014860084 0.0097648166
16870000000 -0.40154737 0.64614284 0.00023868779 7.4671334e-06 -0.00026780023 -2.9429728e-05 -0.022647154 0.026215853
16880000000 -0.39023399 0.66289645 0.00011420857 -0.00023532474 -3.9641236e-05 0.00041803863 -0.037650429 0.056555141
16890000000 -0.38279834 0.68158972 -7.3936142e-05 7.5496115e-05 0.00047471764 0.00019183569 -0.018943219 0.080337435
16900000000 -0.37254277 0.69732934 0.00038654928 0.00027171732 0.00048246272 -8.5539024e-05 0.017803418 0.07694076
16910000000 -0.36329821 0.71525562 0.00060354208 -0.00041132467 0.00028125226 -0.00052231888 0.040680178 0.052696627
16920000000 -0.34855753 0.73090494 -8.6890766e-05 -0.00081886916 -5.9542886e-05 -0.00029389278 0.034223549 0.025661502
16930000000 -0.33319083 0.74828279 -0.00062908069 -7.996551e-05 -0.00034256902 -0.00011236508 0.0018648201 0.01702165
16940000000 -0.31205583 0.76302892 -0.00023737538 0.0004870783 -0.0003377762 6.4925473e-05 -0.033637453 0.033365846
16950000000 -0.29166761 0.77924812 0.00046501533 7.9069185e-05 0.00024209294 0.00013810713 -0.043939359 0.06521593
16960000000 -0.26934552 0.79310203 0.0001643979 -0.00039922947 0.00015611717 -0.00021014916 -0.019190747 0.086933672
16970000000 -0.24889454 0.80920643 -0.00042637126 -0.00040170163 -0.00039033373 -0.00051436853 0.015807953 0.085133135
16980000000 -0.22761467 0.8235172 -0.00061215775 0.00013692515 -0.00067042041 6.1982602e-05 0.035473637 0.063177332
16990000000 -0.20912983 0.83928388 -0.00010193574 0.00050780061 -0.00031050522 0.00063906523 0.026888661 0.038660102
17000000000 -0.1893913 0.85371441 0.00016974704 0.00035820028 0.00040654661 0.0004503887 -0.0053980248 0.027597044
