!Keysight Technologies,P9374A,MY57211807,A.19.30.04
!Date: Friday, May 01, 2026 14:07:56
!Correction: S11(C  2-Port  ) 
!S21(C  2-Port  ) 
!S12(C  2-Port  ) 
!S22(C  2-Port  ) 
!S2P File: Measurements: S11, S21, S12, S22:
# Hz S  RI   R 50
13000000000 0.039548688 0.09998855 -0.075428434 0.080277279 -0.074565127 0.081441134 0.0085245147 0.16947171
13010000000 0.044785924 0.10831515 -0.041905653 0.10026111 -0.040829923 0.10053688 -0.016219951 0.15919657
13020000000 0.04730745 0.10854255 0.0016553439 0.1075774 0.0025665984 0.10811776 -0.038700245 0.16319104
13030000000 0.052937098 0.10611679 0.039730817 0.10187273 0.041597202 0.10198361 -0.03437775 0.18696579
13040000000 0.053273242 0.098488994 0.07622043 0.077920802 0.077431366 0.076647505 -0.017460693 0.19494507
13050000000 0.053430513 0.089569218 0.10215396 0.044318918 0.10247083 0.043016106 0.0025592677 0.18524301
13060000000 0.044356421 0.082167722 0.10858065 -2.9323623e-05 0.10846832 -0.0010608323 -0.0027507022 0.16463158
13070000000 0.036672693 0.083666719 0.10178692 -0.042196006 0.10149343 -0.042948849 -0.019030176 0.15829742
13080000000 0.031003704 0.088342443 0.077865914 -0.075039357 0.077925056 -0.076341793 -0.034631394 0.17379835
13090000000 0.032263894 0.09741202 0.043382004 -0.10139664 0.041970022 -0.10225529 -0.022660032 0.19214407
13100000000 0.036142368 0.10696311 0.0026304536 -0.10914894 0.0014659241 -0.10898321 0.0032168403 0.19875172
13110000000 0.049940057 0.11074144 -0.041374832 -0.10167376 -0.042206451 -0.10141223 0.015421759 0.18052518
13120000000 0.055676673 0.10343193 -0.076184459 -0.077680983 -0.076677218 -0.077143766 0.004700792 0.16018328
13130000000 0.059800893 0.098798931 -0.099726789 -0.041129984 -0.10016866 -0.041105714 -0.026760364 0.15801135
13140000000 0.056836843 0.086479582 -0.10784737 -0.0025614053 -0.10884565 -0.0013682283 -0.036791433 0.17820755
13150000000 0.04875575 0.085227415 -0.10074106 0.037767023 -0.10012236 0.038952831 -0.026523985 0.19930753
13160000000 0.039246596 0.083418153 -0.081134431 0.073604748 -0.080366835 0.074119695 0.0070218593 0.2011748
13170000000 0.034992591 0.094292596 -0.044872899 0.099595658 -0.04456839 0.099830374 0.026070669 0.18304278
13180000000 0.036526307 0.099743143 -0.0037644301 0.11031287 -0.0033590682 0.11030021 0.018507071 0.16015227
13190000000 0.047930218 0.11117722 0.039636821 0.10130989 0.040363498 0.1017151 -0.0010363013 0.15887772
13200000000 0.060369283 0.10717998 0.074320398 0.079402007 0.074987255 0.079055704 -0.01679869 0.174134
13210000000 0.072736815 0.10277247 0.096586511 0.046426971 0.097191826 0.046043586 -0.0031482503 0.19127068
13220000000 0.072445415 0.08893168 0.10916446 0.0061627589 0.10920373 0.0055325702 0.013853237 0.19304655
13230000000 0.070816889 0.083766446 0.10346523 -0.035555974 0.10329597 -0.035923544 0.032457784 0.17951326
13240000000 0.061247297 0.076137491 0.081625797 -0.075064406 0.082074679 -0.075269438 0.023979843 0.16654649
13250000000 0.053386327 0.084789157 0.046852931 -0.098775506 0.046503164 -0.099697337 0.015058927 0.16665269
13260000000 0.049448512 0.08915069 0.0055760629 -0.10884565 0.0050048027 -0.10921782 0.0090145599 0.17978127
13270000000 0.056582376 0.098691158 -0.03504188 -0.10319782 -0.035769656 -0.10326783 0.019377954 0.18948244
13280000000 0.062994421 0.098686621 -0.07149446 -0.081577763 -0.071944736 -0.081314273 0.035855606 0.18254615
13290000000 0.078322239 0.096863382 -0.098494202 -0.049988937 -0.098627508 -0.049679913 0.038508944 0.16756797
13300000000 0.084288649 0.081010215 -0.11018661 -0.0070906766 -0.1106209 -0.0068196729 0.035851497 0.1502344
13310000000 0.086087391 0.074250951 -0.10487889 0.035140157 -0.10524514 0.035498366 0.026519444 0.15624978
13320000000 0.079656683 0.061710734 -0.083571889 0.071866691 -0.083335891 0.072498508 0.034656782 0.16565458
13330000000 0.076257132 0.062651612 -0.05044549 0.097828694 -0.050477028 0.098198764 0.045806348 0.17494246
13340000000 0.067522958 0.063528158 -0.0092875138 0.11016539 -0.0088631473 0.11035466 0.05683922 0.17063573
13350000000 0.069269374 0.07439971 0.034383297 0.10490032 0.034577519 0.10522243 0.054320291 0.16369848
13360000000 0.072240144 0.075007588 0.071341649 0.084519476 0.072090164 0.084381551 0.045922562 0.15371689
13370000000 0.080462106 0.077948712 0.098519899 0.051244359 0.098669715 0.050971478 0.041922785 0.14914989
13380000000 0.087177739 0.070074812 0.11053859 0.010904443 0.11064231 0.010589912 0.045955881 0.14946951
13390000000 0.091692418 0.061312687 0.1058702 -0.031771999 0.10601737 -0.032364201 0.056942016 0.14711513
13400000000 0.086739928 0.047186159 0.08559294 -0.070219405 0.085347928 -0.070020594 0.063452028 0.14951923
13410000000 0.079918019 0.042516708 0.052860849 -0.097082615 0.053442419 -0.097378254 0.061937857 0.14321786
13420000000 0.07477577 0.035880812 0.010835122 -0.11221255 0.010867581 -0.11245735 0.055302687 0.14247659
13430000000 0.069582783 0.041358098 -0.031507496 -0.10726067 -0.031557124 -0.10762478 0.052286308 0.13586491
13440000000 0.071329981 0.04412023 -0.069841258 -0.086997978 -0.069930658 -0.087189719 0.055582885 0.13072321
13450000000 0.0747137 0.048853427 -0.098083884 -0.054663345 -0.098195806 -0.054657407 0.063164994 0.12333292
13460000000 0.080988891 0.043540239 -0.11122297 -0.012482906 -0.11152374 -0.012759233 0.066126928 0.12129524
13470000000 0.084328949 0.040865555 -0.10861419 0.031001655 -0.10886287 0.031075248 0.065198734 0.12639695
13480000000 0.083837062 0.028073693 -0.088088542 0.069036782 -0.0883293 0.068781145 0.062316552 0.12662898
13490000000 0.076726578 0.026096771 -0.056317065 0.09829092 -0.0567219 0.098896302 0.061179705 0.12626116
13500000000 0.069560453 0.01910905 -0.014683377 0.11168075 -0.014503751 0.11195385 0.06127768 0.11427286
13510000000 0.063803241 0.021473397 0.030067019 0.10970088 0.030023754 0.10980622 0.061013475 0.10776827
13520000000 0.061073788 0.020241756 0.068942852 0.090303235 0.06930764 0.090540737 0.058941759 0.10089916
13530000000 0.061531566 0.024384022 0.09894824 0.055792909 0.098916963 0.055964157 0.056454424 0.10695364
13540000000 0.065900587 0.021593692 0.11213801 0.015452925 0.11275002 0.015276097 0.057986684 0.10730738
13550000000 0.067551777 0.018584192 0.10891829 -0.029212775 0.10881739 -0.029565321 0.055009432 0.10708001
13560000000 0.067580774 0.014013544 0.091663919 -0.067944266 0.092004471 -0.068174712 0.058999076 0.099420518
13570000000 0.065427192 0.012699181 0.057815257 -0.098148137 0.057710078 -0.098558255 0.054504368 0.094024926
13580000000 0.059158206 0.010005824 0.016656712 -0.11333323 0.0163566 -0.11363883 0.060143083 0.095416315
13590000000 0.053155355 0.012982608 -0.027826283 -0.11013409 -0.028090142 -0.11047625 0.056407906 0.096400581
13600000000 0.049410883 0.015186942 -0.068490252 -0.092111126 -0.068993941 -0.091918297 0.061490551 0.097202495
13610000000 0.047572475 0.017579814 -0.097929485 -0.059331156 -0.09828309 -0.059015989 0.055468258 0.08906614
13620000000 0.048700817 0.017608136 -0.11439371 -0.016597897 -0.11468766 -0.016341671 0.048306756 0.087794535
13630000000 0.046319965 0.014276204 -0.11103848 0.027561788 -0.11113152 0.028247878 0.038773604 0.085509285
13640000000 0.048996385 0.012877444 -0.091647267 0.068169907 -0.091456577 0.068591684 0.039016541 0.094507895
13650000000 0.045472283 0.0048556039 -0.059918925 0.096945748 -0.059359439 0.097462088 0.046412319 0.10011801
13660000000 0.044415541 0.0056732972 -0.017258866 0.1126195 -0.017062677 0.11256847 0.054938652 0.097300023
13670000000 0.039859347 0.0065988144 0.025897721 0.11130796 0.026062608 0.11139889 0.061341129 0.083489239
13680000000 0.043787844 0.010889523 0.06607344 0.09196908 0.066678487 0.091908537 0.053627618 0.071813934
13690000000 0.039388474 0.015444404 0.096653745 0.060660742 0.096853644 0.060581945 0.04423181 0.073115215
13700000000 0.047217451 0.019170254 0.11111103 0.018861439 0.1114624 0.018688172 0.038863674 0.084075511
13710000000 0.045951881 0.017995363 0.11095992 -0.024175016 0.11090259 -0.024645858 0.041410282 0.096517019
13720000000 0.049343072 0.015019245 0.093180746 -0.063652247 0.093112305 -0.063993961 0.05120112 0.098089695
13730000000 0.041528828 0.0096291732 0.06295839 -0.095778145 0.062833481 -0.096079394 0.051862732 0.087405436
13740000000 0.038786795 0.0092136832 0.020958107 -0.11271252 0.02057752 -0.11265297 0.051210955 0.078861646
13750000000 0.029974051 0.009674741 -0.024174765 -0.11225781 -0.02418226 -0.11256548 0.048494704 0.074389212
13760000000 0.033481665 0.01276413 -0.06329681 -0.094557822 -0.063736156 -0.094373822 0.048152424 0.085334145
13770000000 0.031124953 0.013157933 -0.094354868 -0.064070895 -0.094651811 -0.064114533 0.053298406 0.089784458
13780000000 0.041091945 0.015830459 -0.11182381 -0.022920134 -0.11196192 -0.022604972 0.059918851 0.088970967
13790000000 0.046001982 0.013676139 -0.11262799 0.022222379 -0.11284621 0.022831367 0.059858464 0.074600533
13800000000 0.053027425 0.0069495803 -0.09562099 0.063664868 -0.095743716 0.063922167 0.050563551 0.067942403
13810000000 0.047698297 0.0019528056 -0.063295998 0.095077462 -0.063136861 0.095887102 0.045531787 0.067176111
13820000000 0.048615821 -0.00051624887 -0.023725946 0.11077622 -0.022974491 0.11080901 0.047955554 0.08313901
13830000000 0.03928595 -0.00051182322 0.019630756 0.1098231 0.02025957 0.10974736 0.061843291 0.090445817
13840000000 0.036012895 0.0034009665 0.05884672 0.096038714 0.059144571 0.095982358 0.070705123 0.086991638
13850000000 0.031987455 0.0081026778 0.092253603 0.066561006 0.092362195 0.066339821 0.072360754 0.069267474
13860000000 0.039354503 0.0095693013 0.11226059 0.026568739 0.11308697 0.026299238 0.063120887 0.055575989
13870000000 0.039602142 0.006710534 0.1124811 -0.018389398 0.11279042 -0.019029925 0.05360939 0.05160686
13880000000 0.048460908 -9.4878487e-05 0.09699931 -0.059370406 0.097274855 -0.060314186 0.053029671 0.060493521
13890000000 0.047461949 -0.009012593 0.068027884 -0.089327022 0.067406632 -0.090236202 0.064546019 0.069832057
13900000000 0.046839908 -0.019371709 0.029057428 -0.11025651 0.028061256 -0.11026399 0.0712732 0.068108469
13910000000 0.038400173 -0.020627737 -0.013828401 -0.11278492 -0.013887342 -0.11303186 0.07499779 0.056379884
13920000000 0.034409367 -0.020810558 -0.057522286 -0.10037529 -0.058341492 -0.10074632 0.064436942 0.042380761
13930000000 0.028538594 -0.013470713 -0.0921271 -0.07044965 -0.092894815 -0.069914058 0.060810104 0.04429302
13940000000 0.030555775 -0.0092923492 -0.11032317 -0.029225206 -0.11097336 -0.028715771 0.060738303 0.047985077
13950000000 0.033166915 -0.0053828903 -0.11245544 0.014221957 -0.1123924 0.015123665 0.072681017 0.054627027
13960000000 0.035339274 -0.011220895 -0.098580167 0.054655377 -0.098334588 0.054830421 0.07907711 0.044988208
13970000000 0.034745447 -0.015959948 -0.072062209 0.089010231 -0.071985185 0.089584365 0.074361898 0.032162175
13980000000 0.031529371 -0.028011989 -0.033017814 0.11058241 -0.032521397 0.11104806 0.060870722 0.02209973
13990000000 0.023220547 -0.035634402 0.013484307 0.11508723 0.014040589 0.11573833 0.048872937 0.024931777
14000000000 0.011809273 -0.039499324 0.055520359 0.10001625 0.056748509 0.099620692 0.052129969 0.03756566
14010000000 0.0095116571 -0.036344379 0.087394632 0.070524476 0.087495215 0.069639862 0.061233971 0.03846731
14020000000 0.0060392758 -0.036241345 0.10722718 0.033649318 0.10728805 0.033570729 0.070192359 0.034434997
14030000000 0.010872149 -0.02940676 0.11311346 -0.0078526363 0.11321662 -0.0081137158 0.066181146 0.016251298
14040000000 0.013469288 -0.028109172 0.10310222 -0.051057965 0.10320099 -0.051656902 0.051969767 0.0056504663
14050000000 0.020016396 -0.028159685 0.076930791 -0.087320112 0.076471977 -0.08819221 0.041530024 0.0095053725
14060000000 0.015509431 -0.033461135 0.035436384 -0.10910028 0.034586433 -0.10921466 0.038771924 0.019212436
14070000000 0.013557962 -0.036025826 -0.0072007733 -0.11449716 -0.0074899397 -0.11414996 0.045809414 0.024047082
14080000000 0.00018078042 -0.037920397 -0.04899136 -0.10223302 -0.049404025 -0.10236928 0.049625903 0.013747197
14090000000 -0.0070051053 -0.035373934 -0.086111516 -0.078519881 -0.086515501 -0.078277655 0.045987576 0.0018350054
14100000000 -0.019151848 -0.031222902 -0.10927188 -0.040014874 -0.10971164 -0.039445322 0.03161525 -0.01133034
14110000000 -0.020159975 -0.02726043 -0.11694239 0.0063141696 -0.11713164 0.0070639774 0.024648145 -0.0053346455
14120000000 -0.022333715 -0.024861544 -0.10615619 0.047680005 -0.10553624 0.048234567 0.027317517 0.0045657521
14130000000 -0.014416564 -0.026478065 -0.07790184 0.086408786 -0.077736109 0.086943455 0.036522456 0.015131495
14140000000 -0.017623268 -0.030466923 -0.041539695 0.10788648 -0.040895592 0.10810753 0.042321667 0.0089659952
14150000000 -0.015472431 -0.033939935 0.0030438071 0.11576466 0.0035194084 0.11605436 0.036265802 -0.003201124
14160000000 -0.021782914 -0.036211908 0.045986708 0.10815293 0.04700334 0.10826007 0.027514558 -0.014658866
14170000000 -0.024541957 -0.033673979 0.083676532 0.081235833 0.084313989 0.080575295 0.012682959 -0.011380158
14180000000 -0.033026677 -0.026660802 0.1100454 0.043295152 0.11079583 0.042686656 0.014104664 0.00010614796
14190000000 -0.031144541 -0.019112393 0.11571097 -0.0011636429 0.11597307 -0.0022717528 0.017269684 0.012655662
14200000000 -0.036333356 -0.01488877 0.10835262 -0.045671962 0.10793356 -0.046457246 0.022221122 0.01363134
14210000000 -0.032035582 -0.011626542 0.082872488 -0.081500001 0.082476176 -0.082446687 0.013334612 0.0050605023
14220000000 -0.03616276 -0.014642462 0.045422398 -0.10887591 0.044406362 -0.10964078 0.0053053382 -0.0004869831
14230000000 -0.03478821 -0.016021509 0.0014447495 -0.11793841 0.00059245899 -0.11818941 -0.0017864333 -0.0028079893
14240000000 -0.041688681 -0.017850798 -0.045116417 -0.10938269 -0.04629657 -0.10930369 0.0040914835 0.0048391861
14250000000 -0.039631918 -0.017679453 -0.082574949 -0.085399337 -0.083370507 -0.084800705 0.014053384 0.0051081055
14260000000 -0.046337225 -0.014842288 -0.10774462 -0.045694225 -0.10833969 -0.045052998 0.012861425 0.0026416345
14270000000 -0.039380684 -0.010645134 -0.11760361 -0.0035390779 -0.11792624 -0.0022537634 0.0065032272 -0.002310517
14280000000 -0.043051817 -0.0080146827 -0.11041317 0.042275943 -0.1100029 0.043390505 -0.0095566176 -0.0036669576
14290000000 -0.033495013 -0.0022217724 -0.086560868 0.081871927 -0.086115755 0.082729422 -0.011841013 0.0052295234
14300000000 -0.037532821 -0.0022906847 -0.049015064 0.10799299 -0.047888018 0.10855421 -0.0086570913 0.012995273
14310000000 -0.032638732 -0.0010943813 -0.00369763 0.11857685 -0.0030185096 0.11894697 0.0043495502 0.01998798
14320000000 -0.042365283 -0.0035933461 0.040027969 0.11033812 0.041037753 0.11032002 0.013533112 0.012976621
14330000000 -0.041002288 -0.00058710761 0.080502756 0.087511063 0.081338681 0.086904936 0.0066650659 0.0080420729
14340000000 -0.049475811 0.00051608495 0.10638724 0.050810337 0.10704881 0.050025329 -0.0015888702 -0.0012496652
14350000000 -0.045010652 0.0045916317 0.11870692 0.0060427859 0.11895263 0.0050905365 -0.013982622 0.00080000004
14360000000 -0.046987586 0.006152668 0.11215579 -0.038641777 0.11211148 -0.039570436 -0.0097032478 0.0096084485
14370000000 -0.035590097 0.0045168595 0.088488668 -0.078567356 0.088078186 -0.079628423 -0.0051800064 0.011577954
14380000000 -0.035934631 0.0013736254 0.052899469 -0.10671419 0.051894635 -0.10731545 0.00046065939 0.010411584
14390000000 -0.02686204 -0.0025067609 0.0085900202 -0.11786377 0.0076916069 -0.11808808 -0.0026668026 0.0052259299
14400000000 -0.035386942 -0.0069722449 -0.037055038 -0.11392823 -0.038201965 -0.11380263 -0.0087924115 0.0090254936
14410000000 -0.036775615 -0.0036190031 -0.077300094 -0.090785116 -0.078305617 -0.090456754 -0.0057541374 0.012121207
14420000000 -0.044967137 0.0025908956 -0.10564448 -0.054013856 -0.10664679 -0.053119794 0.0018701111 0.014275836
14430000000 -0.041862953 0.0094094565 -0.11873389 -0.010888147 -0.11901554 -0.0095323846 0.010141798 0.011848046
14440000000 -0.043725073 0.017607773 -0.11329432 0.035359673 -0.11296044 0.036417708 0.0047384286 0.0013885415
14450000000 -0.03360099 0.016392287 -0.092699282 0.075805776 -0.092237204 0.076666355 -0.0060526431 -0.0055017956
14460000000 -0.03522408 0.010345049 -0.056537095 0.10534778 -0.055861674 0.10612608 -0.02029529 -0.0052814148
14470000000 -0.031537376 -0.00079172291 -0.012345575 0.11929321 -0.010961823 0.12003025 -0.023298917 0.0051915916
14480000000 -0.04105426 -0.0086925719 0.034008581 0.11533907 0.035393436 0.11520828 -0.012399441 0.012300846
14490000000 -0.046300557 -0.011172239 0.075540788 0.091906466 0.076624498 0.091093175 -0.00072732777 0.013071297
14500000000 -0.052456055 -0.0073796958 0.10358502 0.05768704 0.10404167 0.056780629 0.0058522262 0.0053286771
14510000000 -0.053973656 -0.00026714336 0.1171578 0.014000542 0.11720233 0.01321514 -0.0007700455 -0.0066746199
14520000000 -0.048824467 0.007373699 0.11523052 -0.031207243 0.11562596 -0.031862147 -0.011239624 -0.013354037
14530000000 -0.03947689 0.012160009 0.094447769 -0.072008125 0.094383806 -0.073218331 -0.014424914 -0.012979534
14540000000 -0.035136677 0.0089150416 0.060395792 -0.1037272 0.059638627 -0.10448238 -0.016078658 -0.0092657339
14550000000 -0.032582287 0.0037786253 0.01686408 -0.11755437 0.016012635 -0.11762264 -0.011079008 -0.0023179206
14560000000 -0.041421242 -0.0041596983 -0.030817665 -0.11520909 -0.031411804 -0.1153805 -0.017132431 -0.0028063552
14570000000 -0.05151676 -0.0068216496 -0.070241995 -0.094685525 -0.070570566 -0.094476163 -0.023533702 0.001396477
14580000000 -0.063082531 -0.0054679429 -0.10302223 -0.06069928 -0.10362212 -0.060578756 -0.027322769 -0.0026177294
14590000000 -0.069999233 0.0017029066 -0.11686055 -0.018142994 -0.11693616 -0.017499421 -0.028369192 -0.0040726606
14600000000 -0.070538521 0.0084216539 -0.11524066 0.028059389 -0.11504801 0.02825449 -0.018848976 -0.012144284
14610000000 -0.06427373 0.011977956 -0.096492991 0.069069475 -0.096709773 0.06883204 -0.020402247 -0.017656213
14620000000 -0.057528615 0.011495914 -0.062055141 0.099604458 -0.062476572 0.099874049 -0.025070129 -0.018087212
14630000000 -0.052413598 0.0084716883 -0.020844879 0.11708559 -0.020991517 0.11736321 -0.038951322 -0.0159672
14640000000 -0.050076853 0.0024526236 0.025112389 0.11531717 0.025411688 0.11563938 -0.045795955 -0.0075693624
14650000000 -0.058621258 0.00011210609 0.067312449 0.098480627 0.067448586 0.098289035 -0.046154182 -0.006563928
14660000000 -0.066024728 0.00064401701 0.098815411 0.06464386 0.098103032 0.064737163 -0.04225108 -0.0051607378
14670000000 -0.079524152 0.0091258399 0.11576787 0.021381263 0.11576696 0.022340901 -0.037764616 -0.0096815042
14680000000 -0.079870023 0.017807428 0.11506092 -0.022318207 0.11548443 -0.021429304 -0.044607624 -0.009849133
14690000000 -0.085331544 0.028939744 0.098042905 -0.064835429 0.099021308 -0.064542443 -0.049719829 -0.0048466157
14700000000 -0.076178044 0.032053173 0.068157107 -0.096370071 0.06879545 -0.096478015 -0.057001613 -0.0043957671
14710000000 -0.074472189 0.032354601 0.024946099 -0.11507931 0.025395047 -0.11512452 -0.056693137 -0.00078201503
14720000000 -0.066796064 0.023397228 -0.019278979 -0.11611713 -0.018327903 -0.1162415 -0.055277932 -0.0089084562
14730000000 -0.071494058 0.020146631 -0.062220387 -0.099708043 -0.061410286 -0.10050744 -0.060847349 -0.0070243049
14740000000 -0.073760934 0.014111053 -0.095145509 -0.06961555 -0.095101409 -0.070832066 -0.064820163 -0.0041724779
14750000000 -0.08427418 0.022237889 -0.11454938 -0.029059049 -0.11479764 -0.029747687 -0.072654307 0.0046235994
14760000000 -0.083857693 0.029805245 -0.11775722 0.016715929 -0.1180575 0.016001079 -0.069293737 0.012301829
14770000000 -0.087218016 0.045932025 -0.10187557 0.059827276 -0.10247346 0.058825471 -0.06662748 0.012533156
14780000000 -0.076325752 0.052749977 -0.071046218 0.094429858 -0.072597429 0.094208948 -0.061548796 0.012446349
14790000000 -0.073744342 0.060359739 -0.030270904 0.11349083 -0.031125516 0.1141533 -0.064344376 0.0092507871
14800000000 -0.065439411 0.053648632 0.013999272 0.11684911 0.013432603 0.11739857 -0.071794473 0.012522556
14810000000 -0.07008522 0.052712172 0.056442395 0.10383795 0.056303404 0.10425423 -0.078299358 0.0189353
14820000000 -0.07321386 0.046714559 0.092626184 0.075014502 0.09197709 0.075694859 -0.080104679 0.023745818
14830000000 -0.08177571 0.050195448 0.11423338 0.033538077 0.11427644 0.034722097 -0.075317256 0.024211166
14840000000 -0.082720459 0.051420849 0.11847675 -0.01221163 0.11894247 -0.011533357 -0.069493912 0.021791549
14850000000 -0.08225023 0.063134186 0.10475422 -0.055023555 0.10562886 -0.05457624 -0.07170406 0.024732063
14860000000 -0.070995837 0.065324232 0.077285513 -0.090682454 0.078041218 -0.090633526 -0.070758842 0.032595672
14870000000 -0.062031306 0.070823833 0.037059989 -0.11251342 0.037822966 -0.11249793 -0.076743737 0.042444266
14880000000 -0.051113084 0.067233376 -0.0087853745 -0.11930823 -0.0080097392 -0.11971155 -0.071116842 0.047308665
14890000000 -0.04842329 0.065558709 -0.05332372 -0.10661925 -0.052870948 -0.10713094 -0.067998528 0.041079983
14900000000 -0.048146144 0.062801734 -0.090566829 -0.078588635 -0.090110727 -0.079535447 -0.065233573 0.038478367
14910000000 -0.053214051 0.068304367 -0.11271389 -0.039509736 -0.11267972 -0.040205061 -0.065017343 0.033805601
14920000000 -0.056652401 0.071490429 -0.11973649 0.0065869251 -0.11962278 0.0055545932 -0.071494669 0.045456015
14930000000 -0.056492537 0.07979501 -0.10857268 0.050883532 -0.10927242 0.04988993 -0.068295687 0.052936383
14940000000 -0.052075878 0.08090239 -0.080682553 0.088900715 -0.081595853 0.088432215 -0.070983261 0.056423955
14950000000 -0.047057878 0.083282992 -0.041061081 0.11385736 -0.042025574 0.11372776 -0.062640913 0.0534481
14960000000 -0.038957972 0.076175332 0.0054613203 0.12017754 0.004339572 0.12040751 -0.06070365 0.041907944
14970000000 -0.036749352 0.06881658 0.049975976 0.10973431 0.049497649 0.11033499 -0.057462975 0.046229009
14980000000 -0.035572529 0.062103897 0.086791508 0.082478419 0.086121544 0.083248839 -0.055235285 0.050523557
14990000000 -0.035192937 0.056601383 0.11175299 0.043740816 0.11175132 0.044838686 -0.053552415 0.064183049
15000000000 -0.037477493 0.058353722 0.12040813 -0.0013456866 0.12064554 -0.0006070435 -0.044475902 0.064451873
15010000000 -0.037140712 0.062733307 0.111283 -0.04817716 0.11190741 -0.047440883 -0.048715204 0.054854769
15020000000 -0.031578638 0.068176195 0.084109113 -0.086972319 0.08482264 -0.086602859 -0.049971562 0.045007855
15030000000 -0.028202947 0.069760665 0.044516534 -0.11217427 0.045461413 -0.11204393 -0.060589254 0.038314119
15040000000 -0.021394353 0.072554529 -0.00014446303 -0.12035125 0.00060912035 -0.1208001 -0.059043828 0.05365717
15050000000 -0.01754342 0.063630693 -0.045509391 -0.11087943 -0.04513602 -0.11150041 -0.053275786 0.060304984
15060000000 -0.019639533 0.059596594 -0.084604442 -0.086134091 -0.084325813 -0.086614951 -0.048056547 0.069390535
15070000000 -0.02540379 0.048561282 -0.11092839 -0.046687372 -0.1110614 -0.047528479 -0.035666324 0.055930734
15080000000 -0.03191182 0.048374452 -0.12124982 -0.001198519 -0.1214394 -0.0017222539 -0.044182122 0.041585654
15090000000 -0.039512612 0.045049533 -0.11166953 0.044726003 -0.11217161 0.044402484 -0.042491324 0.033764362
15100000000 -0.040962663 0.054290339 -0.087587148 0.082435653 -0.088063627 0.082403742 -0.052476078 0.034041651
15110000000 -0.036654364 0.055870891 -0.049287912 0.10946081 -0.049569402 0.10960405 -0.049015015 0.049560923
15120000000 -0.027503623 0.058891773 -0.0047791363 0.12033913 -0.0050847027 0.12032113 -0.046056144 0.054047596
15130000000 -0.019960811 0.053195752 0.042529579 0.11291741 0.042119332 0.11315753 -0.046627659 0.057133723
15140000000 -0.014795637 0.047886059 0.082459033 0.087595709 0.082374513 0.088224098 -0.048821747 0.048374664
15150000000 -0.02187261 0.036271505 0.10875928 0.049765147 0.10892913 0.050252322 -0.05751821 0.046109948
15160000000 -0.030160189 0.03766248 0.1188827 0.0051620826 0.11922047 0.0054775141 -0.056165405 0.048585288
15170000000 -0.041706212 0.037012223 0.11179775 -0.039556559 0.11212968 -0.039412636 -0.053070083 0.049880199
15180000000 -0.049229931 0.051147476 0.087894127 -0.078919023 0.088516191 -0.078800634 -0.047988191 0.049718875
15190000000 -0.048459329 0.057688531 0.05243801 -0.10599422 0.05267334 -0.10616174 -0.052373741 0.038881462
15200000000 -0.041358583 0.06701453 0.0081339888 -0.11825079 0.0084656123 -0.1188503 -0.061943959 0.036625694
15210000000 -0.033175491 0.060667381 -0.037232429 -0.1124264 -0.037283469 -0.11272571 -0.069151253 0.039566148
15220000000 -0.025226176 0.057029247 -0.076173127 -0.089526281 -0.076125555 -0.089965761 -0.072682343 0.052096851
15230000000 -0.026812064 0.043560058 -0.10506418 -0.055004232 -0.10525385 -0.055496495 -0.061582714 0.063657001
15240000000 -0.0319263 0.040343821 -0.11631064 -0.010382518 -0.11694112 -0.01070426 -0.054351389 0.0648131
15250000000 -0.04183384 0.038817074 -0.11249398 0.034096278 -0.11309849 0.034148753 -0.050483514 0.060259029
15260000000 -0.04789158 0.049581267 -0.090146571 0.073119879 -0.090559088 0.073763385 -0.055899341 0.051025547
15270000000 -0.048867516 0.057860836 -0.056275208 0.10229451 -0.056282204 0.10265242 -0.068878494 0.050664555
15280000000 -0.042861905 0.072369866 -0.013857011 0.1141104 -0.013780709 0.11416165 -0.074377574 0.062813945
15290000000 -0.034014121 0.075403214 0.030260675 0.11211357 0.030032482 0.1123019 -0.076228045 0.070768513
15300000000 -0.023541162 0.074376576 0.069441721 0.09240938 0.069420613 0.092812397 -0.070062198 0.079938129
15310000000 -0.018673576 0.064596757 0.10055306 0.059248205 0.10089794 0.059638575 -0.06584847 0.069989182
15320000000 -0.020138729 0.056016386 0.11465555 0.017309135 0.11516166 0.017325791 -0.068750814 0.068038829
15330000000 -0.028084798 0.05021441 0.11297924 -0.028266836 0.11303668 -0.028439876 -0.06256783 0.066882826
15340000000 -0.03626027 0.053068481 0.093466751 -0.066878498 0.093654424 -0.067069128 -0.063272417 0.075194731
15350000000 -0.039406046 0.059762351 0.06132184 -0.097510993 0.061492704 -0.097411595 -0.051630266 0.086588986
15360000000 -0.037033375 0.06936577 0.021149155 -0.11236382 0.021492764 -0.11260889 -0.052083842 0.086738966
15370000000 -0.024766035 0.075681992 -0.022473622 -0.11266479 -0.02240815 -0.1127398 -0.054019056 0.087721772
15380000000 -0.014518147 0.077295557 -0.06379427 -0.096294321 -0.063506857 -0.09636341 -0.060685795 0.080698654
15390000000 -0.00049227104 0.069809549 -0.094938636 -0.065362222 -0.094444409 -0.065747947 -0.066910163 0.087352306
15400000000 0.00067225436 0.058855951 -0.11366183 -0.023789514 -0.11380881 -0.024542283 -0.058667507 0.094428763
15410000000 -0.0010096096 0.049381766 -0.11309368 0.019372279 -0.11340391 0.018943608 -0.050588664 0.1028188
15420000000 -0.010356141 0.045709208 -0.098298758 0.061735984 -0.098757997 0.061554573 -0.037535716 0.10376486
15430000000 -0.015406068 0.048374377 -0.067421131 0.093130007 -0.067936555 0.092702679 -0.038061403 0.092150308
15440000000 -0.021126974 0.056859162 -0.026880745 0.11190383 -0.027756471 0.11170639 -0.043221507 0.0862711
15450000000 -0.010400986 0.062915027 0.016127415 0.11424525 0.015148535 0.11456379 -0.046912722 0.079212904
15460000000 -0.0022623213 0.063354291 0.058539376 0.099202655 0.057783663 0.10016407 -0.046685338 0.090865761
15470000000 0.011512873 0.05768716 0.091006778 0.07134448 0.090908222 0.07237263 -0.032322347 0.098125309
15480000000 0.016079739 0.045960158 0.11099882 0.032031804 0.11152684 0.032856107 -0.02476386 0.10620537
15490000000 0.017494116 0.031948224 0.11627153 -0.012269869 0.11628613 -0.011602074 -0.015089132 0.10724767
15500000000 0.0048075989 0.026733803 0.10214417 -0.055165019 0.10280263 -0.054594129 -0.02020517 0.097821832
15510000000 0.0024374761 0.025688998 0.074018158 -0.091079965 0.07490322 -0.090480894 -0.021335147 0.097606704
15520000000 -0.0060226042 0.032633692 0.033352844 -0.11127457 0.034698293 -0.11159714 -0.023544606 0.091985323
15530000000 -0.00023595709 0.037522323 -0.010545382 -0.11573772 -0.0097026285 -0.11636447 -0.020767948 0.095691495
15540000000 0.0036875978 0.038851578 -0.051932208 -0.10354877 -0.051829357 -0.10432887 -0.017294902 0.093973793
15550000000 0.016947674 0.031501759 -0.087894276 -0.076535188 -0.087665126 -0.077072702 -0.019692615 0.092113487
15560000000 0.012889152 0.020131648 -0.11048815 -0.038211454 -0.11051409 -0.038982406 -0.020050969 0.09086407
15570000000 0.016848857 0.0084712729 -0.11758821 0.0066806711 -0.11758579 0.0058205985 -0.019022908 0.091549814
15580000000 0.003412622 -0.00084133679 -0.10719107 0.051030535 -0.10792722 0.050407078 -0.0092526935 0.093178749
15590000000 -0.0011020356 -0.00086929393 -0.079661995 0.087777935 -0.080320969 0.087324902 0.0012782365 0.08922229
15600000000 -0.0076274457 0.0034829767 -0.040356155 0.11158032 -0.04124362 0.11146876 0.0025465358 0.083690755
15610000000 -0.001749309 0.0068724081 0.0049997666 0.11781793 0.0042568985 0.11807229 0.0013242812 0.076226681
15620000000 -0.0017935382 0.0072237425 0.048704665 0.10652671 0.048157968 0.10722993 -0.012903882 0.073172562
15630000000 0.0090152398 0.0026480223 0.084971592 0.081351802 0.084822975 0.0819925 -0.01493427 0.080021463
15640000000 0.0051234914 -0.0069811093 0.10970633 0.043480366 0.10989038 0.043942545 -0.013082974 0.082971469
15650000000 0.0037597986 -0.014904388 0.11880641 -0.00093806908 0.1186514 -0.00016287342 -0.0058610924 0.092179403
15660000000 -0.0088454476 -0.020061469 0.10947178 -0.045939393 0.10985532 -0.045345984 0.0031265728 0.085123181
15670000000 -0.015831906 -0.021901671 0.08432962 -0.084582955 0.084905744 -0.084172405 -0.0016323766 0.075744018
15680000000 -0.025337219 -0.01816475 0.044934828 -0.11061817 0.045701899 -0.11056233 -0.0032172841 0.065497063
15690000000 -0.023861133 -0.015589888 -0.00017521903 -0.11898696 0.00046638399 -0.11916693 -0.0082584191 0.058193933
15700000000 -0.024117347 -0.013532728 -0.044700116 -0.11031114 -0.044155568 -0.11085679 -0.0079699215 0.0638097
15710000000 -0.017946348 -0.017206104 -0.082741693 -0.085686408 -0.082396604 -0.086169921 -0.0025878325 0.066652581
15720000000 -0.016437389 -0.025528753 -0.10858087 -0.048708849 -0.10849259 -0.049108855 -0.0051508769 0.072390966
15730000000 -0.01727739 -0.034391027 -0.11923081 -0.0035003237 -0.11921431 -0.0041044094 -0.0074559692 0.071801066
15740000000 -0.025770478 -0.040559877 -0.11123633 0.041931689 -0.11154575 0.04134576 -0.014462811 0.070287585
15750000000 -0.03452174 -0.041134827 -0.087859772 0.08184018 -0.088605314 0.081499353 -0.010348622 0.071659043
15760000000 -0.046394348 -0.038029987 -0.050510421 0.1091832 -0.051184829 0.10897665 -0.0035046935 0.068507537
15770000000 -0.049729787 -0.028962072 -0.005801674 0.12051114 -0.0063542835 0.12068766 0.0040665846 0.071002468
15780000000 -0.049020842 -0.02085492 0.040995106 0.11290732 0.040533856 0.11329517 0.0019249674 0.063523993
15790000000 -0.044170603 -0.019071884 0.080263592 0.088144347 0.080064364 0.088654563 -0.011945499 0.064096048
15800000000 -0.040374253 -0.024594299 0.107992 0.05104176 0.10783935 0.051521752 -0.021763625 0.060425609
15810000000 -0.040431131 -0.034706067 0.11833789 0.0065810569 0.11859719 0.0070384527 -0.030963652 0.063482672
15820000000 -0.046714067 -0.046566088 0.11359981 -0.037695922 0.11378304 -0.037444592 -0.019992866 0.070491567
15830000000 -0.058073625 -0.054557011 0.090510041 -0.077958748 0.09087225 -0.077704951 -0.01070746 0.072614267
15840000000 -0.071962431 -0.051924333 0.05495381 -0.10672289 0.055366956 -0.10675177 -0.00059140101 0.077992067
15850000000 -0.079295091 -0.043726582 0.009802755 -0.12030004 0.010029823 -0.12040851 -7.8324229e-05 0.070797265
15860000000 -0.078241296 -0.032018058 -0.037578143 -0.11440621 -0.037297904 -0.11457185 -0.0096921716 0.06957756
15870000000 -0.070217401 -0.025126874 -0.077523448 -0.090906382 -0.077482492 -0.091307938 -0.013123659 0.064445101
15880000000 -0.057784114 -0.023695111 -0.10574717 -0.05469998 -0.10586874 -0.054921474 -0.018034806 0.064686179
15890000000 -0.050137691 -0.033440098 -0.11795665 -0.010563585 -0.1184672 -0.010600964 -0.013660676 0.068922549
15900000000 -0.053029001 -0.047244385 -0.11299621 0.034856997 -0.11312634 0.035404861 -0.014866935 0.073345624
15910000000 -0.06679631 -0.055854872 -0.091740772 0.074156187 -0.09155567 0.074383296 -0.012400549 0.082445212
15920000000 -0.083562486 -0.059486303 -0.057575155 0.10330804 -0.057473216 0.10329808 -0.0097700693 0.08364515
15930000000 -0.10005259 -0.050563462 -0.014506355 0.11753409 -0.014530763 0.11750342 -0.0062172562 0.085339472
15940000000 -0.10439428 -0.039449979 0.03176941 0.11468835 0.03186442 0.11505008 0.0023302063 0.079763643
15950000000 -0.10236599 -0.02942938 0.073614925 0.093627803 0.073853731 0.093811661 0.0011429824 0.075443275
15960000000 -0.088534348 -0.027969213 0.10337872 0.057972137 0.10377777 0.057984617 -0.0022454325 0.073094875
15970000000 -0.078622997 -0.036820907 0.11702549 0.014759595 0.11741018 0.014457269 -0.010336993 0.071855538
15980000000 -0.07235536 -0.053910479 0.11288201 -0.029742511 0.11314397 -0.030388938 -0.016232319 0.078593731
15990000000 -0.081798717 -0.067122191 0.092944577 -0.070420124 0.092798248 -0.070826434 -0.010341991 0.082348324
16000000000 -0.093288608 -0.075693831 0.060100138 -0.099390052 0.059832335 -0.099542402 -0.0021483079 0.08644852
16010000000 -0.11274526 -0.072625369 0.018489521 -0.11605313 0.018187061 -0.1161368 0.0082681775 0.086319193
16020000000 -0.1218049 -0.061062306 -0.026594678 -0.11395542 -0.026628068 -0.1139472 0.010592854 0.080020472
16030000000 -0.12757449 -0.046573836 -0.068608247 -0.095447645 -0.069034927 -0.095571689 0.0062933881 0.07700108
16040000000 -0.12012958 -0.036495786 -0.09897083 -0.061806008 -0.099364616 -0.06184138 0.0048391614 0.071178608
16050000000 -0.11207069 -0.037030201 -0.11527536 -0.019227847 -0.1156709 -0.019023906 0.0036331844 0.071116909
16060000000 -0.10502373 -0.05132227 -0.11465722 0.025566895 -0.11478714 0.025974441 0.012109142 0.071656041
16070000000 -0.11186803 -0.067763478 -0.095120952 0.067481443 -0.094943829 0.067744523 0.013392599 0.075062513
16080000000 -0.12293582 -0.082256146 -0.063132502 0.097588442 -0.062985823 0.097765252 0.014054395 0.081893608
16090000000 -0.14465557 -0.087906592 -0.020481968 0.11252158 -0.020350054 0.11259029 0.0085120583 0.081393264
16100000000 -0.15772235 -0.083049253 0.021882471 0.11254515 0.021855926 0.11271538 0.0075916997 0.080611803
16110000000 -0.16989531 -0.070531785 0.063115239 0.096017085 0.063362777 0.096066408 0.012126565 0.072594531
16120000000 -0.16512856 -0.058267273 0.095191859 0.065496758 0.095430925 0.065497033 0.017843407 0.065838858
16130000000 -0.16067946 -0.050368197 0.11351596 0.02504199 0.11373106 0.024892259 0.024885138 0.062196981
16140000000 -0.1495157 -0.054777402 0.11519416 -0.021457467 0.11526603 -0.0217897 0.020376822 0.061711587
16150000000 -0.15248799 -0.065244898 0.096626893 -0.062720582 0.096440643 -0.062744923 0.013707792 0.065493733
16160000000 -0.16119947 -0.07875669 0.064932302 -0.094583392 0.064964615 -0.094681948 0.0087267449 0.065860532
16170000000 -0.18301639 -0.083006084 0.025126528 -0.11006987 0.025199058 -0.11040157 0.01163561 0.065681472
16180000000 -0.20380457 -0.08438009 -0.018448217 -0.1130613 -0.018667359 -0.11305385 0.023083009 0.060825232
16190000000 -0.22249387 -0.071672074 -0.059350908 -0.097391054 -0.059758417 -0.097441085 0.028527219 0.058675557
16200000000 -0.22645757 -0.060395189 -0.09251821 -0.068147168 -0.092559844 -0.067954078 0.030110233 0.058783054
16210000000 -0.2247051 -0.051848803 -0.11050067 -0.027888102 -0.11057399 -0.027945941 0.018048728 0.059919745
16220000000 -0.21751322 -0.051883724 -0.11185692 0.015782354 -0.1121138 0.015875267 0.0096835103 0.062528156
16230000000 -0.21471596 -0.05867327 -0.097696379 0.057007778 -0.097763099 0.05695628 0.0039684353 0.056962125
16240000000 -0.21946131 -0.06917873 -0.069000356 0.089851864 -0.069227211 0.090042062 0.0084292963 0.054015268
16250000000 -0.23480384 -0.07379052 -0.029799756 0.11042884 -0.030135572 0.11054991 0.015134832 0.04887956
16260000000 -0.2527504 -0.068579905 0.01474699 0.11267097 0.014530726 0.11297817 0.014323395 0.049745329
16270000000 -0.26948375 -0.054512329 0.055540264 0.09833315 0.055694692 0.098785535 0.012853824 0.050926678
16280000000 -0.27767158 -0.038571946 0.087710939 0.068936177 0.087722376 0.069425814 0.0071179401 0.050018437
16290000000 -0.28025067 -0.026731523 0.10752075 0.031313017 0.10807208 0.031634308 0.0072361976 0.04792437
16300000000 -0.27895364 -0.022408668 0.1117207 -0.012065656 0.11196311 -0.011926753 0.010067008 0.041300025
16310000000 -0.28239673 -0.025202088 0.09917257 -0.053683773 0.099597767 -0.05350408 0.011896483 0.040521741
16320000000 -0.28959578 -0.031224541 0.070979729 -0.087499335 0.071768709 -0.0874414 0.0095043601 0.046154324
16330000000 -0.30429173 -0.034795254 0.032434825 -0.10719161 0.032941751 -0.10771941 0.0016196929 0.055025682
16340000000 -0.31807822 -0.02979283 -0.010164961 -0.11120729 -0.0099960044 -0.11172782 -0.003065208 0.061780997
16350000000 -0.32772738 -0.018144168 -0.051223349 -0.0980919 -0.051286198 -0.098554052 -0.0038787741 0.058191657
16360000000 -0.33231816 -0.0052419454 -0.085165255 -0.072701789 -0.085142635 -0.072723709 8.7604858e-05 0.051806424
16370000000 -0.33183336 0.0076977722 -0.10683873 -0.033374008 -0.10689772 -0.033975601 0.0027762984 0.040525243
16380000000 -0.32978424 0.015964553 -0.11183773 0.0092967423 -0.1121602 0.0088813659 -0.0019546403 0.038671143
16390000000 -0.33092716 0.017681383 -0.098743901 0.051620267 -0.099188678 0.051215935 -0.010612502 0.040137976
16400000000 -0.34111491 0.020086393 -0.071804471 0.083984673 -0.072274074 0.084345952 -0.019488415 0.047275133
16410000000 -0.35461602 0.025838554 -0.034270875 0.10430935 -0.034171015 0.10442768 -0.017266147 0.05492207
16420000000 -0.36881587 0.035310701 0.0086132176 0.11021996 0.0083115362 0.11024045 -0.006959483 0.057475667
16430000000 -0.3788667 0.046453461 0.048948187 0.098157406 0.048795946 0.098509736 0.004387429 0.05927141
16440000000 -0.38558966 0.05919826 0.083014697 0.073338225 0.083114393 0.073510967 0.007979366 0.057643864
16450000000 -0.38441512 0.067804776 0.10343317 0.035879433 0.1034591 0.036227264 -0.0003249906 0.057245221
16460000000 -0.3841635 0.073933385 0.11004074 -0.0067750067 0.11013045 -0.0065940097 -0.011510212 0.057385121
16470000000 -0.38189632 0.073477656 0.098087184 -0.048958823 0.098403327 -0.04869549 -0.019880507 0.054204036
16480000000 -0.3875711 0.077540889 0.071601667 -0.082635038 0.072163828 -0.082735941 -0.022857077 0.056762513
16490000000 -0.39574867 0.07988432 0.034617901 -0.10379501 0.034877319 -0.10400612 -0.017968286 0.059827235
16500000000 -0.40791094 0.094940171 -0.0080184061 -0.10753588 -0.0077684559 -0.1077785 -0.015482219 0.068348072
16510000000 -0.41587099 0.10898861 -0.046711266 -0.095731027 -0.046664983 -0.09597256 -0.010390786 0.074649043
16520000000 -0.42125449 0.13015172 -0.079574823 -0.070758671 -0.079450786 -0.070884995 -0.009444437 0.073889829
16530000000 -0.4212622 0.14390299 -0.10112434 -0.035771437 -0.1009759 -0.036330376 -0.001345614 0.066700615
16540000000 -0.41907108 0.15573899 -0.10834089 0.0064323805 -0.10865068 0.0057553202 0.0026113335 0.054565985
16550000000 -0.41932222 0.15554525 -0.097502269 0.048729818 -0.098014377 0.048340976 0.0046183653 0.053087484
16560000000 -0.42440289 0.1569676 -0.068493538 0.082086712 -0.069079928 0.082097821 -0.0014923997 0.055116192
16570000000 -0.43469778 0.15518257 -0.031574517 0.10097346 -0.031990267 0.10130798 -0.013478657 0.073027477
16580000000 -0.44817567 0.16580409 0.0095195277 0.10255612 0.0089594638 0.10276866 -0.016832285 0.082311615
16590000000 -0.45755079 0.17957504 0.046089306 0.091107503 0.045772094 0.091664247 -0.015905064 0.091970332
16600000000 -0.46157026 0.20237607 0.076086015 0.067519568 0.07607156 0.067926288 0.00094267726 0.087786607
16610000000 -0.45674717 0.221573 0.097791627 0.03327911 0.097704597 0.033838514 0.013751633 0.075751886
16620000000 -0.45016462 0.23945281 0.10276766 -0.0069657899 0.10311517 -0.0063894466 0.020207666 0.066077709
16630000000 -0.44286311 0.24754721 0.092341751 -0.047471188 0.092603482 -0.047241729 0.012190513 0.05635035
16640000000 -0.44570428 0.25212058 0.065829888 -0.07799466 0.066433102 -0.077803478 -0.0029289117 0.058874998
16650000000 -0.45509419 0.25543854 0.029129278 -0.0977268 0.029655591 -0.097751327 -0.0086519402 0.063236333
16660000000 -0.47174829 0.26766759 -0.010680131 -0.098481968 -0.01039865 -0.098836839 -0.0085032722 0.07009998
16670000000 -0.48598233 0.28310609 -0.047651708 -0.085691683 -0.047598548 -0.086252734 0.0049940534 0.077769712
16680000000 -0.49427581 0.30854425 -0.075204052 -0.059987731 -0.075264603 -0.060072679 0.016914202 0.079426855
16690000000 -0.49102795 0.32809657 -0.090480849 -0.027093114 -0.090373084 -0.027371163 0.024599414 0.079742596
16700000000 -0.48581222 0.34719256 -0.093765028 0.0082402341 -0.093937948 0.0080030039 0.026366455 0.073736362
16710000000 -0.47357333 0.35796499 -0.082890421 0.043328166 -0.082996704 0.043219391 0.021491388 0.06526649
16720000000 -0.46842256 0.36596864 -0.060893945 0.07267312 -0.061214563 0.072543591 0.016249195 0.057767302
16730000000 -0.4687621 0.37189832 -0.025990263 0.091086343 -0.026153302 0.091405965 0.0063600931 0.05279135
16740000000 -0.47732538 0.38714281 0.012413571 0.092176162 0.012465306 0.092362195 -0.0013947468 0.057666458
16750000000 -0.48491493 0.40715206 0.047007762 0.076923065 0.047212273 0.077060655 -0.0053867251 0.063863464
16760000000 -0.48948908 0.43567824 0.069553562 0.051629633 0.070006832 0.051384609 -0.0023822151 0.071598992
16770000000 -0.48577136 0.46227723 0.081953406 0.02191549 0.082104504 0.021474378 0.01132589 0.070899092
16780000000 -0.47821784 0.4862318 0.083315112 -0.010026786 0.083386146 -0.010511016 0.022514617 0.065246165
16790000000 -0.46753493 0.50171822 0.073634945 -0.040070549 0.0732245 -0.040433589 0.031483155 0.053011052
16800000000 -0.45872676 0.51381797 0.052513927 -0.065482751 0.052259322 -0.065668829 0.023587141 0.038915467
16810000000 -0.45254284 0.52226013 0.022312228 -0.080602296 0.022056075 -0.080698013 0.0062383846 0.034942623
16820000000 -0.44998977 0.5354616 -0.011324096 -0.081678554 -0.011862572 -0.081858322 -0.011822041 0.037988655
16830000000 -0.44796681 0.5534333 -0.042088125 -0.068789691 -0.042750597 -0.068721876 -0.017385155 0.054132052
16840000000 -0.44326371 0.5789066 -0.063116238 -0.044757642 -0.063488588 -0.044436827 -0.0039292928 0.067281477
16850000000 -0.43301761 0.60576558 -0.073729545 -0.017276233 -0.073967934 -0.016685933 0.01267571 0.073275454
16860000000 -0.41764987 0.63175839 -0.072489396 0.011705561 -0.07241863 0.01225202 0.025638031 0.068054132
16870000000 -0.40155852 0.65319604 -0.062259771 0.036767997 -0.061978947 0.037225906 0.017892806 0.052204873
16880000000 -0.38609791 0.67083728 -0.043478236 0.056868047 -0.043148037 0.056969166 0.000807954 0.042716671
16890000000 -0.37439352 0.68319023 -0.018031564 0.068946771 -0.017732903 0.069273405 -0.015275749 0.035435796
16900000000 -0.36643347 0.6950655 0.010795925 0.069080211 0.011326676 0.069165647 -0.022865616 0.046273135
16910000000 -0.35990101 0.7090385 0.037264854 0.058051456 0.037736639 0.057915404 -0.01560062 0.057205312
16920000000 -0.35059488 0.72637969 0.054248311 0.037299514 0.054571204 0.03692859 -0.0089357533 0.068127051
16930000000 -0.33711216 0.74630243 0.062732771 0.013405022 0.062838107 0.013050459 0.00071364734 0.071745329
16940000000 -0.31628224 0.76571614 0.060628206 -0.01047046 0.060759652 -0.010854377 -0.003035605 0.065685928
16950000000 -0.29232216 0.78322935 0.051178243 -0.031946272 0.051123537 -0.032275692 -0.0016699191 0.060776822
16960000000 -0.26697004 0.79765284 0.034663863 -0.048137404 0.034460492 -0.048518211 -0.0025733225 0.052397344
16970000000 -0.24338326 0.81053454 0.012548957 -0.057027966 0.012271948 -0.057270743 -0.0045176186 0.052537218
16980000000 -0.22352384 0.82209921 -0.010104828 -0.056419149 -0.010598712 -0.056496561 -0.0093253218 0.05355585
16990000000 -0.20650959 0.83610624 -0.030980345 -0.046066213 -0.031175412 -0.045799758 -0.022412881 0.063194975
17000000000 -0.19022822 0.85089344 -0.044657432 -0.029643036 -0.044830196 -0.029509522 -0.027686218 0.075754501
