!Keysight Technologies,P9374A,MY57211807,A.19.30.04
!Date: Friday, May 01, 2026 14:29:11
!Correction: S11(C  2-Port  ) 
!S21(C  2-Port  ) 
!S12(C  2-Port  ) 
!S22(C  2-Port  ) 
!S2P File: Measurements: S11, S21, S12, S22:
# Hz S  RI   R 50
13000000000 0.049211845 0.094687223 -0.0007884308 0.0024869116 -0.00076571776 0.0025026742 -0.015414238 0.20493931
13010000000 0.050160088 0.10151144 0.0018122317 0.0018991083 0.0020751841 0.0017437909 -0.0068858936 0.19979206
13020000000 0.046672791 0.095494919 0.0021634316 -0.00056011806 0.0020766994 -0.00079863804 0.0017377883 0.18834326
13030000000 0.044833541 0.10103638 0.00080814294 -0.0019444919 0.00070998562 -0.0018111196 -0.00064115226 0.16567655
13040000000 0.04252179 0.094998598 -0.00099492166 -0.00092218677 -0.001108653 -0.00087425043 -0.025267525 0.16489568
13050000000 0.043407831 0.098688379 -0.00074706366 0.00084751117 -0.00048635551 0.00080291607 -0.031141153 0.17737481
13060000000 0.042432506 0.091895923 0.0012233134 0.00081245543 0.0010822433 0.00054322404 -0.028529592 0.19274661
13070000000 0.043104228 0.096239924 0.0015510519 -0.001125932 0.0013752719 -0.0010846683 -0.023383573 0.19603083
13080000000 0.042609055 0.090121478 -0.00045184465 -0.0022889674 -0.00027709221 -0.0022293604 -0.0030386299 0.20137969
13090000000 0.043481216 0.097072482 -0.00190054 -0.0011887944 -0.0020674479 -0.0014938676 0.011195719 0.18497284
13100000000 0.045194626 0.092843421 -0.0017560539 0.00039376516 -0.0020843095 0.001232938 0.0013544932 0.16329318
13110000000 0.04636085 0.098327376 -0.00097790745 0.0018554452 -0.00035345851 0.0018142577 -0.01128773 0.1724539
13120000000 0.045811448 0.093569122 0.00092758157 0.0014877658 0.0012657653 0.00067286089 -0.020771503 0.17647843
13130000000 0.045705974 0.099241763 0.0010800001 -0.00033233227 3.2031363e-05 -0.0003159325 -0.028166553 0.18991143
13140000000 0.045789823 0.095741659 -0.00080351578 -0.00088344747 -0.00093667855 -7.2386494e-05 -0.024568595 0.20516369
13150000000 0.047212336 0.10188916 -0.0015056126 0.00085885607 -0.00084088731 0.0011582001 0.0053884983 0.20481446
13160000000 0.049907893 0.094813049 0.00032889016 0.0025395937 0.00074372487 0.0018210933 0.018561073 0.18145019
13170000000 0.05030565 0.097874537 0.0029313851 0.0014305211 0.0021874718 0.0010079739 0.013596714 0.17234829
13180000000 0.052532077 0.091553807 0.0022541196 -0.0020441902 0.0015213804 -0.001601479 0.0032283738 0.17066194
13190000000 0.053628217 0.093950719 -0.00023090577 -0.0021563983 0.00017683003 -0.001109574 -0.0084244208 0.16854768
13200000000 0.053321153 0.090650231 -0.0011220061 -0.00045913461 -0.00045343576 -0.001146041 -0.019981235 0.18326263
13210000000 0.056715954 0.095917352 -0.00018018539 0.0003579128 -0.00039115385 -0.00030720449 -0.00569617 0.20858376
13220000000 0.0592563 0.093079075 0.00039996818 -0.00023343839 -0.00016044821 -8.820837e-05 0.020981267 0.20477372
13230000000 0.06053238 0.094901294 -0.0001111654 -0.0011470484 7.4270967e-05 -0.00077669229 0.034268521 0.18584239
13240000000 0.062652364 0.093317509 -0.0011597201 -0.001027728 -0.00067750888 -0.0010810406 0.035951972 0.17329329
13250000000 0.064928539 0.09383373 -0.0017907845 0.00023719025 -0.0017989379 -2.7557398e-05 0.026989676 0.16126353
13260000000 0.06581451 0.090243481 -0.0017207286 0.0013806978 -0.0026099992 0.0015146611 0.010033696 0.16068313
13270000000 0.069327384 0.087703824 -0.00027725112 0.0018051532 -0.0001524142 0.0024865579 -0.0072161928 0.18482739
13280000000 0.067118503 0.082333431 0.0011159232 0.0010166023 0.0017105365 0.0012421014 0.011289187 0.19818491
13290000000 0.069199488 0.081210315 0.0011757016 5.8306614e-07 0.001514968 -0.00086854934 0.035324976 0.19899993
13300000000 0.069192074 0.077654406 -0.00024803454 -1.1713782e-06 -0.00089156028 -0.0002991152 0.050042257 0.18319258
13310000000 0.071971528 0.078013338 -0.00025523448 0.00034631509 -0.00037504316 0.0013684746 0.063971825 0.15975027
13320000000 0.072929159 0.073872484 0.00084936107 0.00094788475 0.0012986364 0.00083632703 0.052557573 0.14137898
13330000000 0.077336453 0.077074699 0.0014905535 0.00025719171 0.0016616698 -0.00014212031 0.031396568 0.14240047
13340000000 0.080240831 0.07367453 0.0017996953 -0.0013183387 0.0014915031 -0.0014202355 0.019701269 0.17272517
13350000000 0.083645046 0.071346037 0.00035806443 -0.0020312276 -2.8560869e-05 -0.001778795 0.027906172 0.18600647
13360000000 0.085172229 0.064060427 -0.001369614 -0.0013700292 -0.0012478566 -0.0011267542 0.046684355 0.19417985
13370000000 0.080693275 0.058882337 -0.0011033315 -4.0547835e-05 -0.00076652336 -0.00057466299 0.062773317 0.17400438
13380000000 0.075777605 0.056210488 -0.00055495452 -2.4185283e-07 -0.00075989356 0.0002431273 0.082728729 0.14118311
13390000000 0.073387973 0.057925995 0.00030514903 -3.2927637e-05 0.00018736272 -0.00015551696 0.066494159 0.12018908
13400000000 0.074070379 0.05854198 -0.00050218741 -0.00055571692 -0.00041953847 -0.00062267791 0.043001521 0.12242901
13410000000 0.076541021 0.05614106 -0.0016931648 -0.00059965823 -0.0018935462 -0.00035419851 0.031881079 0.1476828
13420000000 0.084238112 0.050673589 -0.0014804263 0.002149489 -0.0012050148 0.0022605353 0.029226601 0.16311371
13430000000 0.082842276 0.042701088 0.00049495284 0.0018815061 0.00085210946 0.0014583052 0.050758012 0.16814271
13440000000 0.083193466 0.035056073 0.0015652745 0.00097947405 0.0013504715 0.00051776977 0.075541422 0.15758665
13450000000 0.075659871 0.035112571 0.0010725698 -0.00018673058 0.0005481242 0.00053485256 0.092472255 0.12139629
13460000000 0.075859018 0.033229157 0.0005296765 -0.00088491244 0.0011740043 -0.00053432962 0.076041184 0.096586265
13470000000 0.073394746 0.034303974 0.00019120195 0.00042774275 0.00037170594 -0.00045928927 0.051487237 0.10001753
13480000000 0.073900416 0.030087592 0.00094563258 0.00010798938 0.00046138486 -4.96094e-05 0.034221817 0.12266384
13490000000 0.06768024 0.032464262 0.0011746498 -0.0010936515 0.00090667838 -0.00041805423 0.02966097 0.13578191
13500000000 0.070184968 0.028631035 0.00065074692 -0.0012352405 0.00098165614 -0.00075162895 0.046974245 0.14878696
13510000000 0.068094112 0.028950959 -0.00066793233 -0.0010290057 0.00017298857 -0.0016524328 0.080032021 0.13574219
13520000000 0.0698357 0.021801721 -0.00068966672 -0.0010636162 -0.0012565212 -0.0018117648 0.092783496 0.10645405
13530000000 0.069052882 0.017376343 -0.0014016934 -0.00027061428 -0.0021709227 0.00014213535 0.073962949 0.079763718
13540000000 0.065896936 0.011079354 -0.0012495633 0.00023213723 -0.0005035316 0.00091742526 0.052381996 0.083821692
13550000000 0.061401628 0.010524601 -0.0007328121 0.00069602876 -0.00025301069 0.00033080514 0.025164161 0.090948746
13560000000 0.05616384 0.011116194 0.00039201183 0.00096317683 -0.00035790031 0.00046675731 0.02238249 0.1135363
13570000000 0.055817403 0.017426457 -7.5658965e-05 0.0002922258 -0.00012826716 0.00081211771 0.043702871 0.13697755
13580000000 0.055167567 0.019390708 -0.00069269905 0.00030023634 -0.00021705423 0.00063259812 0.077100351 0.11853665
13590000000 0.057716623 0.01952935 -5.5925324e-05 0.0019771105 0.0002173945 0.0013082499 0.085943237 0.096217826
13600000000 0.054057866 0.017655492 0.0012790856 0.0011179304 0.00092775689 0.00093714194 0.068885751 0.075143576
13610000000 0.053230986 0.015552051 0.0019715093 0.00023110141 0.0015701497 0.00028681848 0.046304043 0.065852344
13620000000 0.050381482 0.010129552 0.00091249763 -0.0012609727 0.0012338465 -0.0010287655 0.012423921 0.077553436
13630000000 0.042922374 0.008293571 0.00023735495 -0.0010037182 0.00026213925 -0.0014212043 0.011284694 0.10540809
13640000000 0.040204924 0.0089957416 -0.00028009617 -0.00072007161 -0.00043229078 -0.00063793827 0.037920151 0.12842251
13650000000 0.037921481 0.0077552167 0.00020851348 0.00017865439 1.7440478e-05 0.00049798767 0.065975212 0.11361106
13660000000 0.037887502 0.011700536 0.00032450297 -0.00059076917 0.00090841501 -0.0004396335 0.078387618 0.095492832
13670000000 0.040108792 0.014538821 -0.00011377645 -0.0015508344 0.00023886358 -0.0019599916 0.065506645 0.064442784
13680000000 0.046619311 0.016139442 -0.0014768259 -0.001104722 -0.0020255521 -0.0016249132 0.044096328 0.047311172
13690000000 0.045825444 0.015713176 -0.0017001373 0.00017282873 -0.002279669 0.00070940173 0.0109486 0.070601806
13700000000 0.050234456 0.013577751 -0.00081415038 0.0014500105 -0.00062130694 0.0020063634 0.012245052 0.10200923
13710000000 0.044086382 0.012216754 0.00014582335 0.0012653755 0.001049655 0.0012813797 0.036326759 0.12534228
13720000000 0.040416192 0.01166943 0.00034369275 -4.4765176e-05 0.00046556361 -0.00064764329 0.062968805 0.12039398
13730000000 0.034044184 0.01220955 -0.00017648624 0.0003311242 -0.00070285716 1.2368735e-05 0.078695633 0.094922483
13740000000 0.032382328 0.017650839 -0.00014261747 0.00096719718 -0.00041731622 0.0014648167 0.07174018 0.059442617
13750000000 0.031991787 0.018339772 0.00036194592 0.0011433059 0.0006650518 0.0013127015 0.040716447 0.044425339
13760000000 0.037792195 0.01918982 0.0014776322 0.00065427471 0.0017245591 0.00032595248 0.016427413 0.063491836
13770000000 0.040624194 0.012703184 0.0020725909 -0.00059105654 0.0015211506 -0.00098039 0.013543554 0.099517681
13780000000 0.043444406 0.011477703 0.00016676646 -0.0015377544 0.00037900609 -0.001504406 0.033618435 0.12205218
13790000000 0.043316547 0.0063684308 -0.00017508472 -0.0010357942 -0.00018986031 -0.00071143225 0.064083621 0.11734938
13800000000 0.045314401 0.0070691402 -0.0011816379 -0.0006264071 -0.00084886281 -0.00052614894 0.087329999 0.087055236
13810000000 0.042551693 0.0044664806 9.0885311e-05 0.00043644145 4.4121531e-05 0.00030845604 0.082740866 0.049350351
13820000000 0.043803778 0.0080123991 0.00065508235 -0.00040496411 0.00062048616 -6.5836997e-05 0.05376114 0.039615855
13830000000 0.041914497 0.0059716795 -0.00050936069 -0.0014217626 -0.000149403 -0.0015410711 0.024077307 0.053260438
13840000000 0.040489037 0.0091711348 -0.0017792543 -0.0003808722 -0.0019366476 -0.00068770244 0.023119085 0.086955778
13850000000 0.03959379 0.0061388789 -0.0017164015 0.0010992404 -0.002217876 0.0010874739 0.035775155 0.11310012
13860000000 0.040564306 0.0082416534 -7.2803814e-06 0.0016180985 0.00013847611 0.001927282 0.070405863 0.10566713
13870000000 0.041440845 0.0012266235 0.0013143447 0.0010827908 0.0014470271 0.00081628398 0.097128347 0.077060029
13880000000 0.042991739 -0.0010213964 0.00087919802 -0.00053496094 0.00072961592 -0.00044729197 0.090025321 0.034286059
13890000000 0.044456057 -0.0095724966 -0.00057777192 -0.00062356098 -0.00068360905 -0.00039539818 0.063317671 0.023884613
13900000000 0.041801095 -0.013004525 -0.00036247601 0.0010188767 -0.00034039919 0.0012762767 0.031369828 0.037542738
13910000000 0.039246373 -0.016652793 0.0010136212 0.0013831493 0.0012784582 0.0015539001 0.022906654 0.062990688
13920000000 0.035945676 -0.01395038 0.0020016581 9.5439027e-06 0.0021683609 -0.00052839157 0.037209995 0.0837982
13930000000 0.035426952 -0.012711246 0.0013383921 -0.001521665 0.00097869302 -0.0018222089 0.076276012 0.086804613
13940000000 0.033718616 -0.0095400997 -0.00038306019 -0.0022990431 -0.00071750686 -0.0015533048 0.10171108 0.05935543
13950000000 0.035647169 -0.0098549351 -0.0016394288 -0.00027487447 -0.0010489908 0.00011783428 0.095076084 0.02018195
13960000000 0.032877259 -0.01263399 -0.00034955834 0.00091260136 0.00028275282 0.00047891424 0.065968603 0.008236425
13970000000 0.032151662 -0.01838325 0.00070067716 0.00011502701 0.00037424613 -0.00035773625 0.032379899 0.015355871
13980000000 0.027632603 -0.023677364 -0.00022694987 -0.0013604087 -0.00039178593 -0.0014380957 0.022086311 0.03683424
13990000000 0.022873498 -0.031753741 -0.0010663995 -0.00087082136 -0.0015333925 -0.00053304795 0.03198611 0.066728778
14000000000 0.014440996 -0.035322733 -0.0018101574 0.0006117039 -0.0012895043 0.0010986541 0.066297948 0.066630065
14010000000 0.012292886 -0.034923617 -0.0007469611 0.0017222964 -0.00038995731 0.0012126605 0.087137081 0.04170686
14020000000 0.010101779 -0.033815317 0.0013283537 0.0013502362 0.00068796187 0.0011353783 0.082448907 0.0063321386
14030000000 0.013438416 -0.031814635 0.0007701451 0.00015627808 0.00063772954 0.00029050955 0.055538163 -0.010930616
14040000000 0.015246745 -0.028638013 0.00017062944 -0.00016855428 0.00026689528 -0.00021380253 0.020994347 -0.012345872
14050000000 0.017828213 -0.030493695 -0.00024290042 0.00039138997 -0.00034210645 0.00010702123 0.006403225 0.015288677
14060000000 0.016226098 -0.032255378 0.00091896264 0.0010629446 0.00057583262 0.0012455918 0.01640524 0.04407154
14070000000 0.0096104369 -0.034208424 0.0017570436 -0.00044095601 0.0015123516 3.4476332e-05 0.04818482 0.049153347
14080000000 0.0028812983 -0.03382612 0.00041022981 -0.0015673029 0.0010015253 -0.0012104054 0.064061441 0.030576276
14090000000 -0.0051433314 -0.033205453 -0.00073707511 -0.00073463953 -0.00033759593 -0.0011204248 0.06209901 -0.0073531326
14100000000 -0.012300968 -0.030745685 -0.0005045305 -7.6385608e-05 -0.00087338069 -0.00056704687 0.038168296 -0.033583492
14110000000 -0.018663041 -0.030064445 0.00023772742 0.00018334758 -0.00027717274 0.00011259539 0.0054590506 -0.031500101
14120000000 -0.019002939 -0.027745157 2.1936503e-05 -0.00057274295 -7.9750156e-05 -0.000187482 -0.0086249067 0.00071040564
14130000000 -0.019998861 -0.028213404 -0.00045172303 -0.00052343198 -0.00012626115 -0.00050988881 -0.0015460933 0.028986432
14140000000 -0.017320085 -0.028130895 -0.0011710405 -0.00028421107 -0.0011363028 -0.00047102157 0.026598129 0.038807347
14150000000 -0.016931619 -0.030321399 -0.00099137798 0.00073748513 -0.00096173363 0.00063707982 0.045566116 0.023947814
14160000000 -0.015771294 -0.03274424 -0.000186242 0.00060035114 -0.00030868998 0.0006944022 0.048720844 -0.014459302
14170000000 -0.02197226 -0.033410449 0.00012430185 0.00090856105 0.0003820828 0.00094694865 0.028857319 -0.039196268
14180000000 -0.026031345 -0.031344924 0.00038840238 0.00079508364 0.00069560442 0.00050865125 -0.0043553906 -0.032606423
14190000000 -0.033752885 -0.023960279 0.00086475955 -0.00050822843 0.00044972223 -0.00051169121 -0.023462012 -0.00042337738
14200000000 -0.037052609 -0.018336324 5.615491e-05 -8.0520484e-05 4.0179315e-05 -3.1615757e-05 -0.019423958 0.033149574
14210000000 -0.03908712 -0.0097665619 -7.1680071e-05 0.00045711888 8.9567518e-05 0.00063811732 0.0032103166 0.045953028
14220000000 -0.036044125 -0.010865267 0.00070697081 0.00043305266 0.00077505637 7.3813186e-05 0.023368062 0.024830939
14230000000 -0.034835603 -0.0097598154 0.0011525943 -0.00023034426 0.0010732455 -0.00042056211 0.033473544 -0.0091215158
14240000000 -0.03222286 -0.016320325 0.00064327917 -0.0013191005 7.6208031e-05 -0.0011582173 0.011100356 -0.030959971
14250000000 -0.035533685 -0.016565904 -0.0008963205 -0.00166548 -0.00049724901 -0.0011537632 -0.020367363 -0.031787001
14260000000 -0.03929387 -0.022075344 -0.0010867302 0.00025469749 -0.00078312506 5.100717e-05 -0.039546557 0.0010233354
14270000000 -0.041376129 -0.015055782 -8.0577956e-05 0.00081263424 -0.00015482027 0.00044659615 -0.036637597 0.030830923
14280000000 -0.043965425 -0.014516356 -2.5657595e-05 -7.1508977e-05 -0.00019364545 5.687966e-05 -0.0080317585 0.042696618
14290000000 -0.041013181 -0.0023583355 0.00011483546 -0.00012425733 0.00032047392 -0.00014258159 0.013830996 0.027472656
14300000000 -0.040838085 -0.0016845036 -0.000443217 -0.00049760845 -0.00056385662 -0.00042081033 0.026945144 -0.0023002145
14310000000 -0.037230834 0.0075073922 -0.00096756942 0.00037013763 -0.0010537654 0.00030470215 0.0084547484 -0.026087619
14320000000 -0.037157536 0.0015176367 -0.0002921175 0.0011606591 -0.00040960341 0.0015352978 -0.020297216 -0.023577711
14330000000 -0.033833396 0.0051151309 0.00033409125 0.00046538393 0.0010270567 0.00061829621 -0.044874847 0.0044698454
14340000000 -0.03860971 -0.0038424209 0.00080394134 0.00010275241 0.00091487402 -0.0003481523 -0.04360754 0.028767938
14350000000 -0.039683443 -0.0016594199 -0.00032702787 -0.00017600821 -0.00031285096 -0.00070028176 -0.013752745 0.039412145
14360000000 -0.044277094 -0.0071057444 7.6326643e-05 0.00012122982 -0.0002914517 0.00030544182 0.010600595 0.031572405
14370000000 -0.044740628 -0.0025694156 0.00038646802 0.00071695331 0.00044678198 0.00083629036 0.023019979 0.0041267462
14380000000 -0.046956703 -0.0026268698 0.00081466918 -0.00013923402 0.00086030207 -0.00031154021 0.0066333553 -0.016224211
14390000000 -0.03932035 0.0078447768 9.6804608e-05 -0.0009303753 0.00011400221 -0.00067012093 -0.020881448 -0.022996092
14400000000 -0.035740446 0.0062331827 -0.0002725771 -0.00028027757 -0.0001273324 -0.00043645344 -0.04200837 -0.002779806
14410000000 -0.028212219 0.010556229 1.2653618e-05 0.00014479476 -0.00011083556 -0.00022112795 -0.039456084 0.021904957
14420000000 -0.027436774 0.004879701 0.0001094857 -0.00047539332 -0.00025401451 -0.00043357484 -0.017564874 0.03887533
14430000000 -0.027580908 0.0014692638 7.9410776e-05 -0.00040551514 -0.00034162219 6.0451504e-05 0.0063140988 0.030935334
14440000000 -0.03669861 -0.0018414473 -0.00088709703 -0.00033172307 -0.00024171057 7.6724791e-06 0.017240588 0.0089421719
14450000000 -0.042460307 -8.3865598e-05 -0.00048320339 0.00045275994 -1.6092199e-05 0.0002962602 0.0045574219 -0.01402602
14460000000 -0.050439008 0.0021332763 0.00038156286 0.00033565558 0.00018795133 -0.00021556589 -0.022454619 -0.023696389
14470000000 -0.049798444 0.0052920077 -0.00052072917 -0.0002687184 -0.00073790835 -6.0638267e-05 -0.042068057 -0.018227963
14480000000 -0.047845215 0.0082457941 0.00019456417 0.00034309187 -0.00024876307 0.00061245874 -0.04089633 0.009205685
14490000000 -0.041081723 0.0049586147 -0.00012980282 0.00077736424 0.00028830685 0.00087247725 -0.025433265 0.029037967
14500000000 -0.035933539 0.0016670022 0.00074186688 9.8082222e-05 0.00083803973 -0.00012470361 -0.00051738013 0.024120495
14510000000 -0.034999661 -0.004621618 0.00026805201 -0.00058586546 0.00031473438 -0.00080738473 0.0081392797 0.0059002005
14520000000 -0.036931373 -0.0074490281 -0.0005056673 -0.0003380329 -0.00056643726 -9.9236204e-05 -0.0033409954 -0.022714317
14530000000 -0.042315591 -0.0072788391 -0.00060927431 0.00037916354 -0.0004233931 0.0002644725 -0.019948024 -0.034126729
14540000000 -0.046010621 -0.0029395241 0.00060437818 0.00094872678 0.00029286888 0.00056684716 -0.041034106 -0.025260007
14550000000 -0.050569069 0.00048616156 0.0013263524 -0.00015923305 0.0011444848 0.00013462338 -0.050003573 -0.0039615985
14560000000 -0.054517012 0.0065246485 5.0995208e-05 -0.0014149677 0.00045481787 -0.0010853346 -0.037149034 0.021658812
14570000000 -0.055457961 0.0081092631 -0.0011059145 -0.00083740422 -0.00055971573 -0.001257539 -0.018417602 0.021470189
14580000000 -0.055541165 0.0087758554 -0.0013540543 0.00069636869 -0.0013840195 0.00031708824 -0.0097097205 0.0011551641
14590000000 -0.055807699 0.0063725309 0.00059536501 0.0010306863 -0.00015882039 0.0011393587 -0.018414881 -0.027372451
14600000000 -0.054111525 0.004947044 0.0010220236 -6.7975634e-05 0.0010721816 0.00042312886 -0.030249072 -0.040039163
14610000000 -0.054863088 -0.0043014307 3.5832054e-05 -0.0011248842 0.00056825165 -0.00080872042 -0.053090237 -0.03326055
14620000000 -0.058823012 -0.0043525733 -0.0010312482 -0.00058288762 -0.00063766551 -0.0010769628 -0.062388346 -0.011365941
14630000000 -0.065713421 -0.0050118119 -0.001217811 0.0007518552 -0.0016315426 0.00031064302 -0.058934689 0.01587351
14640000000 -0.066858195 0.0023788335 0.000630675 0.0012569878 0.00019848596 0.001382369 -0.042108569 0.01564174
14650000000 -0.071178332 0.0095109148 0.00090353173 -0.00017856386 0.00079711131 0.00039723815 -0.028308565 -0.00078025507
14660000000 -0.06906689 0.017415533 0.00025638417 -0.000379181 0.00082820398 -0.00044304924 -0.03113316 -0.021677462
14670000000 -0.070321679 0.021567311 -0.00057104585 -0.00065391103 -0.00036342678 -0.00093948271 -0.048389096 -0.034942806
14680000000 -0.06503775 0.023926204 -0.00055114267 0.00028351753 -0.0008808056 -0.00015453476 -0.068451807 -0.028530896
14690000000 -0.069182485 0.019771563 0.00014447529 0.00052903389 -0.00013585188 0.0010148849 -0.084435508 -0.011023952
14700000000 -0.069146156 0.016437225 0.00043682457 0.00077849225 0.00061082776 0.00084697222 -0.082523093 0.014141846
14710000000 -0.079683758 0.014998993 0.00084565557 -2.3947581e-05 0.00095944159 -0.00030154755 -0.065344222 0.01851297
14720000000 -0.081740677 0.016498089 0.00066697306 -0.00064053835 0.00056927931 -0.00067115034 -0.04955906 0.007583573
14730000000 -0.08673612 0.020754922 -0.00027903647 -0.0012290779 -0.00026722439 -0.0012342015 -0.046807811 -0.010684351
14740000000 -0.083914079 0.028224751 -0.0011905824 -7.4203766e-05 -0.00095061224 -4.6143628e-05 -0.061351962 -0.020594617
14750000000 -0.082147591 0.035895757 -0.00023508928 0.00089558779 -0.00044658416 0.0010173067 -0.079654008 -0.016428769
14760000000 -0.071760476 0.040563006 0.0011826388 0.00039478205 0.0010384183 0.00026129108 -0.099443302 -4.8369169e-05
14770000000 -0.073187843 0.042548206 0.00027071172 -0.0011930284 0.00017018529 -0.00096798781 -0.097556531 0.019147713
14780000000 -0.067476012 0.044181108 -0.00084170705 -0.0012070407 -0.00086985948 -0.0013614332 -0.078871667 0.031277061
14790000000 -0.072343878 0.043487541 -0.0017759501 0.00024974043 -0.001589679 0.00033173186 -0.064677067 0.031249397
14800000000 -0.073989414 0.046225362 -0.00039034209 0.0018150252 -0.0004549445 0.001726664 -0.056805201 0.014656267
14810000000 -0.082667336 0.048887551 0.0011814464 0.0010057113 0.00090702111 0.00099697651 -0.070542932 0.0056081153
14820000000 -0.081622645 0.054298684 0.00064816338 -0.00072587532 0.00062509411 -0.00046827033 -0.089963853 -0.0018415116
14830000000 -0.085257918 0.057379775 -0.00023443434 -0.00025733342 -1.0345582e-05 -0.00022498441 -0.10244574 0.012472134
14840000000 -0.078781433 0.061250951 -0.00064874167 2.2407956e-05 -0.00049807469 -3.6677906e-05 -0.10233975 0.029368674
14850000000 -0.073744677 0.063365884 -0.00020819789 0.0012819642 -9.2439099e-05 0.00080552587 -0.086908206 0.047624551
14860000000 -0.065114304 0.064814821 0.001097293 0.00071755331 0.00055906305 0.00071262178 -0.069549665 0.052236013
14870000000 -0.058992125 0.062602431 0.0018623454 -0.00037792383 0.0014515539 2.9213494e-05 -0.056161795 0.041549549
14880000000 -0.051047068 0.061580006 0.00014907657 -0.001532862 0.00079361006 -0.0009245805 -0.06649074 0.028908579
14890000000 -0.053860698 0.059320137 -0.00053445145 -0.0010795856 0.00011831388 -0.0017002171 -0.083081067 0.01644934
14900000000 -0.053580172 0.064126395 -0.00091757131 -0.00011299034 -0.0015351723 -0.00066043192 -0.092733487 0.024002766
14910000000 -0.055832211 0.069363736 -0.00032541266 0.00037900027 -0.0012515289 0.00050649326 -0.096305929 0.042028755
14920000000 -0.059752468 0.075137094 6.58438e-05 -4.6357386e-06 0.00037847756 0.00088538358 -0.083439596 0.063082255
14930000000 -0.055230662 0.08314389 -0.00014614913 -0.00037724519 0.00056178489 -0.00063393719 -0.067733616 0.074300826
14940000000 -0.048401829 0.083864942 -0.0011567356 -6.2792154e-05 -0.00099319429 -0.0008929905 -0.053904392 0.060639262
14950000000 -0.043538485 0.080643557 -0.0006256075 0.00071919174 -0.001322465 0.00078421499 -0.055797249 0.040513963
14960000000 -0.038991429 0.074625552 -0.00041501038 0.0007677527 -0.0004695291 0.0012231064 -0.062856764 0.024190603
14970000000 -0.03469402 0.065260991 0.00031705969 0.00089369714 0.0006345142 0.0011185042 -0.077213019 0.027925992
14980000000 -0.038971424 0.057500832 0.0010469502 0.00076409697 0.0010769006 0.00067081396 -0.084734157 0.045557477
14990000000 -0.038992628 0.057164643 0.0010301763 -0.00025126449 0.0011049904 -0.00050468405 -0.076001637 0.071831107
15000000000 -0.041130193 0.060098283 0.00019189433 -0.00062078808 0.00014351822 -0.00070147647 -0.059658173 0.079281509
15010000000 -0.036841433 0.066006504 7.9664896e-05 -0.00053467578 0.0001513153 -0.00066997611 -0.044681512 0.069305584
15020000000 -0.031379841 0.069464862 -0.00024221059 0.00036424107 -0.00052858487 0.00023959645 -0.039889418 0.047054682
15030000000 -0.02291742 0.070999496 0.00091721123 -9.2540577e-05 0.00089758122 0.0005659645 -0.044290274 0.025159411
15040000000 -0.021389853 0.066324569 0.0010222424 -0.0013030933 0.0014711244 -0.0014052159 -0.064697966 0.024171058
15050000000 -0.018438743 0.062862866 -0.00076298183 -0.0017755411 -0.0006660673 -0.0021861601 -0.07714656 0.043732606
15060000000 -0.023777887 0.056941949 -0.0019668632 -0.00067064213 -0.002606685 -0.00066627283 -0.076255746 0.069692947
15070000000 -0.026643097 0.051266432 -0.0014874674 0.0013913839 -0.0016725773 0.0017276572 -0.062175333 0.073554859
15080000000 -0.035105586 0.049871869 0.00057857123 0.0010911595 0.00093742926 0.0014060063 -0.040910471 0.064286351
15090000000 -0.035332177 0.049711831 7.1622242e-05 0.00039601768 0.00068930926 -7.7165896e-05 -0.030801369 0.042363063
15100000000 -0.03841839 0.051430944 0.00036905584 4.3332257e-06 -0.00039879256 -0.00060137827 -0.034945216 0.017806832
15110000000 -0.032925837 0.05283216 -0.00041917549 0.00012185636 -0.00090340769 0.0005417199 -0.056840792 0.016777918
15120000000 -0.030593822 0.052869208 -0.00030461035 0.00054033316 0.0001064063 0.0012146479 -0.075457543 0.034075152
15130000000 -0.024198014 0.050737396 0.00078754791 0.0012588688 0.0013587619 0.00080903841 -0.077537365 0.059644118
15140000000 -0.023326928 0.048516832 0.0012374707 -3.3681077e-05 0.0012293716 -0.00035110733 -0.068120182 0.069304325
15150000000 -0.022755004 0.04372447 0.0015219341 -0.00069248665 0.00084301602 -0.00077302125 -0.045904256 0.064686522
15160000000 -0.031027157 0.042585995 0.00049038505 -0.0021792063 0.00041653588 -0.0016268411 -0.034627683 0.043983974
15170000000 -0.034126006 0.041801609 -0.0020133851 -0.00079867459 -0.0015462469 -0.0007577269 -0.039724559 0.021345146
15180000000 -0.043328404 0.048253566 -0.00083442696 0.00096392614 -0.001153757 0.00060912035 -0.06672468 0.018719584
15190000000 -0.043485805 0.051300865 0.00042863935 0.0010044225 0.0002808331 0.0012108827 -0.086700909 0.025466595
15200000000 -0.045404587 0.058237985 0.00073217641 -0.00048191237 0.0012077547 -0.00023594839 -0.09168452 0.051509146
15210000000 -0.038196139 0.057588793 -0.00015828694 -0.0011468745 0.00013454672 -0.0016847765 -0.080088519 0.06783329
15220000000 -0.035667039 0.057400804 -0.0013957343 -0.00039231067 -0.0023345407 -0.00089026848 -0.055073522 0.070169404
15230000000 -0.030489909 0.050333124 -0.001461077 0.001136119 -0.001678237 0.0021361003 -0.041041061 0.052303966
15240000000 -0.033945851 0.048414934 0.00049537211 0.0018635537 0.0013527197 0.0019460141 -0.045185514 0.034016136
15250000000 -0.034358971 0.044541415 0.0016829141 0.00062381965 0.0018091951 3.3909833e-05 -0.067860812 0.027507015
15260000000 -0.042311456 0.049538523 0.0011768169 -0.00069128792 0.00042253933 -0.0011982216 -0.09286198 0.035658397
15270000000 -0.041537803 0.054766856 9.5953321e-05 -0.0012944404 -0.00034100539 -0.00056282262 -0.099769317 0.059798066
15280000000 -0.042847626 0.063400991 -0.0015726325 -0.00030736194 -0.00080985355 0.00043628848 -0.086892933 0.084846675
15290000000 -0.036235824 0.068778068 -0.00057460333 0.00133209 0.00017139989 0.00022751828 -0.060652383 0.092074089
15300000000 -0.033359986 0.071179651 0.0017375567 0.0010695367 0.00093074719 0.00045941042 -0.050681602 0.075906023
15310000000 -0.024207318 0.06840919 0.0015183482 -0.0014940156 0.0010938776 -0.00072862132 -0.050385557 0.05326521
15320000000 -0.027003145 0.062322665 -0.00090407528 -0.0018248926 -0.0004473271 -0.0014675474 -0.068716325 0.038398877
15330000000 -0.025529481 0.060375471 -0.0016825609 -0.00046517636 -0.0016905754 -0.00068023836 -0.086602136 0.044231255
15340000000 -0.030732796 0.057775136 -0.0011903734 0.0015394466 -0.0014293178 0.0014369843 -0.097418033 0.071613275
15350000000 -0.028877256 0.060026258 0.00070452609 0.0014672404 0.00053961604 0.0014595294 -0.078992747 0.099567294
15360000000 -0.032126106 0.062414505 0.0019965419 -0.00039931928 0.0019321176 -0.00011818821 -0.055088155 0.11435155
15370000000 -0.022321951 0.067225195 -1.4575315e-05 -0.0013052055 0.00016511307 -0.0014468344 -0.040608883 0.097663611
15380000000 -0.021725673 0.067766234 -0.0011488268 -0.00083648518 -0.0013995646 -0.00086849602 -0.035861515 0.075908981
15390000000 -0.011240402 0.068921991 -0.0015815386 0.00082168926 -0.0013933317 0.0012339314 -0.054605849 0.052621998
15400000000 -0.0084440978 0.064544968 0.00024635976 0.002044209 0.00045963153 0.0016296691 -0.072502129 0.056749005
15410000000 -0.0037252009 0.060467083 0.0025059972 0.00062098127 0.0022156942 0.00027448952 -0.085062146 0.08510945
15420000000 -0.0060543455 0.056396589 0.0012151336 -0.0020729187 0.00095967593 -0.0019156572 -0.072665863 0.11245585
15430000000 -0.0028543696 0.053114936 -0.0012676864 -0.0020634087 -0.0011248096 -0.0018324876 -0.049564235 0.12210923
15440000000 -0.010142293 0.050494302 -0.001787747 0.00049345987 -0.0014639995 0.00084786909 -0.025924832 0.107169
15450000000 -0.0071460828 0.051934764 -0.00082732807 0.0018723008 -0.00049997529 0.0013231456 -0.013009751 0.0782649
15460000000 -0.0069227777 0.052781288 0.0020546203 0.0012970227 0.0015199143 0.00098816841 -0.025280781 0.053158365
15470000000 -0.00072750065 0.051949795 0.00158365 -0.0016156562 0.0012285936 -0.0011021306 -0.046395365 0.057373527
15480000000 0.0031860266 0.05097666 -0.0011771617 -0.0021316784 -0.00078809308 -0.0018207825 -0.062658586 0.087434307
15490000000 0.01223074 0.045120545 -0.002048298 0.00042079602 -0.0020381932 0.00024611887 -0.053316262 0.11388245
15500000000 0.011138125 0.03879527 -0.00092004391 0.0020165825 -0.00072017516 0.0019413496 -0.030892853 0.13055438
15510000000 0.013414029 0.030245729 0.0015696865 0.0022280668 0.0013053145 0.0019699172 -0.0061796308 0.11419772
15520000000 0.0061689932 0.028672311 0.0024805469 -0.0012232177 0.0023553497 -0.00082661898 0.00972436 0.084762931
15530000000 0.0037378706 0.024730036 -9.0145681e-05 -0.0024405969 0.00013730407 -0.0023865108 -0.0061291172 0.053582728
15540000000 -0.00020167179 0.028562868 -0.0022226875 -0.00076082826 -0.0019897919 -0.00091686181 -0.032866269 0.056105942
15550000000 0.0040761856 0.025267638 -0.0012298895 0.0014309294 -0.0011678671 0.0013966871 -0.054181039 0.077327348
15560000000 0.0016904874 0.026685977 0.00038587651 0.0016655466 0.00060650986 0.0010348043 -0.047291897 0.10100818
15570000000 0.009980984 0.019132409 0.0022860502 0.00012298091 0.0015301791 9.790808e-05 -0.021828815 0.11544603
15580000000 0.0081084762 0.014139507 0.00076784269 -0.0024501458 0.00075415033 -0.0018153704 0.012376741 0.10393158
15590000000 0.011002467 0.0027114213 -0.0019298918 -0.0018905434 -0.0013476955 -0.0016253173 0.027465371 0.076266505
15600000000 0.0048079076 0.0018230334 -0.0022792907 0.0011071438 -0.0020950304 0.00048867572 0.010391609 0.048777252
15610000000 0.0041184695 -0.0069247968 6.3347397e-06 0.002660664 -0.00041185576 0.0021361632 -0.019577868 0.043890547
15620000000 -0.0039509595 -0.0024121199 0.0019345236 0.00080908119 0.0011805 0.0014232706 -0.042218015 0.062312648
15630000000 -0.0033028501 -0.0062949788 0.0016169375 -0.0017302835 0.0020581139 -0.00065407739 -0.040458649 0.087145314
15640000000 -0.006402018 -0.0011665195 -0.0011058844 -0.0016909046 -0.00030193082 -0.002311442 -0.018277578 0.10513017
15650000000 -0.0047547966 -0.0075790901 -0.002045451 0.00084577576 -0.0022912184 0.00011045323 0.014592651 0.096849948
15660000000 -0.0075119887 -0.004299521 -8.7964989e-05 0.0023650662 -0.00072152267 0.0025607795 0.027801357 0.069907837
15670000000 -0.0064390432 -0.013507525 0.0026005411 0.00093162258 0.0025713139 0.0013748759 0.0083701797 0.039769325
15680000000 -0.0096280621 -0.015315051 0.0015616005 -0.0017637033 0.0020426854 -0.0013264042 -0.017176332 0.029244589
15690000000 -0.014910884 -0.028294496 -0.00033365149 -0.0022653206 4.8580114e-05 -0.0027549076 -0.042168371 0.042250246
15700000000 -0.020646326 -0.024632633 -0.00216483 -0.00060901954 -0.0025566537 -0.0012243502 -0.038149763 0.06784834
15710000000 -0.026929431 -0.031956669 -0.0013050605 0.0016781555 -0.0018328564 0.0018943031 -0.015039369 0.095391423
15720000000 -0.030472418 -0.026813563 0.0014948951 0.001323908 0.001436322 0.0015845858 0.015404999 0.092987217
15730000000 -0.032857358 -0.028259967 0.0016550871 -0.0013011284 0.0019044987 -0.0011547813 0.022071205 0.069317348
15740000000 -0.028849207 -0.021870505 -0.0010716777 -0.0017413413 -0.0009523576 -0.0019593351 0.008389106 0.036515355
15750000000 -0.02901897 -0.028865853 -0.0020105469 -0.00014373437 -0.0020636166 -0.00021676811 -0.015085013 0.023136618
15760000000 -0.027628329 -0.02705328 -0.0009731896 0.0019548675 -0.00093576324 0.0017538976 -0.040293839 0.034745563
15770000000 -0.034822308 -0.037002038 0.0010604142 0.0016747449 0.0008059566 0.0018800338 -0.042390924 0.068323202
15780000000 -0.037223779 -0.034466486 0.0019496246 -0.00026442105 0.0019251318 0.00033073121 -0.02345771 0.094358131
15790000000 -0.049836621 -0.039768361 0.00033302334 -0.0011294205 0.00083089375 -0.0011928849 0.0032956973 0.089459151
15800000000 -0.054531835 -0.033641405 -0.0011123307 -0.00036560514 -0.00083020062 -0.0010008096 0.012334635 0.065812953
15810000000 -0.062084083 -0.035201263 -0.00010841096 0.00099730375 -0.00083555037 0.00049020571 0.0060306075 0.035393972
15820000000 -0.057751406 -0.028542142 0.00087046257 0.00075272995 0.00056596659 0.0014665285 -0.016870547 0.016648091
15830000000 -0.059818491 -0.036285337 0.0012285468 -0.00032426123 0.0016091304 9.4773131e-05 -0.039755575 0.031400949
15840000000 -0.056013003 -0.034533538 0.00075044204 -0.0014436475 0.0011869452 -0.001887226 -0.04120443 0.069997743
15850000000 -0.059304867 -0.042854615 -0.00074364443 -0.0013537002 -0.00090945541 -0.0018122928 -0.027861685 0.097459108
15860000000 -0.058093976 -0.042949222 -0.0010693603 -0.00044824209 -0.0016676151 -0.00022639096 -0.0025906824 0.091233015
15870000000 -0.066636547 -0.049345672 -0.00097188598 0.00027121417 -0.0012605605 0.0007100018 0.012073226 0.0728672
15880000000 -0.067080386 -0.042281233 -0.00030442956 0.00089276256 0.00036700396 0.001560476 0.012583663 0.040213738
15890000000 -0.073789217 -0.042851634 0.00071055128 0.00016990876 0.0012295016 -0.0001845332 -0.0095933853 0.026651813
15900000000 -0.072844908 -0.034704857 -0.00012541871 -0.00061860529 -0.0005341213 -0.0012990546 -0.039544992 0.04182731
15910000000 -0.077662244 -0.036846381 -0.0010851341 0.00015827338 -0.0013813167 -3.7362333e-06 -0.04044503 0.073590353
15920000000 -0.075638615 -0.034254968 -0.00080254383 0.0011491437 -0.0010313815 0.0018073096 -0.024822686 0.095246293
15930000000 -0.079731539 -0.039501533 0.00089693605 0.0019081362 0.0013887273 0.0019393382 0.0018832609 0.096040249
15940000000 -0.078824915 -0.042244602 0.0017733476 0.00033927686 0.0022565888 0.000122728 0.021473777 0.079990111
15950000000 -0.087896511 -0.050395593 0.0013431928 -0.0012766636 0.00090418028 -0.0017904806 0.025296766 0.051264718
15960000000 -0.089589 -0.050838504 -0.00083714945 -0.0012304924 -0.0013547651 -0.0011110136 -0.00079551322 0.038047869
15970000000 -0.095671728 -0.05533712 -0.00047439564 0.00075433392 -0.00059202465 0.001244484 -0.03005678 0.049670868
15980000000 -0.096935168 -0.053647712 0.00085479592 0.00023541352 0.0013657634 0.00042080652 -0.038215764 0.07334768
15990000000 -0.09988258 -0.053142466 0.00066597143 -0.0010222668 0.0010361186 -0.0011470412 -0.021769628 0.091800824
16000000000 -0.09747494 -0.050142784 -0.00019154249 -0.0012451138 -0.00038254313 -0.0016483364 0.0070564151 0.096922427
16010000000 -0.098903827 -0.053518761 -0.00083474163 -0.0010438636 -0.0013781956 -0.00092198758 0.030994741 0.081926048
16020000000 -0.098035239 -0.051694904 -0.0019028347 0.00024733858 -0.001717747 0.00060827041 0.032079827 0.055188827
16030000000 -0.10358645 -0.058529563 -0.00050686131 0.0013620892 -0.00014134536 0.001570138 0.0084999297 0.039190721
16040000000 -0.11112153 -0.058404699 0.00023133277 0.00053206616 0.0005686495 0.00033210113 -0.017737478 0.041911881
16050000000 -0.11825261 -0.061767492 0.00045955158 0.00039202382 0.00010645312 -1.456646e-05 -0.020692622 0.06221154
16060000000 -0.12708722 -0.0625332 0.0002377105 2.2812834e-05 -0.00024974777 -8.36658e-06 -0.0092929155 0.085465744
16070000000 -0.13468538 -0.064060852 -0.00043844373 0.0001170625 -0.00065505243 0.0005503904 0.02317081 0.094887838
16080000000 -0.13798495 -0.061010383 -0.0001520665 0.0011669708 0.00047859034 0.0013229828 0.041257054 0.082377397
16090000000 -0.14062595 -0.065498218 0.001573336 0.00078009022 0.0018036353 0.00044447603 0.041144848 0.058444813
16100000000 -0.14104427 -0.066066511 0.0012926731 -0.00064579875 0.0012466193 -0.00086494861 0.015502982 0.040002327
16110000000 -0.14403942 -0.071793929 0.00034837995 -0.0012439855 -2.4589826e-05 -0.0011043549 -0.0029994566 0.034412604
16120000000 -0.14834128 -0.07262972 -0.00065193861 -0.00077885517 -0.0007540544 -0.00057976693 -0.014969146 0.049315475
16130000000 -0.15649532 -0.074510247 -0.00072410132 0.00023128526 -0.00039906305 0.00038156076 -0.00042775273 0.074159354
16140000000 -0.16339365 -0.071630299 0.00042792031 0.00055439188 0.00049990189 -1.0779942e-05 0.02536487 0.084652498
16150000000 -0.17352177 -0.071969137 0.00012005238 -0.00090825831 -3.2813026e-05 -0.00094512495 0.039430872 0.072109871
16160000000 -0.18084751 -0.065996155 -0.00044896983 -0.00070437958 -0.00070977368 -0.00053126545 0.03899226 0.044423789
16170000000 -0.18739721 -0.06382031 -0.001007839 -9.2984163e-05 -0.0010124337 6.225353e-05 0.027028304 0.027114568
16180000000 -0.19569962 -0.065381154 -0.00086511922 0.00056088832 -0.00078131357 0.00076746207 0.009549343 0.020089915
16190000000 -0.20255296 -0.064921975 -0.00013635497 0.0010578372 0.00024638115 0.00090610376 -0.00095040165 0.038710557
16200000000 -0.20841748 -0.066034108 0.00017954821 0.00046005991 0.00029340628 0.00025228341 0.0053226035 0.066311322
16210000000 -0.21544185 -0.07044775 0.00026351085 2.8302165e-05 5.3521078e-05 -5.6242156e-05 0.023998402 0.07549049
16220000000 -0.22223246 -0.069228925 1.753855e-06 0.00026771333 -0.00028404995 0.00034089532 0.030845191 0.066493958
16230000000 -0.22741419 -0.068981446 0.00033209051 0.00037087401 0.00051500223 0.00063053862 0.029681778 0.041873023
16240000000 -0.23726508 -0.066352069 0.00033513969 0.00046179874 0.00066364341 0.00051096187 0.02309715 0.021467898
16250000000 -0.24318668 -0.062233724 0.0011470625 2.21917e-05 0.00094302662 -0.00029066924 0.008816069 0.011997666
16260000000 -0.2523576 -0.053256929 0.00050073408 -0.0011277949 0.00040436481 -0.0009420095 -0.0061303275 0.03221041
16270000000 -0.25737593 -0.045924686 -0.00054853875 -0.00088423246 -0.00065791153 -0.00081686117 -0.0043840762 0.052813269
16280000000 -0.26383203 -0.038195938 -4.8690905e-05 5.217766e-05 -0.00030278511 4.6336048e-05 0.0082669854 0.059956905
16290000000 -0.26950982 -0.036556851 8.1670441e-05 -0.00011310371 -3.980743e-05 3.7917445e-05 0.020801149 0.047950409
16300000000 -0.27900279 -0.035036426 -0.00011563743 -0.00020626734 0.00024108468 -0.00018682801 0.028624699 0.034921814
16310000000 -0.28871381 -0.035905462 -0.00022196308 -0.00035393471 -3.0883151e-05 -0.00060671737 0.02631975 0.018583458
16320000000 -0.30208883 -0.032995924 -0.00058969937 -0.00032176729 -0.0008186833 -0.00066988438 0.0074440148 0.016642174
16330000000 -0.31201139 -0.028511435 -0.00070163445 0.00024069111 -0.00097462779 0.00073974609 -0.0090676565 0.031617984
16340000000 -0.32004452 -0.018722832 -0.00027632245 0.0007943043 -0.00015346793 0.0010909325 -0.014957314 0.051984958
16350000000 -0.3202652 -0.01183033 8.0718251e-05 0.00057670393 0.00080823241 0.00054195488 -0.0066438634 0.055393789
16360000000 -0.32378143 -0.0039706007 0.0007233771 0.00014128158 0.00048923644 -0.00053413998 0.0041538831 0.051907849
16370000000 -0.32307199 0.0010358728 0.00014764935 -0.00041589039 -0.00061024906 -0.00046317853 0.015810896 0.038470618
16380000000 -0.32967114 0.0061918758 -0.00010599414 -2.2062997e-05 -0.00019068416 0.00063838164 0.014232497 0.025831901
16390000000 -0.33556503 0.010099679 -7.8268349e-05 0.00073833996 0.00030784775 0.00095550349 -0.0010587592 0.02195018
16400000000 -0.34975177 0.021160617 0.0010698586 0.00049975619 0.0017342842 0.00032299431 -0.021843724 0.03014298
16410000000 -0.35805893 0.030273333 0.00090043811 -0.0007424861 0.00060802407 -0.001613648 -0.022370026 0.041437909
16420000000 -0.36804548 0.04224363 -8.1263017e-05 -0.0012208446 -0.00085963786 -0.00091764389 -0.011261833 0.05402125
16430000000 -0.37122706 0.048758231 -0.00088320719 -0.00021461386 -0.00065079058 0.00031650416 0.0030214433 0.055233967
16440000000 -0.3802619 0.055677902 -0.00041844975 0.00080463855 -6.7169916e-05 0.00071908411 0.013197348 0.055427957
16450000000 -0.38118154 0.060120493 0.00059812464 -9.4609495e-05 0.00083228148 -0.00018929371 0.008351149 0.044077512
16460000000 -0.38727891 0.067378961 0.00020491905 -0.00086325995 6.9122558e-05 -0.0012508652 -0.0032643909 0.035230406
16470000000 -0.38828528 0.070298687 -0.00087749981 -0.00068516633 -0.0013161657 -0.00058181421 -0.021802308 0.038680159
16480000000 -0.39352 0.080608949 -0.00078668597 0.00088071404 -0.00068654813 0.0011888853 -0.025331181 0.048351616
16490000000 -0.39655435 0.085878164 0.00015377559 0.00062587752 0.00026913633 0.00072832772 -0.016064074 0.060074195
16500000000 -0.40409932 0.098866776 0.00017538632 -4.0601448e-05 0.00050566485 0.00010261917 -0.0027959375 0.068534695
16510000000 -0.40980205 0.10899091 2.1344809e-05 0.00017349824 6.5102089e-05 -0.00043786076 0.0056248675 0.063677154
16520000000 -0.41576597 0.12574391 9.7355682e-05 0.0003611244 -0.00032859063 0.00010576638 0.0056365659 0.05399194
16530000000 -0.41999584 0.13649209 6.1408253e-05 0.00024654422 -0.0003130773 0.0008186776 -0.0029764315 0.040594384
16540000000 -0.42173189 0.14818282 0.0003633874 -2.4568144e-05 0.00071016868 0.00047845574 -0.0076100016 0.034959
16550000000 -0.42690289 0.15222308 0.00020275885 0.00023765193 0.00090707908 3.1978911e-05 -0.01051861 0.049226329
16560000000 -0.43210006 0.15762839 0.00056107296 -0.00021835553 0.00046962948 -0.00094746728 -0.0027569942 0.071252242
16570000000 -0.43991119 0.16186744 0.0003740578 -0.00036268504 -0.00031236652 -0.00033939705 0.0055104196 0.080261327
16580000000 -0.44600976 0.17357713 -0.00028393476 -0.00051267241 -0.00046683286 -3.8595128e-05 0.0084998114 0.078029402
16590000000 -0.45063671 0.18422033 -0.00049454271 0.00013540602 6.6582252e-05 0.00041522706 0.0096680922 0.065169856
16600000000 -0.45074236 0.20061788 0.0001140652 0.00033411584 0.00032250513 -0.00019275032 0.012899328 0.055213995
16610000000 -0.4514381 0.21178067 0.00052373111 -0.00060812675 0.00026790894 -0.00083319715 0.0052709877 0.043588798
16620000000 -0.4517132 0.22732382 -0.00060345442 -0.00061599456 -0.00088542403 -0.00036149612 -0.0051975604 0.054721739
16630000000 -0.45352846 0.23972146 -0.00085014547 -0.00011890415 -0.00050044153 0.00026962184 -0.003350202 0.068482481
16640000000 -0.45697239 0.25297421 -0.00051545305 0.0010136886 -0.00039628078 0.00078706589 0.0088324053 0.073264107
16650000000 -0.46457791 0.26453969 0.00081576675 0.00069882837 0.00061132642 0.00050250877 0.012407291 0.070259772
16660000000 -0.46923226 0.27941835 0.00045715657 -0.00057375291 0.0004225614 -0.00043636581 0.021829011 0.060237352
16670000000 -0.477249 0.28956562 -0.0004032107 -0.00023391313 -0.00051239738 -0.00049539795 0.029215027 0.051335
16680000000 -0.4820857 0.3054204 -0.00052742392 0.0004103308 -0.00074460951 0.0006338642 0.026942177 0.0419132
16690000000 -0.48582694 0.31877923 0.00044362483 0.00088132103 0.00062644191 0.0010182131 0.011238031 0.054772548
16700000000 -0.48520651 0.3353785 0.00081270683 -2.6026246e-05 0.0011951263 0.00016025052 0.0057171546 0.064059414
16710000000 -0.48358208 0.34875628 0.00046930369 -0.00057460199 0.00059565669 -0.00084268069 0.010544637 0.065615579
16720000000 -0.47953057 0.36504674 -0.00018274173 -0.00040204186 -0.00045801487 -0.00071612583 0.01812447 0.06637384
16730000000 -0.47887975 0.3788262 -0.00023716045 -8.4791944e-05 -0.00046882141 6.3660824e-05 0.025711047 0.062697731
16740000000 -0.47771406 0.39756364 0.00033549292 0.00027572928 0.00016014163 0.00036869186 0.030281024 0.053408299
16750000000 -0.47997907 0.41492543 0.00026668789 -0.00051750662 0.00034168042 -0.00029449677 0.021420524 0.036575876
16760000000 -0.47900769 0.4362826 -0.00013491242 -0.00043523082 0.00025411733 -0.0002813396 0.011642969 0.034602761
16770000000 -0.47954422 0.45580956 -0.00077857781 -0.00037043632 -0.00073762808 -0.00087673578 0.0043629296 0.040988639
16780000000 -0.47517958 0.47662237 -0.0005465321 0.0002215158 -0.00081711879 0.00028810749 0.0055832714 0.05064277
16790000000 -0.47404197 0.49189633 -0.00016806429 0.00033207034 -0.00029149919 0.00072303193 0.014524182 0.054321814
16800000000 -0.46760464 0.51053387 0.00025183856 0.00038669989 0.00048448681 0.00048025587 0.027273055 0.055752371
16810000000 -0.46288359 0.52583718 0.00040710691 5.1618277e-05 0.00060663506 -0.00010819668 0.028369738 0.050335076
16820000000 -0.45239279 0.54357421 -0.00021890001 -0.00029541526 -0.0001655689 -0.00050646166 0.020126937 0.033743642
16830000000 -0.44655466 0.56120998 -0.00051837717 0.00027643383 -0.00079888647 0.00017668901 0.0098826429 0.026704501
16840000000 -0.43405434 0.5819363 0.0001314103 0.00063658092 5.6541379e-05 0.00086392101 0.00087586045 0.025767829
16850000000 -0.42768005 0.60181612 0.00077408447 0.00059262611 0.00083842943 0.00060158584 0.0012689028 0.047547951
16860000000 -0.41473088 0.62406647 0.00081951544 -0.00051993906 0.0010841762 -0.00053156976 0.0057803839 0.060978424
16870000000 -0.4060618 0.64627874 -7.0127135e-05 -0.00072804972 -0.00016400692 -0.0010333576 0.01331247 0.062901266
16880000000 -0.39159447 0.6664229 -0.00053890003 -0.00017951813 -0.00094726472 -0.00014800558 0.015270076 0.048812214
16890000000 -0.38317484 0.6844697 -0.00030066437 0.00013458288 -0.00026463444 0.00059601822 0.015531197 0.037772257
16900000000 -0.36948839 0.6995585 0.0004247945 0.00034228142 0.00081207301 0.00028707201 0.0053798063 0.024664164
16910000000 -0.36106327 0.71488822 0.00053539319 -0.00045465247 0.00056317647 -0.0006531573 -0.0076721171 0.027825432
16920000000 -0.34611166 0.7289601 -0.00055568037 -0.00090032123 -0.0007243189 -0.00098616548 -0.011630462 0.048102107
16930000000 -0.33351892 0.74513561 -0.00085422769 5.726995e-05 -0.00084962416 0.00014389833 -0.0037700534 0.067947574
16940000000 -0.31328693 0.76088214 -0.00039357651 0.00069842115 -0.00040656907 0.00073810993 0.0027033444 0.070888355
16950000000 -0.29487497 0.77820444 0.00034150554 0.00046130701 0.00043126015 0.00052518665 0.006948702 0.062218621
16960000000 -0.27099442 0.79427707 0.00029669542 -0.00012429644 0.00038467583 -0.000181108 0.014053733 0.042156763
16970000000 -0.25017342 0.81095845 -0.00014226005 -0.00019440058 -4.1260413e-05 -0.00042771193 0.006553879 0.034671843
16980000000 -0.22701369 0.82550436 -0.00028925424 6.535327e-05 -0.00045659614 2.8664363e-05 -0.0093104895 0.037732765
16990000000 -0.20757338 0.84037602 -0.00011069205 0.00048715569 -0.00020801811 0.00056806603 -0.018154217 0.060540687
17000000000 -0.18756275 0.85266531 0.0003509004 0.00035146097 0.00052305229 0.00051348761 -0.016150501 0.071605474
