!Keysight Technologies,P9374A,MY57211807,A.19.30.04
!Date: Friday, May 08, 2026 13:54:33
!Correction: S11(C  2-Port  ) 
!S21(C  2-Port  ) 
!S12(C  2-Port  ) 
!S22(C  2-Port  ) 
!S2P File: Measurements: S11, S21, S12, S22:
# Hz S  dB   R 50
13000000000 -19.002966 54.766251 -43.87067 53.41423 -43.772667 51.538956 -1.2678124 -118.63384
13010000000 -18.742096 59.135818 -44.270035 31.342335 -44.340031 29.101706 -1.2786106 -119.44283
13020000000 -19.689142 55.021683 -43.542286 9.6135635 -43.614513 9.3860607 -1.2948476 -120.21899
13030000000 -19.722775 62.338692 -44.19017 -13.383891 -43.991184 -14.547012 -1.3210163 -121.14925
13040000000 -20.156591 61.216904 -44.080608 -32.361362 -44.156101 -34.641052 -1.3473362 -122.22824
13050000000 -19.753891 65.731339 -44.182419 -52.995117 -44.171234 -54.454525 -1.3779202 -123.41344
13060000000 -20.184111 63.974331 -43.942883 -74.285797 -44.05508 -75.487419 -1.4027325 -124.72214
13070000000 -19.501444 66.289619 -43.961063 -94.400192 -44.090424 -95.543167 -1.3938835 -125.96219
13080000000 -19.590229 61.229141 -43.754124 -115.05185 -43.844307 -116.22791 -1.3733137 -126.86217
13090000000 -19.447153 61.94239 -43.921917 -137.31441 -44.137722 -137.94138 -1.358277 -127.57697
13100000000 -19.527117 58.578224 -44.203297 -156.57938 -44.089962 -157.9973 -1.3581905 -128.18268
13110000000 -19.704411 59.372643 -44.099865 -178.0835 -44.006153 -178.51535 -1.3854756 -128.83754
13120000000 -19.962671 59.164307 -44.24934 164.42694 -44.117054 162.32329 -1.4244715 -129.74838
13130000000 -19.756693 61.903481 -43.725769 144.31866 -43.587273 143.19209 -1.4329942 -130.83487
13140000000 -19.726833 61.965839 -43.629063 121.95119 -43.478752 120.396 -1.4328398 -131.82797
13150000000 -19.771671 63.560261 -43.567154 99.188812 -43.521172 97.932526 -1.4324625 -132.73929
13160000000 -19.253992 64.773712 -43.851795 79.627098 -43.866901 78.958214 -1.4416811 -133.49475
13170000000 -19.221062 61.338718 -43.77372 59.972279 -43.758537 58.098797 -1.4788233 -134.33414
13180000000 -19.02006 59.562809 -43.878311 39.980591 -43.904682 38.718815 -1.5220311 -135.48254
13190000000 -19.251266 55.909744 -43.581631 17.5245 -43.641651 15.720036 -1.5337719 -136.81726
13200000000 -19.273914 54.768208 -43.918594 -3.6906581 -44.039387 -5.0073853 -1.5194522 -138.05151
13210000000 -19.754881 52.585064 -43.995117 -23.383209 -44.051125 -23.556852 -1.492198 -138.99178
13220000000 -19.597485 54.611343 -44.058945 -40.332367 -43.967316 -42.010185 -1.4740916 -139.51701
13230000000 -19.963243 52.754173 -43.819901 -60.738079 -43.767899 -61.849979 -1.4990126 -139.85664
13240000000 -19.471018 57.097969 -43.376793 -80.982445 -43.382782 -82.134766 -1.5470967 -140.50449
13250000000 -19.408316 54.070507 -43.621098 -104.72932 -43.358208 -104.73543 -1.5957141 -141.65582
13260000000 -18.907986 55.173367 -43.480728 -122.08759 -43.541241 -124.35323 -1.6276962 -143.1194
13270000000 -19.203821 49.014652 -43.459049 -142.97581 -43.315617 -143.64378 -1.6200705 -144.65797
13280000000 -18.938494 50.062855 -43.440121 -162.7439 -43.275646 -164.78531 -1.583208 -145.80858
13290000000 -19.526213 42.423008 -42.756111 177.39842 -42.899647 176.58 -1.5627717 -146.53052
13300000000 -19.684252 45.68227 -42.940277 151.64418 -42.876377 149.95313 -1.5702643 -147.19159
13310000000 -20.378336 39.889133 -43.220966 134.39911 -43.198414 132.35646 -1.599182 -148.00026
13320000000 -20.123251 45.819153 -42.946846 113.47415 -42.901218 111.27388 -1.6369846 -149.07642
13330000000 -20.540545 40.241978 -43.304005 91.477135 -43.465908 91.378525 -1.6597511 -150.34796
13340000000 -19.717352 48.067066 -43.12204 74.425362 -43.089466 74.718056 -1.6408116 -151.37953
13350000000 -19.748859 37.990437 -42.594315 51.475475 -42.736622 50.013611 -1.6185299 -152.00717
13360000000 -19.323956 42.406948 -42.930889 31.365068 -42.950729 31.485373 -1.6069256 -152.36659
13370000000 -19.889893 31.638035 -42.681278 12.543089 -42.653671 11.12053 -1.6186656 -152.60219
13380000000 -19.873755 35.830643 -42.803288 -8.5637131 -42.770733 -8.4203568 -1.6794283 -153.12459
13390000000 -20.709879 26.110929 -42.780106 -28.188507 -42.589024 -30.543564 -1.7390165 -154.19473
13400000000 -21.119377 34.894772 -42.513428 -48.592865 -42.398094 -49.258202 -1.7827106 -155.66156
13410000000 -21.658577 25.326036 -42.474339 -67.436714 -42.225529 -70.135086 -1.7868025 -157.24423
13420000000 -21.77676 39.011406 -41.760307 -90.979668 -41.873966 -92.594002 -1.7517782 -158.69002
13430000000 -21.313662 27.754021 -42.390499 -111.38451 -42.30455 -113.54671 -1.7079072 -159.6479
13440000000 -21.064257 33.640408 -42.056316 -131.94852 -42.160919 -133.0244 -1.6914954 -160.26405
13450000000 -21.142523 22.727537 -41.859806 -152.66145 -41.878616 -153.79945 -1.7071056 -160.81119
13460000000 -20.988562 27.417149 -41.666378 -175.02036 -41.894688 -176.58966 -1.7528141 -161.38768
13470000000 -21.458 12.90661 -41.78405 166.06776 -41.69426 166.50165 -1.8033224 -162.26114
13480000000 -22.210287 22.350197 -41.724171 141.33713 -41.825233 140.12192 -1.8282325 -163.38039
13490000000 -23.112791 9.3848381 -42.394238 123.08258 -42.41573 122.9339 -1.8331655 -164.58118
13500000000 -23.729219 25.419609 -42.022827 103.64224 -41.919098 102.54236 -1.838941 -165.75023
13510000000 -23.92845 17.591423 -42.262703 84.912445 -42.121243 84.318138 -1.8382441 -166.81291
13520000000 -23.735754 29.047501 -41.592598 65.677177 -41.56707 64.029739 -1.8410403 -167.80647
13530000000 -23.496355 17.375784 -41.55278 44.18111 -41.452557 42.885509 -1.8635856 -168.86472
13540000000 -23.273901 22.029907 -41.505573 23.461552 -41.315147 21.074249 -1.8750765 -170.02472
13550000000 -23.169601 9.8376913 -41.142853 1.8825001 -41.190338 0.30783838 -1.8734448 -171.08571
13560000000 -23.62192 12.171463 -41.375214 -20.908474 -41.200909 -22.361656 -1.8674542 -172.02266
13570000000 -24.704538 1.7454642 -41.132977 -40.394852 -41.252842 -42.35675 -1.8587116 -172.82883
13580000000 -25.854095 11.127709 -41.197327 -61.5471 -41.28384 -62.698284 -1.8655015 -173.47818
13590000000 -26.453562 6.7774172 -41.181217 -82.774826 -41.407974 -84.605888 -1.8992573 -174.16841
13600000000 -27.003166 23.349815 -41.464153 -101.25432 -41.435638 -102.30954 -1.9297588 -175.08839
13610000000 -26.027296 21.018429 -40.90366 -124.03647 -41.04211 -125.49287 -1.9578391 -176.14079
13620000000 -26.096424 26.065832 -41.376125 -142.84389 -41.327938 -143.39047 -1.9717027 -177.32304
13630000000 -25.37451 18.631025 -40.94112 -166.49129 -40.887493 -168.45999 -1.9587843 -178.42909
13640000000 -26.022812 16.733225 -41.328083 172.63582 -41.398518 172.37265 -1.9337555 -179.41048
13650000000 -25.892731 5.2624364 -41.508144 153.81636 -41.551357 153.36703 -1.9303232 179.67123
13660000000 -27.864201 7.9057193 -41.397701 135.10022 -41.374043 135.12788 -1.9391756 178.87331
13670000000 -27.745827 4.2898145 -41.417126 117.92763 -41.131454 116.30956 -1.954484 178.15329
13680000000 -29.990334 15.488516 -40.480225 97.627319 -40.52528 97.06868 -1.9794145 177.27647
13690000000 -28.009531 19.200476 -40.497772 72.985954 -40.280655 70.701935 -1.996327 176.25175
13700000000 -28.8402 29.025908 -40.588612 50.91687 -40.677105 49.005447 -2.0120106 175.19327
13710000000 -26.118563 26.44997 -40.748909 32.029858 -40.704147 29.73304 -2.0240722 174.12582
13720000000 -27.141581 25.311138 -40.710003 9.1871204 -40.848373 7.7989063 -2.0303764 173.20172
13730000000 -25.6224 18.835264 -40.588463 -8.3569336 -40.651157 -10.485618 -2.0378311 172.41161
13740000000 -27.271961 10.675166 -40.414581 -31.991442 -40.615013 -33.265186 -2.0520594 171.49336
13750000000 -27.796658 10.412003 -40.732727 -51.178299 -40.704464 -52.005527 -2.0734806 170.46243
13760000000 -29.722837 8.2895746 -40.380009 -72.419746 -40.535782 -72.838371 -2.089509 169.30499
13770000000 -29.014425 13.783276 -40.70142 -93.658524 -40.600628 -93.568634 -2.0929739 168.09286
13780000000 -30.942801 17.886585 -40.57869 -111.77729 -40.567352 -113.01311 -2.0717413 167.0105
13790000000 -27.81669 23.171635 -40.359451 -135.6552 -40.330215 -135.78749 -2.0455239 166.24059
13800000000 -28.606508 16.097935 -40.831093 -154.62361 -40.759708 -155.74934 -2.035301 165.56288
13810000000 -26.128807 17.693106 -40.437206 -173.0271 -40.419804 -173.81265 -2.0486448 164.96539
13820000000 -26.741461 2.839385 -40.668358 165.64864 -40.584927 163.80489 -2.088145 164.24515
13830000000 -26.216253 5.8470316 -40.761162 146.81789 -40.776379 145.53281 -2.1242888 163.23251
13840000000 -27.452435 -9.8625908 -40.24947 127.41143 -40.137329 125.69063 -2.1363721 162.07297
13850000000 -27.852516 -1.1781158 -40.077751 104.99097 -40.109818 103.67919 -2.1409218 160.96365
13860000000 -28.738228 -12.919843 -39.886822 85.102226 -39.96394 83.606018 -2.1373215 159.99878
13870000000 -29.199425 1.8690042 -40.044662 61.960518 -40.174973 60.238785 -2.1340816 159.14948
13880000000 -29.576689 -8.9277248 -40.410252 42.801537 -40.386543 41.447189 -2.1471422 158.26678
13890000000 -28.164473 5.0306058 -40.036118 23.11883 -40.161995 21.412674 -2.1679797 157.21252
13900000000 -27.777771 -15.353285 -40.245716 1.2338217 -40.298809 0.64950919 -2.1760013 156.14761
13910000000 -27.462133 -5.9756823 -40.077679 -16.641001 -40.15617 -18.050735 -2.1695724 155.13379
13920000000 -26.997963 -23.823734 -39.957226 -37.575119 -39.968803 -37.828732 -2.1601188 154.2417
13930000000 -27.940844 -24.253819 -39.941067 -57.879337 -39.97316 -58.621029 -2.1602759 153.54352
13940000000 -28.042669 -38.393047 -39.753189 -78.576759 -39.632751 -78.878288 -2.1793969 152.85585
13950000000 -29.537872 -34.380947 -39.779984 -99.67363 -39.773796 -101.05289 -2.2158003 151.97404
13960000000 -29.727087 -51.490204 -39.697807 -119.60958 -39.56707 -120.80395 -2.2489183 150.86458
13970000000 -31.588354 -37.56876 -39.619957 -139.45857 -39.569714 -141.71301 -2.2808154 149.59789
13980000000 -30.202749 -53.76088 -39.535046 -160.11075 -39.50275 -160.9462 -2.2840681 148.34789
13990000000 -30.717926 -45.621025 -39.591209 178.80124 -39.506618 176.90614 -2.2655087 147.26189
14000000000 -28.407446 -58.993935 -39.451523 158.27782 -39.562279 157.04054 -2.2478974 146.31335
14010000000 -29.017523 -60.927631 -39.437626 137.55748 -39.446194 136.26591 -2.2403815 145.41231
14020000000 -27.21796 -69.432053 -39.143475 117.74469 -39.259247 116.31021 -2.2403781 144.59941
14030000000 -28.452198 -75.657722 -39.429672 96.065147 -39.423733 95.146675 -2.2440696 143.70631
14040000000 -27.602028 -81.973824 -39.099548 75.306709 -39.181107 74.123123 -2.2437742 142.78175
14050000000 -29.454803 -86.685555 -39.329338 56.21207 -39.27935 54.720924 -2.2455554 141.89697
14060000000 -29.584719 -88.205872 -39.073242 34.600925 -39.185886 33.153679 -2.2536695 141.10136
14070000000 -31.193884 -89.705559 -39.19162 16.48 -39.226734 15.719903 -2.2571366 140.31212
14080000000 -29.559647 -96.312874 -38.813358 -4.7295709 -38.79285 -5.7186918 -2.2777646 139.54582
14090000000 -31.760939 -102.01136 -38.886852 -27.303259 -38.805958 -28.076033 -2.3069932 138.70911
14100000000 -29.134523 -102.8683 -39.06699 -45.332409 -39.061489 -47.249714 -2.3268006 137.73116
14110000000 -29.466677 -116.93493 -38.670269 -66.747826 -38.676979 -67.801498 -2.3440275 136.66573
14120000000 -28.425392 -118.12229 -38.87281 -85.737106 -38.811714 -87.388817 -2.3585954 135.53383
14130000000 -28.140419 -131.06453 -38.248199 -107.8909 -38.227367 -109.5145 -2.3531306 134.51862
14140000000 -28.111017 -130.39066 -38.699886 -128.97096 -38.634354 -130.87311 -2.3361499 133.62746
14150000000 -28.566847 -140.86888 -38.398247 -150.15067 -38.472095 -151.37029 -2.3366215 132.8231
14160000000 -28.372541 -133.77853 -38.556953 -169.72696 -38.549252 -170.93965 -2.3434 132.0414
14170000000 -28.120226 -145.7498 -38.546925 169.7713 -38.595684 168.07544 -2.3640857 131.16425
14180000000 -29.596039 -139.8454 -38.237881 150.7195 -38.274036 149.52942 -2.3918641 130.16783
14190000000 -27.796598 -148.67722 -38.342304 127.10608 -38.377678 125.89511 -2.4049463 129.1095
14200000000 -28.424093 -147.22209 -38.180031 109.51683 -38.231434 108.47154 -2.3952827 128.09227
14210000000 -26.893452 -158.8741 -38.1908 87.169083 -38.169811 86.050453 -2.3850787 127.07299
14220000000 -27.955095 -154.00583 -38.293324 66.305222 -38.272373 65.540123 -2.3803952 126.17052
14230000000 -26.059408 -165.49248 -38.096588 48.223083 -38.084564 46.455101 -2.3897681 125.3692
14240000000 -28.044914 -167.13173 -37.820496 24.717382 -37.836727 23.906408 -2.4006865 124.55966
14250000000 -26.141886 -167.98421 -38.107502 7.9309154 -38.093273 6.5903187 -2.40803 123.66424
14260000000 -28.354357 -172.11456 -37.615646 -15.878199 -37.583931 -17.25485 -2.4109216 122.79268
14270000000 -26.737614 -169.64063 -38.089119 -34.499435 -37.956425 -36.11599 -2.4122374 121.99387
14280000000 -29.01388 -170.90254 -37.402733 -55.918839 -37.49601 -57.851257 -2.410265 121.17314
14290000000 -26.188046 -169.52303 -37.573986 -78.504211 -37.571957 -79.739464 -2.4335239 120.38718
14300000000 -28.631937 179.65623 -37.746368 -96.914543 -37.833954 -98.391731 -2.4633009 119.56036
14310000000 -26.219959 -172.58255 -37.316864 -116.9947 -37.279022 -118.33633 -2.4867463 118.56771
14320000000 -27.67264 174.09004 -37.40403 -139.90814 -37.49247 -141.6926 -2.5024688 117.50328
14330000000 -25.890051 177.72215 -37.538284 -158.41875 -37.514927 -161.41389 -2.5035398 116.33162
14340000000 -27.948385 163.65446 -37.428406 178.68716 -37.473782 178.51674 -2.4831352 115.29304
14350000000 -26.722319 178.08096 -37.571922 160.90503 -37.538956 159.02219 -2.4690771 114.32143
14360000000 -28.516327 163.93259 -37.08881 140.4637 -37.120312 139.47318 -2.4725173 113.54299
14370000000 -27.336718 -177.99571 -37.151459 118.92238 -37.13224 116.66497 -2.4773178 112.87461
14380000000 -28.845325 169.25623 -36.9119 98.198692 -37.029915 97.550507 -2.4932301 112.21711
14390000000 -26.598253 -178.024 -37.059158 75.900093 -36.949421 74.218964 -2.5120542 111.41656
14400000000 -28.176743 166.68474 -37.018909 56.244705 -37.163765 54.591377 -2.5322282 110.48075
14410000000 -26.566433 179.82307 -37.137184 36.088238 -37.054234 35.078911 -2.5555382 109.47362
14420000000 -27.546164 160.40605 -36.695992 16.224911 -36.877934 14.84504 -2.5705419 108.47717
14430000000 -26.937761 171.16563 -36.870152 -6.4491839 -36.724342 -7.4870553 -2.57285 107.53767
14440000000 -28.718033 157.14957 -36.717289 -26.568903 -36.756268 -28.32715 -2.5742803 106.59824
14450000000 -27.01878 176.7007 -36.822865 -47.755165 -36.729027 -48.767311 -2.5803032 105.68839
14460000000 -28.481207 163.60776 -36.743637 -67.798828 -36.737129 -69.772285 -2.5785942 104.80069
14470000000 -26.953259 -177.79512 -36.719128 -88.895332 -36.63546 -89.567772 -2.575526 103.88192
14480000000 -27.418148 172.14662 -36.839397 -108.86433 -36.747261 -111.01184 -2.5687737 103.00032
14490000000 -26.096424 179.73712 -36.55254 -129.26222 -36.531025 -130.45078 -2.56637 102.20577
14500000000 -27.039326 173.74622 -36.679745 -150.63597 -36.62405 -152.81308 -2.5799706 101.4836
14510000000 -25.514048 176.02434 -36.471859 -170.82088 -36.506916 -171.8965 -2.6175768 100.73212
14520000000 -27.687931 168.26184 -36.676929 168.28867 -36.523796 166.36171 -2.6579254 99.936134
14530000000 -26.130362 177.86371 -36.527954 148.03185 -36.622089 145.99712 -2.6865757 98.931427
14540000000 -26.966614 170.35847 -36.540146 128.54268 -36.497601 126.9838 -2.7008052 97.72718
14550000000 -25.768044 179.18628 -36.326672 107.59598 -36.395611 105.94514 -2.7074823 96.628288
14560000000 -26.165411 173.18175 -36.336231 86.008286 -36.299397 84.668152 -2.7008107 95.678215
14570000000 -24.690067 179.96193 -36.454788 65.424171 -36.506874 63.754204 -2.6943209 94.812744
14580000000 -24.60668 172.54659 -36.32037 45.40218 -36.350483 44.227646 -2.7112486 94.053375
14590000000 -24.069359 174.27077 -36.300632 25.49054 -36.384228 24.046089 -2.7235503 93.308891
14600000000 -24.20871 172.23712 -36.043617 3.7336402 -35.995564 2.852598 -2.7352993 92.420914
14610000000 -23.803316 173.06694 -36.282082 -17.42379 -36.151428 -19.223785 -2.7574081 91.510696
14620000000 -24.171171 169.9353 -36.231647 -36.915581 -36.246666 -38.490658 -2.7795103 90.644745
14630000000 -23.573626 173.92543 -36.093636 -58.133476 -36.059746 -59.569305 -2.8095787 89.864151
14640000000 -23.514164 169.27263 -36.223221 -77.006035 -36.156837 -78.762718 -2.8347418 89.007629
14650000000 -23.192207 173.08696 -35.870953 -96.792892 -35.883671 -98.827316 -2.8744986 88.009819
14660000000 -22.403257 167.23717 -35.956852 -119.72942 -35.940998 -120.89016 -2.9052324 86.939598
14670000000 -22.751459 168.4749 -36.011063 -138.36284 -35.956459 -140.83667 -2.9219439 85.775421
14680000000 -21.707838 164.10014 -35.691013 -160.41393 -35.668221 -161.28996 -2.935817 84.667625
14690000000 -22.202553 164.00949 -35.866375 -179.55937 -35.793629 178.4368 -2.9534833 83.75325
14700000000 -21.486732 160.95372 -35.722569 160.64981 -35.718922 159.06706 -2.9615276 83.03067
14710000000 -21.990385 162.00726 -35.568405 139.1082 -35.539494 137.06131 -2.973964 82.262039
14720000000 -21.246965 159.28081 -35.585163 117.89963 -35.594643 116.27145 -3.0049117 81.478905
14730000000 -21.908209 158.52754 -35.349678 97.302879 -35.384716 95.656509 -3.0519197 80.603271
14740000000 -21.075443 156.89659 -35.444775 76.528976 -35.412544 75.522629 -3.1211977 79.711945
14750000000 -21.569443 155.30801 -35.38834 58.114571 -35.298473 55.999733 -3.1834903 78.745636
14760000000 -20.40807 153.20674 -35.035175 35.797203 -35.070225 34.132393 -3.2420049 77.71759
14770000000 -21.267809 149.6003 -35.305756 14.785316 -35.231892 13.420147 -3.2735934 76.547188
14780000000 -20.275707 149.29179 -34.907223 -4.7124305 -35.000046 -6.567688 -3.3040447 75.364449
14790000000 -21.028526 145.27576 -34.939865 -25.780872 -34.946136 -26.995405 -3.3349469 74.334618
14800000000 -19.937338 147.36743 -34.811054 -45.582874 -34.859406 -47.12973 -3.3730145 73.443863
14810000000 -20.647858 141.80074 -34.667488 -67.02845 -34.724148 -68.215897 -3.4197075 72.599907
14820000000 -20.139359 143.24403 -34.71928 -87.861366 -34.669384 -88.863129 -3.4812584 71.70166
14830000000 -20.926449 141.18951 -34.585541 -108.76464 -34.466507 -110.01575 -3.5458238 70.832848
14840000000 -19.970425 141.42035 -34.561749 -129.32008 -34.474152 -131.45262 -3.6040506 69.879486
14850000000 -21.034065 135.22438 -34.468754 -149.58728 -34.498352 -151.19713 -3.678968 68.976212
14860000000 -20.213354 138.74675 -34.246445 -169.81664 -34.220741 -171.536 -3.7639968 68.109039
14870000000 -21.043839 131.76167 -34.208153 168.39772 -34.210632 166.43466 -3.867321 67.142776
14880000000 -20.33847 133.25575 -34.050121 147.48508 -33.98967 146.33958 -3.9907825 65.961777
14890000000 -20.981897 126.82561 -33.921364 126.32784 -33.941322 123.82875 -4.1016631 64.60688
14900000000 -20.284107 127.56101 -33.914848 106.15282 -33.95425 104.67146 -4.1849651 63.292255
14910000000 -21.111538 123.09452 -33.795555 85.045586 -33.874962 83.67144 -4.2344708 62.173676
14920000000 -20.535692 125.74364 -33.5686 64.377335 -33.596378 63.360065 -4.2869487 61.397038
14930000000 -21.195656 121.49124 -33.504333 42.756126 -33.521854 42.020477 -4.362978 60.865147
14940000000 -20.763189 123.39423 -33.451672 21.512814 -33.409077 20.541372 -4.4819112 60.25145
14950000000 -21.31642 120.81445 -33.476006 0.29805475 -33.509884 -0.80831861 -4.6507158 59.386063
14960000000 -21.174667 121.68795 -33.217072 -20.341452 -33.114456 -20.817917 -4.8439755 58.349159
14970000000 -21.727505 119.01082 -33.214909 -42.04607 -33.132874 -43.704006 -5.0145082 57.461639
14980000000 -21.839769 118.33108 -33.180378 -63.225212 -33.135677 -64.465355 -5.1494055 56.557636
14990000000 -22.192074 115.19442 -33.03331 -83.607872 -32.984646 -85.162888 -5.3141332 55.687283
15000000000 -22.638311 115.38602 -33.195385 -105.55545 -33.076996 -107.60165 -5.5067248 54.721272
15010000000 -22.87727 114.15793 -32.840515 -125.65527 -32.92564 -127.13525 -5.7467399 53.645008
15020000000 -23.054478 115.08735 -32.811523 -148.81172 -32.772095 -149.72041 -5.9587617 52.513214
15030000000 -23.065882 112.87446 -32.741852 -167.46414 -32.728714 -169.28886 -6.1278734 51.453979
15040000000 -23.297413 114.5824 -32.46698 170.85013 -32.540096 169.65915 -6.24721 50.877945
15050000000 -23.225567 113.63714 -32.494675 148.14063 -32.487717 147.0988 -6.3849454 50.668381
15060000000 -23.424353 116.25658 -32.45937 126.44951 -32.488487 125.2895 -6.5948253 50.86797
15070000000 -23.460072 112.32751 -32.417759 104.31496 -32.404419 103.63386 -6.8754163 50.917652
15080000000 -24.534029 117.08745 -32.482323 83.376167 -32.393501 82.267349 -7.2387052 50.854027
15090000000 -23.965094 115.09578 -32.428726 62.715221 -32.453003 61.6824 -7.5792284 50.578484
15100000000 -25.143686 120.90843 -32.278301 40.301426 -32.192699 39.73782 -7.881659 50.089985
15110000000 -24.503775 118.42562 -32.458603 19.247885 -32.312954 17.180294 -8.1614885 49.673077
15120000000 -25.622372 125.16575 -32.283314 -2.2786715 -32.279636 -3.7522004 -8.4600124 49.531147
15130000000 -24.228519 121.53332 -32.264526 -23.781628 -32.19865 -25.576614 -8.7927427 49.911331
15140000000 -25.073959 124.63326 -32.168877 -44.890198 -32.209076 -46.529633 -9.0786276 50.571133
15150000000 -23.765005 122.20204 -32.211006 -67.402985 -32.21069 -69.026237 -9.3069487 51.15575
15160000000 -24.816505 122.82655 -32.312695 -89.204681 -32.413799 -90.324669 -9.5302477 52.017033
15170000000 -23.963936 121.58292 -32.431511 -109.18019 -32.428295 -110.6764 -9.7690573 53.436665
15180000000 -24.635592 124.30985 -32.166279 -130.46236 -32.293198 -131.43401 -10.001084 55.637604
15190000000 -23.849174 123.41766 -32.093376 -153.7282 -32.097805 -154.18047 -10.250691 58.038651
15200000000 -24.901236 127.80265 -32.172218 -174.99133 -32.161201 -176.02382 -10.509391 60.483868
15210000000 -23.339767 128.33614 -32.35762 161.31895 -32.281166 161.00476 -10.769425 62.450653
15220000000 -24.319525 129.59273 -32.623905 142.32121 -32.546951 140.62434 -11.046744 64.418098
15230000000 -22.69379 128.16975 -32.31636 120.20652 -32.316708 119.42254 -11.213051 66.712494
15240000000 -23.632481 125.54889 -32.626835 99.038445 -32.448658 97.742622 -11.306128 68.6717
15250000000 -22.590136 123.67955 -32.504055 76.96701 -32.488102 75.415436 -11.314426 70.618805
15260000000 -23.582167 120.57033 -32.741238 55.377216 -32.645164 53.902233 -11.264636 72.282646
15270000000 -22.795116 121.2343 -32.756603 34.730755 -32.754391 33.190418 -11.165106 74.171867
15280000000 -23.704762 116.8888 -32.771313 13.244654 -32.765381 11.593437 -10.945119 76.448898
15290000000 -23.001186 120.35461 -32.94379 -8.2404299 -33.019787 -9.4719353 -10.689512 78.801926
15300000000 -23.5179 117.95194 -33.123627 -29.655172 -33.025944 -30.983959 -10.475038 81.353523
15310000000 -22.703608 121.22161 -33.135574 -50.189987 -33.236061 -52.065159 -10.312792 83.869705
15320000000 -22.836937 116.01168 -33.091797 -72.009422 -33.074009 -72.637177 -10.133458 86.05294
15330000000 -22.422653 118.36554 -33.274601 -93.174011 -33.271786 -94.868942 -9.9862309 87.253067
15340000000 -22.539865 109.39121 -33.338589 -115.46151 -33.374363 -116.05447 -9.8551006 88.001785
15350000000 -22.858624 114.04707 -33.561752 -135.53848 -33.50153 -136.7475 -9.6838923 88.783104
15360000000 -22.772369 102.7342 -33.433769 -156.78458 -33.422588 -157.63005 -9.4333591 89.735649
15370000000 -23.904625 108.25431 -33.473652 -178.33948 -33.426529 -179.84299 -9.1833334 90.170555
15380000000 -23.790039 101.80027 -33.79612 159.17761 -33.785305 158.36089 -8.9892807 90.15818
15390000000 -24.308069 108.80309 -34.112312 138.83473 -33.976601 137.57172 -8.8060408 90.129585
15400000000 -24.216982 99.970497 -34.003761 119.44193 -34.00922 117.86113 -8.5643063 90.129059
15410000000 -23.969877 107.04671 -34.096893 97.517387 -33.935608 96.444565 -8.2562046 90.306969
15420000000 -24.355024 94.653442 -34.090599 77.958267 -34.104744 75.638428 -7.9501915 90.788498
15430000000 -24.273718 104.04166 -34.280392 54.093952 -34.256924 53.290775 -7.6870885 91.430763
15440000000 -24.392033 87.441566 -34.459846 34.163303 -34.556622 31.673193 -7.5115423 92.069153
15450000000 -25.522409 95.939957 -34.778084 13.75153 -34.859898 13.097942 -7.3895211 92.130653
15460000000 -25.860464 82.982559 -34.765923 -6.4200592 -34.715393 -8.2610035 -7.3354979 91.650444
15470000000 -27.119108 95.747375 -34.636059 -26.685455 -34.736305 -27.781916 -7.2783904 91.077454
15480000000 -27.309221 82.52829 -34.729305 -49.060291 -34.644848 -50.179527 -7.1142931 90.645042
15490000000 -28.058069 95.752541 -34.790695 -70.17408 -34.833748 -71.405731 -6.8817091 90.00209
15500000000 -28.167286 79.499588 -34.993011 -91.993492 -34.946583 -92.785019 -6.6859956 89.159546
15510000000 -28.8762 96.188545 -35.169453 -113.13235 -35.118397 -114.06792 -6.5543256 88.469398
15520000000 -28.776285 74.855331 -35.384003 -134.12766 -35.24995 -135.46918 -6.4161234 88.309349
15530000000 -30.397829 89.534958 -35.613518 -151.94376 -35.649242 -153.73346 -6.2215538 88.136818
15540000000 -30.651649 64.388435 -35.401649 -173.94835 -35.38546 -174.69014 -6.0319433 87.948662
15550000000 -33.127678 89.539017 -35.769257 165.39966 -35.681992 163.25179 -5.8887396 87.71685
15560000000 -33.398018 62.654175 -35.614349 145.38791 -35.601532 144.19347 -5.7996941 87.705093
15570000000 -38.126656 103.92088 -35.686066 123.63889 -35.657852 121.53991 -5.726161 87.650948
15580000000 -38.325947 62.839783 -35.761311 102.88877 -35.840057 101.42164 -5.6758285 87.324013
15590000000 -41.330231 129.60904 -35.933563 79.63575 -35.922699 78.50531 -5.6311598 86.758469
15600000000 -45.544178 70.727837 -36.181892 59.93325 -36.182026 58.334255 -5.5691948 85.896118
15610000000 -39.360741 169.58301 -36.52552 39.079399 -36.482552 37.618847 -5.4952898 84.841415
15620000000 -51.664391 67.518234 -36.460724 21.756903 -36.563515 20.010187 -5.4036798 83.852135
15630000000 -38.348068 -148.89923 -36.451012 -0.27310735 -36.417282 -0.92710727 -5.2939105 83.08046
15640000000 -47.376949 -126.52364 -36.440842 -20.448559 -36.433197 -22.360598 -5.1582747 82.686462
15650000000 -35.241699 -138.04694 -36.353752 -42.3237 -36.383709 -43.437981 -5.0101371 82.427544
15660000000 -37.976299 -127.78161 -36.621895 -65.582405 -36.612236 -67.4953 -4.8993773 82.302864
15670000000 -31.563215 -136.81441 -37.106499 -84.950188 -37.129337 -85.830498 -4.8377132 82.153725
15680000000 -32.576473 -138.96423 -37.196716 -105.82713 -37.136829 -107.38068 -4.8180904 81.824692
15690000000 -29.379641 -141.64635 -37.346886 -125.27769 -37.377754 -126.74213 -4.8346591 81.362686
15700000000 -30.09643 -147.72609 -37.339851 -144.16635 -37.216957 -146.13913 -4.8055696 80.986916
15710000000 -28.380232 -144.83583 -37.169827 -167.11655 -37.13678 -168.51093 -4.7358079 80.324524
15720000000 -28.39933 -150.42001 -37.638149 173.53838 -37.609955 171.24261 -4.6748056 79.469925
15730000000 -27.719858 -144.57547 -37.235054 152.16389 -37.260166 150.96635 -4.6486654 78.642136
15740000000 -27.789225 -146.59151 -37.648319 129.79156 -37.61824 128.3596 -4.6235509 77.820648
15750000000 -26.46426 -140.17018 -37.619331 110.01469 -37.62957 108.25608 -4.5641313 77.037422
15760000000 -25.895683 -147.2567 -38.041916 88.210144 -38.051682 87.227745 -4.4713025 76.437675
15770000000 -25.062748 -144.67987 -38.35498 70.509254 -38.330643 68.716003 -4.33253 76.090706
15780000000 -24.835741 -151.41348 -38.335114 49.828339 -38.234119 48.681492 -4.2265387 76.003296
15790000000 -24.202646 -149.41171 -38.125374 29.755125 -38.119869 28.312136 -4.1638799 76.196037
15800000000 -23.922874 -157.8503 -38.338501 7.9563451 -38.200401 6.2533488 -4.1745868 76.230789
15810000000 -24.176256 -152.5573 -38.258434 -13.755945 -38.373989 -14.974076 -4.2146506 76.093552
15820000000 -23.509577 -156.09047 -38.733833 -34.474384 -38.662155 -35.397167 -4.2410722 75.379944
15830000000 -23.573586 -151.63899 -38.543159 -55.729546 -38.567863 -57.463043 -4.2626104 74.320168
15840000000 -22.805109 -152.4715 -39.314255 -76.881721 -39.228672 -77.692253 -4.2530861 73.263817
15850000000 -22.558039 -150.38048 -39.171597 -94.085182 -39.163456 -96.326065 -4.2038293 72.421753
15860000000 -21.891779 -153.57381 -39.093613 -113.94245 -39.18314 -114.33614 -4.1461635 71.623802
15870000000 -21.985544 -153.31435 -39.255287 -134.24924 -39.164745 -136.46962 -4.0858541 71.058136
15880000000 -21.483753 -156.13109 -39.006275 -156.54681 -39.052094 -156.61555 -4.0119944 70.651215
15890000000 -21.688017 -156.43927 -39.380836 -177.33432 -39.199093 -179.85095 -3.9373949 70.343208
15900000000 -21.555996 -159.97746 -39.353142 160.90886 -39.458801 159.70366 -3.8874097 70.182137
15910000000 -21.806101 -155.91864 -39.951088 141.16266 -39.82243 139.36874 -3.8662672 70.196411
15920000000 -20.996964 -157.17381 -40.016354 122.29188 -40.193665 120.43891 -3.8608174 70.209633
15930000000 -21.095188 -154.92726 -40.329395 101.01258 -40.092052 99.263779 -3.8692739 69.960907
15940000000 -20.187624 -155.24088 -40.336842 82.820175 -40.499771 80.095856 -3.8927305 69.533096
15950000000 -20.014866 -154.94846 -40.162224 62.866146 -40.078079 61.82333 -3.9217312 68.901779
15960000000 -19.438507 -157.55688 -40.10759 42.084469 -40.147713 39.777416 -3.9361627 68.013748
15970000000 -19.491245 -156.80446 -40.24604 18.843258 -40.189453 17.849962 -3.9390221 67.088989
15980000000 -19.199587 -159.26547 -40.473209 0.87940121 -40.444408 -2.0307291 -3.9041028 66.186661
15990000000 -19.504576 -156.25731 -40.665062 -22.177654 -40.705269 -23.447544 -3.8183804 65.481995
16000000000 -19.161049 -156.00453 -40.781231 -39.551842 -40.740353 -42.215141 -3.7473838 65.103645
16010000000 -19.059971 -154.06654 -40.95882 -60.406418 -41.031765 -60.97588 -3.6833265 65.143456
16020000000 -18.401937 -155.56137 -41.183216 -79.429001 -41.099487 -82.038277 -3.6538329 65.375206
16030000000 -18.285267 -153.25723 -40.775566 -97.990158 -40.984608 -98.828026 -3.6584899 65.417435
16040000000 -17.414652 -156.05841 -40.783886 -122.24232 -40.725452 -123.47491 -3.6970146 65.113075
16050000000 -17.416481 -157.12869 -41.00177 -141.98772 -41.097584 -142.64224 -3.7440698 64.517624
16060000000 -16.879065 -158.57265 -41.184608 -164.31123 -40.97308 -165.56528 -3.7730458 63.812347
16070000000 -17.033115 -158.60457 -41.511524 177.07886 -41.582241 174.59454 -3.7693195 63.143517
16080000000 -16.486856 -158.60381 -41.535252 157.49144 -41.353516 155.84435 -3.7636104 62.467464
16090000000 -16.621819 -157.28345 -41.499271 137.68468 -41.503216 135.15666 -3.7667372 61.709579
16100000000 -15.920485 -157.16843 -41.543041 116.99968 -41.444019 115.70666 -3.7679899 60.860558
16110000000 -16.01577 -157.47752 -41.591911 97.686165 -41.61739 95.047981 -3.7410197 60.068958
16120000000 -15.217005 -157.21964 -41.327152 76.120964 -41.39093 75.234657 -3.6667349 59.576736
16130000000 -15.133217 -159.29138 -41.774242 55.112034 -41.762707 52.113956 -3.5705826 59.491619
16140000000 -14.581413 -159.80325 -41.563026 34.252552 -41.681831 33.842804 -3.5162349 59.794365
16150000000 -14.615327 -162.60522 -41.914608 14.092821 -41.86377 11.473166 -3.5325375 60.262875
16160000000 -14.193377 -162.62599 -42.013729 -7.0294089 -42.188446 -7.7876854 -3.5828693 60.363834
16170000000 -14.083621 -164.01112 -42.34684 -24.819744 -42.064713 -26.906755 -3.6653268 59.816681
16180000000 -13.596192 -163.47746 -42.233719 -45.799728 -42.297634 -47.023754 -3.7280436 58.9198
16190000000 -13.559732 -164.87512 -42.080204 -66.960754 -41.852085 -68.37793 -3.7417827 57.828548
16200000000 -13.036206 -163.61389 -42.144562 -86.140854 -42.159626 -87.961403 -3.7201934 56.857792
16210000000 -12.899948 -166.27444 -41.97905 -107.24772 -41.672859 -108.99504 -3.6969693 56.045074
16220000000 -12.500833 -164.64882 -41.848175 -131.49112 -41.97739 -133.56599 -3.681314 55.384735
16230000000 -12.272662 -168.75769 -42.55891 -152.92442 -42.457325 -154.09738 -3.6555572 54.853668
16240000000 -12.150226 -167.36554 -42.759605 -171.57722 -42.810253 -172.92175 -3.595166 54.444191
16250000000 -11.971295 -171.00157 -42.77047 170.39441 -42.741257 170.14761 -3.5255203 54.34597
16260000000 -11.739235 -170.24176 -42.915104 148.64409 -42.913227 146.04289 -3.4767566 54.622372
16270000000 -11.527256 -173.84067 -42.972176 130.4731 -42.878429 130.8167 -3.4734492 55.028156
16280000000 -11.381119 -172.89523 -42.951271 108.14731 -42.919609 106.2076 -3.5354989 55.259151
16290000000 -11.041047 -175.2946 -42.948208 90.496674 -43.053467 89.18438 -3.6198776 54.877308
16300000000 -10.797016 -175.16296 -43.148689 68.118774 -43.042328 67.695175 -3.7052507 53.966476
16310000000 -10.563049 -177.82486 -42.693687 47.435921 -42.755764 44.797287 -3.7468021 52.809875
16320000000 -10.341288 -176.80057 -42.782303 23.72291 -42.752529 23.161663 -3.7435982 51.667782
16330000000 -10.105945 -179.66411 -43.492935 0.33132139 -43.406078 0.24106678 -3.7149558 50.76408
16340000000 -10.027753 -178.93312 -44.171265 -14.806752 -43.977859 -16.693077 -3.692919 50.05637
16350000000 -9.7881966 178.43933 -43.74334 -34.270161 -43.755512 -35.083771 -3.6635163 49.525848
16360000000 -9.7306366 178.43684 -43.510876 -53.881107 -43.240822 -56.044285 -3.6226339 49.176094
16370000000 -9.5512342 176.02007 -43.359718 -76.122612 -43.352787 -78.456673 -3.5630872 49.152393
16380000000 -9.4387865 176.14406 -43.44339 -98.592377 -43.611511 -99.9077 -3.5257466 49.496563
16390000000 -9.1574812 173.26016 -44.283642 -118.37677 -44.27314 -120.7758 -3.5275662 49.883396
16400000000 -9.1363821 172.9995 -44.198799 -135.94508 -44.179653 -138.22484 -3.5942483 49.943935
16410000000 -8.8402224 171.09238 -44.052921 -155.97934 -44.148563 -157.85886 -3.6826484 49.521065
16420000000 -8.730732 171.00182 -44.46043 -178.73521 -44.413521 -179.44562 -3.7518692 48.469242
16430000000 -8.4504509 169.13232 -44.119278 161.96248 -44.002724 160.52135 -3.7795253 47.194729
16440000000 -8.3602953 169.18388 -44.392914 139.41785 -44.395237 138.67618 -3.7777507 46.047527
16450000000 -8.1302986 167.25803 -44.013695 120.83106 -44.088425 119.24308 -3.766757 45.270977
16460000000 -8.1107159 167.11035 -44.669769 96.117004 -44.74712 95.200981 -3.7603185 44.672817
16470000000 -7.8763537 165.56227 -44.638058 80.566383 -44.768436 78.131157 -3.7357912 44.102913
16480000000 -7.8830452 164.73857 -44.498356 56.591644 -44.541664 56.360306 -3.6931694 43.519775
16490000000 -7.6958289 163.13652 -44.64822 38.591908 -44.48436 35.62603 -3.6415906 43.347855
16500000000 -7.6817245 162.89467 -44.998936 14.19081 -45.20715 12.304218 -3.581701 43.666191
16510000000 -7.3817968 161.05577 -45.304577 -3.9734454 -45.174625 -5.4604673 -3.5756099 44.343704
16520000000 -7.3642912 160.5267 -45.080566 -20.77104 -45.355549 -22.963352 -3.6316063 44.697979
16530000000 -7.0360279 158.83896 -45.149872 -43.555462 -44.887634 -43.689949 -3.7497025 44.315731
16540000000 -7.040051 158.51994 -44.993507 -64.001259 -45.033356 -66.161789 -3.8626902 43.207802
16550000000 -6.711844 157.0894 -45.400204 -88.192154 -45.191566 -89.141861 -3.9175043 41.760742
16560000000 -6.7314811 156.60547 -45.627422 -107.49604 -45.540077 -110.3536 -3.8888314 40.378315
16570000000 -6.4921751 155.26982 -45.717628 -128.82043 -45.822029 -129.09026 -3.8476279 39.336449
16580000000 -6.4978409 154.75746 -45.81889 -149.48926 -45.76572 -152.02882 -3.8302307 38.736
16590000000 -6.2699871 153.69601 -46.232025 -169.58958 -46.514111 -169.7141 -3.8279321 38.429657
16600000000 -6.2379131 152.81563 -46.379593 172.82666 -46.027527 170.03116 -3.799772 37.968201
16610000000 -6.003231 151.49231 -45.937664 152.912 -45.946663 151.25984 -3.7658043 37.648003
16620000000 -5.9732704 150.41718 -45.819851 128.63113 -45.627953 126.62576 -3.7187297 37.700607
16630000000 -5.6820769 149.34731 -45.67387 108.72529 -45.791977 106.75073 -3.691916 38.226162
16640000000 -5.6044283 148.03014 -46.507381 83.573082 -46.466511 82.108055 -3.7109632 38.671207
16650000000 -5.3363185 146.9252 -46.768837 67.298355 -46.766148 65.477272 -3.8020632 38.704376
16660000000 -5.3090129 145.78717 -46.870056 44.794144 -46.831581 43.780418 -3.9358101 37.962502
16670000000 -5.04073 145.07152 -46.915806 26.730545 -47.180313 25.062502 -4.0279927 36.613312
16680000000 -4.9961534 143.84045 -46.996479 2.3974826 -46.973949 3.0312424 -4.0270085 34.975693
16690000000 -4.7566733 143.2462 -47.748672 -13.850798 -47.600746 -16.620731 -3.9906831 33.526474
16700000000 -4.7041392 141.92628 -46.931637 -33.291382 -46.801659 -32.871384 -3.9419413 32.766117
16710000000 -4.4752393 141.12703 -46.917622 -59.364052 -46.793488 -60.736469 -3.9102495 32.494774
16720000000 -4.4039392 139.48625 -47.384514 -82.890106 -47.446575 -83.308464 -3.8990839 32.461418
16730000000 -4.1669092 138.43573 -47.831348 -100.68171 -47.853325 -102.39043 -3.8901398 32.400719
16740000000 -4.1031585 136.66849 -47.878963 -118.39175 -47.889343 -120.44041 -3.895813 32.289192
16750000000 -3.9015663 135.66995 -47.774982 -140.52103 -47.759651 -142.8875 -3.9132369 32.195915
16760000000 -3.8083384 134.03305 -48.081825 -163.7139 -48.192257 -164.15146 -3.9557064 32.141342
16770000000 -3.6162055 133.06004 -48.832802 177.58855 -48.67952 176.60403 -4.0189109 31.95269
16780000000 -3.5237713 131.55319 -48.785091 160.64017 -48.875626 159.17227 -4.08324 31.333807
16790000000 -3.3481407 130.76137 -48.331352 136.83711 -48.283585 135.14822 -4.1561222 30.178139
16800000000 -3.2465918 129.17046 -48.665226 118.88204 -48.664795 116.92924 -4.205636 28.755896
16810000000 -3.077055 128.05846 -48.121033 92.031998 -48.133858 92.317368 -4.2235951 27.231133
16820000000 -2.9919555 126.23781 -49.293606 68.544907 -49.477707 67.3685 -4.1948686 26.032413
16830000000 -2.8401091 124.98383 -49.696323 53.423485 -49.666805 52.315186 -4.1397667 25.1835
16840000000 -2.7570863 123.11618 -49.491146 33.461018 -49.429329 32.504982 -4.079658 24.823687
16850000000 -2.620327 121.81182 -49.788536 15.015963 -49.848579 12.096405 -4.0337458 24.848822
16860000000 -2.5260572 120.05724 -48.819111 -7.9705601 -48.847633 -9.5944786 -4.0284591 25.232737
16870000000 -2.3837605 118.85576 -49.924633 -32.462879 -49.978291 -34.103447 -4.0616107 25.658472
16880000000 -2.2859728 117.33533 -50.174812 -56.166916 -49.832466 -56.621246 -4.1441617 25.807953
16890000000 -2.1403649 116.18601 -51.18325 -72.489639 -51.045303 -74.125137 -4.2446365 25.465683
16900000000 -2.0403264 114.63632 -51.004025 -92.281548 -50.849674 -92.388443 -4.348702 24.536739
16910000000 -1.9331983 113.32563 -50.501648 -108.47527 -50.436554 -110.97667 -4.3959141 23.132368
16920000000 -1.8536909 111.77482 -50.555599 -135.65782 -50.843967 -136.08301 -4.4169683 21.54108
16930000000 -1.7598394 110.29012 -50.865555 -158.22588 -50.69017 -159.16016 -4.3972878 20.207619
16940000000 -1.6985178 108.56126 -51.548271 178.74971 -51.648697 175.96742 -4.361629 19.215122
16950000000 -1.6162263 107.03616 -52.191685 161.77655 -51.850513 158.13203 -4.3140879 18.56105
16960000000 -1.5360414 105.32988 -52.063511 139.86708 -51.915504 137.4044 -4.2901125 18.143381
16970000000 -1.4459829 103.81652 -52.313313 120.32629 -52.390751 117.30408 -4.2803493 17.946508
16980000000 -1.3536849 102.19508 -51.700169 96.477509 -51.94363 93.980675 -4.3067074 18.005341
16990000000 -1.2532626 100.6737 -54.150608 70.569771 -53.897888 70.48143 -4.340858 18.082033
17000000000 -1.1698265 99.118469 -53.745575 57.211044 -53.27792 55.696735 -4.4077592 17.939642
