!Keysight Technologies,P9374A,MY57211807,A.19.30.04
!Date: Friday, May 08, 2026 13:59:34
!Correction: S11(C  2-Port  ) 
!S21(C  2-Port  ) 
!S12(C  2-Port  ) 
!S22(C  2-Port  ) 
!S2P File: Measurements: S11, S21, S12, S22:
# Hz S  dB   R 50
13000000000 -18.524153 54.472355 -46.349415 -96.582596 -46.155228 -97.199593 -12.372768 6.3718386
13010000000 -18.591301 56.310097 -46.408596 -107.18567 -46.191971 -108.12493 -12.357513 6.0285382
13020000000 -19.701727 53.668194 -45.874023 -126.22355 -45.851501 -129.5397 -12.375345 5.1760602
13030000000 -19.89983 59.505913 -45.460228 -146.32329 -45.381882 -146.99068 -12.482569 4.9251156
13040000000 -20.770134 60.779606 -44.886581 -171.17467 -44.631439 -172.97752 -12.474604 5.4181461
13050000000 -20.087488 68.88472 -45.244137 159.76413 -45.338028 156.91614 -12.464291 5.6844339
13060000000 -20.115767 66.492012 -46.378258 148.93253 -46.211021 148.5403 -12.551821 5.2128305
13070000000 -19.449869 68.510818 -45.281467 131.42931 -45.45261 127.49503 -12.823516 4.8906789
13080000000 -19.117575 63.668259 -44.614311 103.29648 -44.599724 102.1014 -13.044131 4.9631867
13090000000 -18.954062 60.468239 -45.07626 83.827629 -45.2099 82.077942 -13.077433 4.3485088
13100000000 -19.308924 55.862385 -45.378017 56.295418 -45.686657 53.746281 -13.019036 3.2785506
13110000000 -19.822086 56.938557 -46.245571 41.468197 -46.603783 40.989525 -13.095147 2.1256127
13120000000 -20.218355 56.623405 -45.542053 23.417948 -45.644093 24.308212 -13.279147 2.3733428
13130000000 -20.356514 61.665592 -45.337822 2.9795916 -45.177944 1.1882672 -13.349224 2.8077354
13140000000 -20.120564 64.767288 -45.54343 -17.857281 -45.524158 -18.547228 -13.442204 2.6031146
13150000000 -19.683725 66.746498 -44.698425 -40.600346 -44.492676 -42.167389 -13.477236 1.5452883
13160000000 -19.134705 67.3554 -45.408001 -61.052406 -45.589497 -63.265865 -13.586929 0.98041511
13170000000 -18.669037 63.067619 -44.476349 -83.716904 -44.391071 -83.505554 -13.603183 1.1988134
13180000000 -18.565426 58.062469 -45.09874 -110.66177 -44.89344 -113.14085 -13.669639 1.6073552
13190000000 -19.060244 53.94891 -46.792137 -127.32024 -46.546635 -127.14516 -13.809275 2.1386371
13200000000 -19.278032 51.386757 -45.934792 -136.04265 -45.732529 -141.83804 -14.110375 2.0254006
13210000000 -20.056412 50.417648 -45.108486 -162.22522 -45.352802 -164.8429 -14.357597 1.7674419
13220000000 -20.201361 54.118465 -44.902782 178.29131 -44.918056 177.48782 -14.391573 0.87918431
13230000000 -20.384226 55.495655 -44.22353 151.74043 -44.166695 149.69852 -14.343754 -0.4775956
13240000000 -19.497044 60.153996 -46.084827 126.10307 -46.025677 122.55524 -14.378235 -1.0100663
13250000000 -19.227209 57.21825 -45.781403 116.43172 -45.878456 114.92902 -14.470613 0.30231559
13260000000 -18.432489 56.064049 -45.329166 94.787758 -45.37825 92.309067 -14.643064 2.0845854
13270000000 -18.649046 48.446281 -45.021343 76.054276 -45.19891 73.784348 -14.835461 3.1658087
13280000000 -18.699978 46.919315 -44.537544 49.548851 -44.666332 47.760536 -15.061128 2.4781015
13290000000 -19.492844 39.970493 -45.827721 26.644175 -45.86055 26.138556 -15.407275 1.1902992
13300000000 -19.982285 41.972248 -44.68219 17.512907 -44.949497 15.880226 -15.580421 0.8179599
13310000000 -21.105415 39.401306 -44.302071 -15.935923 -44.296261 -16.765852 -15.584943 1.4024872
13320000000 -20.642216 47.928539 -45.414761 -29.93536 -45.495945 -30.059582 -15.583308 1.9964874
13330000000 -20.599678 44.517597 -44.687935 -51.14658 -44.338444 -51.462715 -15.796629 2.3547328
13340000000 -19.549038 50.541588 -44.961231 -76.329529 -45.1894 -79.103371 -16.159328 3.0231707
13350000000 -19.291157 40.880863 -45.399117 -91.966225 -45.270042 -92.169411 -16.424816 3.008436
13360000000 -18.876001 41.27076 -44.535404 -115.53699 -44.675179 -117.55694 -16.48538 1.4159356
13370000000 -19.429764 29.593161 -45.424793 -131.38855 -45.201923 -131.94997 -16.466408 0.12790555
13380000000 -19.821594 31.729534 -43.933563 -148.92056 -43.939266 -150.70055 -16.367134 0.7723664
13390000000 -21.014521 23.155577 -44.151485 -177.09187 -44.384148 -178.6669 -16.281872 3.3688836
13400000000 -21.774277 32.730495 -43.690029 165.02087 -43.798412 164.29462 -16.251982 6.2441754
13410000000 -22.45182 28.242271 -43.328892 132.63715 -43.631245 131.68306 -16.503157 7.951633
13420000000 -21.782215 43.579037 -45.812675 113.80157 -45.629692 114.94917 -17.053387 9.2620459
13430000000 -21.209307 32.155746 -45.100204 108.13682 -44.918575 105.13519 -17.470739 9.8718309
13440000000 -20.536726 35.685242 -43.789433 82.727829 -43.878128 80.929413 -17.637949 9.8800869
13450000000 -20.396986 23.449268 -43.823029 62.024998 -43.8647 61.672974 -17.482294 9.0881186
13460000000 -20.599138 23.643131 -43.232643 38.245941 -43.215778 37.25066 -17.378614 8.8874874
13470000000 -21.278957 9.4514809 -43.843666 16.417032 -43.802231 14.236279 -17.382751 10.826857
13480000000 -22.540764 17.450075 -42.977959 -0.37559527 -43.040276 -2.7532859 -17.409302 13.634753
13490000000 -23.992828 6.7658529 -43.051819 -31.127378 -43.025631 -33.379223 -17.392616 16.171835
13500000000 -24.543633 28.036098 -43.295719 -52.779476 -43.565029 -54.627239 -17.474428 17.3629
13510000000 -24.335791 24.530119 -44.148972 -73.540733 -44.211624 -73.737679 -17.638163 18.851057
13520000000 -23.262859 33.0373 -44.036991 -90.511436 -44.234364 -93.185326 -17.673986 21.593914
13530000000 -22.852383 21.752424 -44.027534 -105.45467 -44.183643 -106.13443 -17.553043 23.678288
13540000000 -22.242006 21.873821 -42.400337 -127.94061 -42.692375 -129.55116 -17.586367 24.80468
13550000000 -22.526766 5.0696659 -42.569778 -158.00574 -42.983265 -157.61192 -17.783901 26.506731
13560000000 -23.48525 7.2248778 -43.56028 -175.62947 -43.585564 -174.34308 -17.947773 28.392548
13570000000 -25.024332 -5.0452585 -42.09206 164.92323 -42.011883 164.05547 -17.871132 29.968828
13580000000 -26.98785 7.3718224 -42.696117 137.61404 -42.875935 137.35063 -17.601624 30.407248
13590000000 -28.045965 10.796137 -42.944435 118.02277 -42.78828 117.31612 -17.373196 30.663591
13600000000 -26.885178 32.198109 -42.916496 94.088615 -43.013187 93.59391 -17.218958 31.781639
13610000000 -25.670477 26.670128 -43.502819 77.751083 -43.443378 79.166351 -16.981188 34.716244
13620000000 -24.872601 29.332497 -42.055248 57.776558 -41.7006 56.072598 -16.593925 37.101883
13630000000 -24.405092 16.122622 -42.584904 29.192892 -42.672493 27.153645 -16.403458 38.531124
13640000000 -25.23926 10.512137 -43.033398 13.035579 -42.909142 12.063376 -16.368326 40.179516
13650000000 -25.750828 -1.0078056 -42.036995 -10.056803 -42.072712 -10.876941 -16.308046 42.115604
13660000000 -28.232603 -0.017985772 -42.793026 -31.930151 -42.674686 -32.527294 -16.082388 43.06432
13670000000 -29.497923 -1.0722277 -41.533123 -48.825687 -41.330639 -51.130985 -15.786597 42.761578
13680000000 -31.663916 25.77669 -41.57196 -82.536087 -41.750435 -84.568008 -15.575947 42.306103
13690000000 -28.406532 29.404556 -43.226257 -97.798004 -43.327328 -98.92038 -15.300966 42.879856
13700000000 -27.574066 36.483021 -41.824558 -115.19817 -42.000999 -116.12833 -14.930614 44.08712
13710000000 -25.247316 28.711243 -41.880051 -139.38914 -41.872246 -139.54405 -14.509418 44.839344
13720000000 -25.776995 22.240696 -41.117092 -160.85684 -41.060764 -161.8887 -14.221918 44.563473
13730000000 -25.115423 11.829711 -41.297722 170.34297 -41.169956 169.39243 -14.024111 44.58102
13740000000 -27.10754 3.8390462 -41.993294 151.52917 -42.203495 149.95926 -13.74241 45.120872
13750000000 -28.551254 1.0216688 -40.922985 131.93234 -41.020725 132.24031 -13.296628 45.185108
13760000000 -31.340315 6.1965199 -41.516747 103.91379 -41.488018 103.05405 -12.919306 45.075027
13770000000 -30.751925 21.281954 -41.694473 85.733559 -41.647564 85.007057 -12.680498 44.998795
13780000000 -30.695883 30.826635 -41.183903 63.737091 -41.187397 63.397842 -12.576999 45.392147
13790000000 -27.224079 29.75576 -41.455086 40.3321 -41.519722 39.696915 -12.367509 45.645443
13800000000 -27.287842 20.753181 -40.533047 23.489964 -40.48819 23.754333 -12.11105 44.338287
13810000000 -25.072565 16.159103 -40.187328 -6.5957632 -40.030331 -7.6794991 -11.833553 42.327122
13820000000 -25.730806 -2.9605284 -41.065002 -29.182167 -41.11974 -29.168938 -11.557199 40.984299
13830000000 -26.376663 -0.39333332 -40.574627 -48.325836 -40.512257 -48.785496 -11.198795 40.328785
13840000000 -27.463985 -17.4079 -40.5364 -74.012466 -40.602028 -74.247269 -10.839986 39.460136
13850000000 -29.159815 -5.9683628 -40.324863 -93.800568 -40.207436 -93.02964 -10.589674 38.41378
13860000000 -30.424595 -11.447262 -39.958 -121.07754 -39.648834 -122.27271 -10.447419 37.562973
13870000000 -29.713682 9.5912924 -41.060024 -141.15346 -41.063789 -142.72998 -10.196509 36.712975
13880000000 -29.662977 1.6410216 -40.0658 -159.13831 -40.019169 -160.94341 -9.89505 35.261227
13890000000 -27.230949 9.9809093 -39.426838 174.99382 -39.48061 173.68398 -9.6352863 33.422401
13900000000 -26.713253 -11.076065 -39.599941 148.9147 -39.489765 148.69965 -9.4678507 31.751064
13910000000 -26.349592 -9.8735523 -39.031235 125.39303 -38.902573 123.50594 -9.3738537 30.627457
13920000000 -26.334337 -29.493731 -39.612488 98.421944 -39.603371 96.201462 -9.2142477 29.368021
13930000000 -27.841965 -32.019859 -39.450691 79.878098 -39.549831 78.274239 -9.0078211 27.284561
13940000000 -28.483942 -45.138947 -39.180538 52.701107 -39.33149 51.771843 -8.8063087 24.807856
13950000000 -30.697821 -40.207443 -39.699806 29.338177 -39.645844 28.98732 -8.6522055 22.471947
13960000000 -31.509403 -51.985958 -39.591755 7.7114811 -39.586452 6.7569647 -8.4703569 20.84798
13970000000 -32.251949 -26.916615 -39.708858 -15.698873 -39.696625 -17.365229 -8.275528 19.429392
13980000000 -30.585999 -44.485008 -39.374542 -35.129219 -39.522285 -36.203068 -8.1167316 17.643087
13990000000 -29.735569 -38.026791 -38.855656 -62.181599 -38.753571 -61.700352 -8.0830889 15.64358
14000000000 -27.520315 -55.171944 -39.033413 -89.137543 -39.073666 -90.067566 -8.0889454 13.968537
14010000000 -27.797869 -61.502625 -39.514065 -110.19697 -39.325703 -110.58593 -8.0222931 12.030581
14020000000 -26.543848 -73.358871 -39.113464 -132.41618 -39.065865 -133.96468 -7.9302692 9.4195127
14030000000 -28.174412 -80.591431 -39.027027 -158.20177 -39.113983 -159.22739 -7.9402175 6.6914463
14040000000 -27.580212 -88.546822 -39.267567 179.55847 -39.121128 179.04973 -8.0234613 4.544435
14050000000 -30.335497 -92.623596 -39.387592 154.29134 -39.252197 153.02457 -7.9980373 2.8271434
14060000000 -30.679142 -90.180595 -39.508106 135.8931 -39.365395 133.37944 -7.957901 0.38932618
14070000000 -32.616154 -83.371773 -38.887421 113.05486 -39.001026 110.99258 -7.9950109 -2.6189497
14080000000 -29.926018 -90.09272 -38.752983 83.557594 -38.770687 82.879974 -8.100028 -5.3117085
14090000000 -31.494352 -90.754143 -39.242683 62.216072 -39.190502 61.108189 -8.1532431 -7.3287616
14100000000 -28.305834 -98.460098 -39.227951 38.495274 -39.00975 36.974625 -8.1374989 -9.4991398
14110000000 -28.544565 -113.54581 -39.442223 16.580378 -39.457943 15.323444 -8.1508646 -11.786063
14120000000 -27.425598 -120.32795 -39.032349 -3.7711461 -39.101231 -5.6578083 -8.2900295 -14.160985
14130000000 -27.558792 -135.14737 -38.594906 -30.72649 -38.69733 -31.742905 -8.4800358 -15.887604
14140000000 -27.708899 -136.03787 -39.546471 -55.356445 -39.463581 -55.914047 -8.5989037 -17.960815
14150000000 -29.006456 -147.69243 -39.443111 -73.439301 -39.282093 -75.106262 -8.7324524 -20.720394
14160000000 -29.070778 -137.20476 -38.964905 -97.399193 -38.965317 -99.730988 -8.8925877 -23.646009
14170000000 -29.477707 -144.64563 -38.852165 -121.53923 -38.918194 -122.88785 -9.1114149 -25.834791
14180000000 -29.851707 -133.65652 -38.654034 -144.58409 -38.790863 -145.47221 -9.2766314 -27.219833
14190000000 -28.157785 -143.21118 -39.340107 -170.97015 -39.256351 -171.91519 -9.4208107 -28.891376
14200000000 -27.666111 -140.3961 -39.042828 172.88184 -39.101181 171.09868 -9.6536388 -31.356558
14210000000 -26.238029 -157.09363 -38.851631 143.76448 -38.788525 142.16165 -10.012355 -33.895115
14220000000 -27.076202 -155.55447 -39.356567 122.80739 -39.506817 121.73295 -10.347549 -36.094112
14230000000 -25.662106 -168.58641 -39.23246 104.02856 -39.151882 103.08901 -10.575706 -38.270966
14240000000 -27.684755 -173.18567 -39.127842 79.292587 -39.107224 78.402191 -10.771258 -40.72657
14250000000 -26.68482 -173.95113 -38.965233 59.768097 -38.864628 58.375538 -11.081119 -43.281105
14260000000 -29.279915 -173.2494 -38.327679 34.122459 -38.349689 32.119274 -11.466106 -45.25399
14270000000 -27.739788 -168.06842 -38.819794 7.5515127 -38.893879 6.2046466 -11.819091 -47.194302
14280000000 -29.100945 -164.56235 -39.230354 -10.286626 -39.17683 -11.57034 -12.158213 -49.741989
14290000000 -26.37344 -164.24896 -38.90316 -34.79731 -38.83242 -35.611118 -12.479178 -52.368118
14300000000 -27.493057 -172.69635 -39.546391 -55.186367 -39.440399 -56.826519 -12.821054 -54.543133
14310000000 -25.411798 -174.96361 -38.909401 -74.48452 -38.904396 -76.426849 -13.145165 -55.966061
14320000000 -26.926502 173.23091 -39.108902 -100.88134 -39.182953 -101.74118 -13.532557 -57.537228
14330000000 -25.6901 171.27264 -38.966228 -116.88881 -38.848804 -118.42668 -14.069804 -59.129295
14340000000 -27.93115 160.11137 -38.387421 -142.51167 -38.220478 -144.08554 -14.743471 -61.039967
14350000000 -27.849745 171.92996 -38.710381 -165.55531 -38.710079 -167.37119 -15.416849 -63.261574
14360000000 -29.778711 167.6546 -38.417465 174.47754 -38.417419 172.02129 -16.03352 -66.490166
14370000000 -28.005909 -174.35315 -38.44556 146.15259 -38.537518 144.68144 -16.581501 -70.067062
14380000000 -28.562374 178.74997 -39.027512 127.2863 -39.06633 126.33033 -17.080576 -73.636185
14390000000 -26.090956 -175.06584 -38.783775 106.9173 -38.767567 105.65976 -17.611984 -76.466248
14400000000 -26.839014 170.00317 -38.909992 85.154152 -38.919277 83.259781 -18.233347 -78.075607
14410000000 -26.253613 173.5731 -38.622253 66.511604 -38.69249 64.937592 -18.996077 -79.814056
14420000000 -26.941061 157.70116 -38.107552 41.588703 -38.162521 40.145679 -19.891182 -82.147583
14430000000 -27.428349 163.25679 -38.359356 18.513767 -38.426487 18.175711 -21.045357 -85.236404
14440000000 -29.31201 153.8611 -38.311283 -2.7544858 -38.223156 -3.8855605 -22.287233 -88.721275
14450000000 -28.428625 177.84116 -38.430073 -25.455322 -38.335773 -26.793293 -23.481768 -92.479584
14460000000 -28.92416 172.93257 -38.523308 -45.455437 -38.610085 -46.377922 -24.711981 -97.468361
14470000000 -26.85668 -173.83589 -38.319214 -66.708878 -38.155396 -67.959709 -26.307568 -105.80682
14480000000 -26.66058 177.12576 -38.202881 -89.800903 -38.259964 -91.320915 -28.345528 -118.19886
14490000000 -25.469608 -179.4772 -38.281811 -111.16936 -38.198887 -111.725 -29.976009 -136.89435
14500000000 -26.043575 169.45743 -38.198681 -133.47118 -38.128342 -135.17897 -30.633057 -156.44556
14510000000 -25.717407 171.745 -38.328247 -154.02339 -38.256584 -155.89328 -30.281971 -168.96765
14520000000 -27.609371 163.68736 -38.252987 -175.09338 -38.178764 -176.6792 -29.916859 178.48613
14530000000 -27.036488 174.54294 -37.987839 163.00154 -38.002586 161.5484 -30.138706 162.59229
14540000000 -27.898869 173.05792 -38.338509 142.15633 -38.149765 140.66202 -29.716551 141.75391
14550000000 -26.154907 -175.0938 -37.883537 120.98441 -37.832638 118.96529 -28.106142 124.77156
14560000000 -25.898697 177.77673 -38.011814 98.427818 -38.124531 96.319366 -25.889126 116.21432
14570000000 -24.377811 -177.49701 -38.052982 77.155426 -38.116909 75.724892 -24.163582 111.16866
14580000000 -23.934345 173.26823 -37.789654 56.903664 -37.813126 55.698189 -23.007061 108.95314
14590000000 -23.604994 171.94267 -38.049725 33.864555 -38.015781 32.729919 -22.081886 107.34496
14600000000 -24.06778 168.22903 -37.996254 13.900681 -38.00597 11.927425 -21.154467 105.05657
14610000000 -24.089935 170.29433 -37.557159 -8.0974531 -37.614243 -9.8337851 -20.310301 101.49879
14620000000 -24.475151 167.1524 -38.240334 -31.096663 -38.314739 -31.810961 -19.669758 98.786041
14630000000 -24.25864 175.05109 -37.928307 -48.705662 -37.777287 -49.72213 -19.20846 96.636353
14640000000 -23.822868 172.10533 -37.92363 -71.936218 -37.889091 -73.522675 -18.859131 95.587677
14650000000 -23.208525 176.6635 -38.037769 -90.24601 -37.928757 -92.213814 -18.401814 93.567551
14660000000 -22.204227 169.34512 -37.367004 -113.22562 -37.423336 -115.52376 -17.897327 90.222878
14670000000 -22.284088 170.74142 -37.922123 -135.8651 -37.935806 -136.86462 -17.334808 86.450333
14680000000 -21.163408 162.45554 -37.651001 -152.23331 -37.544674 -153.68646 -16.789907 83.074432
14690000000 -22.115139 161.79691 -37.43705 -175.95732 -37.463215 -177.79146 -16.313585 81.286972
14700000000 -21.48097 158.39854 -37.721458 164.08746 -37.702114 162.35548 -15.799829 80.912666
14710000000 -22.214283 160.21463 -37.308403 143.62271 -37.436573 141.95932 -15.325645 80.536346
14720000000 -21.843159 157.79619 -37.626068 119.77875 -37.630547 119.41423 -14.939792 79.90921
14730000000 -22.243189 162.01649 -37.246445 102.8448 -37.058163 102.15482 -14.678257 78.654747
14740000000 -21.157818 158.3345 -37.292233 79.529808 -37.167141 77.084816 -14.571294 77.042786
14750000000 -21.452993 158.7381 -37.392208 61.627525 -37.468937 59.236462 -14.506894 75.529442
14760000000 -20.181042 154.74561 -36.777218 39.904163 -36.849499 39.282291 -14.377915 73.55471
14770000000 -20.686668 150.14578 -36.88876 16.349777 -36.816006 15.704183 -14.148946 71.316795
14780000000 -20.169989 146.59482 -36.917244 -1.5630937 -36.712505 -3.310226 -13.809192 69.313446
14790000000 -20.860121 143.96033 -36.31691 -23.58209 -36.295296 -26.065765 -13.425926 67.349716
14800000000 -20.098866 144.39319 -36.725262 -45.914078 -36.839752 -47.428799 -13.147328 65.803917
14810000000 -21.021376 140.70879 -36.37439 -63.67218 -36.390102 -65.101059 -12.947518 64.583549
14820000000 -20.603655 143.89679 -36.139786 -87.777618 -36.09 -89.059593 -12.783712 63.763908
14830000000 -21.021517 144.04236 -36.356514 -106.22215 -36.300972 -107.90525 -12.595559 62.649185
14840000000 -20.052212 142.90901 -35.821918 -127.5525 -35.784328 -129.66634 -12.4518 61.384052
14850000000 -20.83811 138.66304 -35.848412 -149.84059 -35.994728 -151.4173 -12.318076 60.288033
14860000000 -19.781708 138.95598 -35.56216 -169.265 -35.541454 -169.79045 -12.250741 59.12365
14870000000 -20.684969 130.6687 -35.363857 166.12265 -35.236187 164.47253 -12.264812 58.019119
14880000000 -20.237711 130.6306 -35.71402 146.43167 -35.673046 145.29544 -12.313698 56.095776
14890000000 -20.955063 124.99683 -35.091991 125.9659 -35.115063 124.20053 -12.26711 53.843323
14900000000 -20.5907 125.32063 -35.157433 103.54971 -35.203735 102.53753 -12.062249 51.246197
14910000000 -21.554623 123.35699 -35.128994 83.568954 -35.046162 83.253326 -11.814607 48.882656
14920000000 -20.811935 127.1962 -34.735722 61.695248 -34.55447 60.25457 -11.629656 47.863632
14930000000 -21.356163 124.34707 -34.996258 40.857655 -34.947178 39.175522 -11.498805 47.773502
14940000000 -20.54623 125.25802 -34.505875 21.563215 -34.456726 19.709837 -11.473662 47.541824
14950000000 -21.039824 122.73817 -34.360638 -3.2339318 -34.379871 -4.0891876 -11.535355 46.600399
14960000000 -20.668427 120.83136 -34.418221 -23.528828 -34.320309 -24.962553 -11.617638 44.864922
14970000000 -21.511772 116.77053 -34.055187 -43.711433 -34.019497 -45.949783 -11.715034 42.962933
14980000000 -21.812147 115.64326 -34.029667 -67.595985 -34.082485 -68.906342 -11.772106 41.406147
14990000000 -22.478983 112.73368 -34.050652 -86.752815 -34.009148 -88.352867 -11.878884 40.054226
15000000000 -23.084078 114.35097 -33.74205 -109.08601 -33.760559 -110.82449 -12.006259 38.835724
15010000000 -23.475166 116.13244 -33.635494 -130.94722 -33.676956 -131.9893 -12.115828 36.941959
15020000000 -23.074936 118.51417 -33.313118 -152.02567 -33.268406 -153.49216 -12.175518 34.356422
15030000000 -22.940685 115.19345 -33.104553 -174.61508 -33.122986 -176.10844 -12.143159 32.230228
15040000000 -22.899143 117.10088 -33.270832 163.88545 -33.240685 162.66519 -12.045214 31.289627
15050000000 -22.637909 112.76079 -32.967686 141.93864 -32.975513 140.44328 -12.002724 31.040991
15060000000 -23.099689 113.76822 -33.121964 119.33279 -33.090866 117.83138 -12.165085 31.439167
15070000000 -23.487717 108.51761 -33.006554 98.460907 -33.029392 96.776787 -12.47409 31.430445
15080000000 -24.90498 115.01147 -32.739876 76.864372 -32.764187 75.487106 -12.90185 30.620087
15090000000 -24.493593 114.1039 -32.861919 54.551785 -32.872543 53.713963 -13.287293 29.360743
15100000000 -25.872269 124.58135 -32.627384 33.176022 -32.592133 31.952789 -13.539985 27.452009
15110000000 -24.439394 123.25045 -32.619236 10.026971 -32.603123 8.6446009 -13.764112 25.811613
15120000000 -25.314169 127.40623 -32.543728 -11.645739 -32.52179 -12.685368 -14.015807 24.836227
15130000000 -23.849531 123.68899 -32.393726 -32.860226 -32.300766 -34.13958 -14.313174 24.427355
15140000000 -24.346598 124.34077 -32.359299 -55.846153 -32.275661 -57.060379 -14.580147 24.190701
15150000000 -23.298504 117.80927 -32.508541 -76.984024 -32.378719 -78.751167 -14.823212 24.429131
15160000000 -25.191628 118.98901 -32.339661 -99.746635 -32.290272 -101.31753 -14.974488 25.213762
15170000000 -24.272732 119.36577 -32.468224 -121.27625 -32.426189 -123.10192 -15.197415 26.494741
15180000000 -25.37141 124.26139 -32.261684 -142.68564 -32.262241 -144.78268 -15.51355 28.888655
15190000000 -24.334146 126.40067 -32.299202 -164.87871 -32.286247 -166.308 -15.973563 31.196127
15200000000 -24.823704 133.53235 -32.348152 172.4673 -32.297325 170.78874 -16.51565 33.503975
15210000000 -22.941368 129.89288 -32.328079 150.90561 -32.361206 149.10632 -17.042797 35.332607
15220000000 -23.948675 131.55751 -32.313324 127.62732 -32.362469 126.35946 -17.468945 36.864117
15230000000 -22.095778 127.25203 -32.467758 105.90245 -32.521984 104.34993 -17.724375 38.490047
15240000000 -23.229155 121.85757 -32.432983 83.813446 -32.525276 82.752312 -17.882694 40.425743
15250000000 -22.786692 119.31757 -32.696972 62.408894 -32.730724 61.026031 -17.921715 42.944611
15260000000 -24.051958 118.89008 -32.507923 41.549686 -32.549873 40.586185 -17.76862 45.795345
15270000000 -23.293112 120.35539 -32.645935 18.191351 -32.644341 17.290251 -17.541775 48.685768
15280000000 -24.228191 119.87148 -32.859585 -2.2520194 -32.844738 -3.0636842 -17.231176 52.302002
15290000000 -23.154099 123.46214 -32.70163 -24.665085 -32.729443 -25.706808 -16.925175 56.543144
15300000000 -23.169718 122.25478 -32.984543 -47.101299 -32.951935 -47.743073 -16.669781 61.012264
15310000000 -22.320719 121.84531 -33.162136 -68.415443 -33.103161 -69.342911 -16.44832 64.883781
15320000000 -22.261892 116.92164 -33.338329 -88.894867 -33.229481 -90.442741 -16.306076 67.579544
15330000000 -21.996393 114.25788 -33.335552 -110.87908 -33.271603 -112.09344 -16.194208 68.845947
15340000000 -22.617079 106.86465 -33.372681 -132.20494 -33.280102 -133.3828 -16.001955 69.378044
15350000000 -23.110573 110.15371 -33.290989 -155.06551 -33.317272 -156.65303 -15.659973 69.844368
15360000000 -23.313822 102.73441 -33.719635 -175.93155 -33.568718 -176.9352 -15.321774 70.400436
15370000000 -24.471857 107.96514 -33.697498 163.51677 -33.637329 161.26215 -14.984566 71.244804
15380000000 -24.20854 107.12503 -33.967796 141.66307 -33.968636 140.36589 -14.654687 71.560356
15390000000 -24.037579 111.75507 -34.063934 120.97814 -34.01334 119.54242 -14.302599 71.534233
15400000000 -23.758205 103.23152 -33.994469 99.882492 -33.986809 98.105896 -13.858895 71.096519
15410000000 -23.479414 106.25817 -34.274471 78.989983 -34.263187 77.289032 -13.416635 71.137001
15420000000 -23.75091 94.956039 -34.023998 57.969994 -34.077923 56.039577 -13.019837 72.053368
15430000000 -24.026016 97.562714 -34.5639 35.459923 -34.656494 34.366455 -12.719167 73.30571
15440000000 -24.706596 85.652153 -34.684414 16.191528 -34.652424 15.21022 -12.578655 74.227814
15450000000 -25.898428 92.654259 -34.539982 -5.4718809 -34.473164 -6.7917137 -12.537144 74.259087
15460000000 -26.687202 82.436546 -34.715191 -27.37957 -34.69566 -28.525875 -12.477047 73.243065
15470000000 -27.770927 99.683754 -34.753098 -47.057941 -34.703293 -48.692898 -12.32084 71.605965
15480000000 -27.477293 89.068222 -34.900555 -69.699974 -34.96191 -70.863182 -12.056876 70.079613
15490000000 -27.63966 97.825935 -35.230469 -89.672287 -35.133034 -90.082458 -11.74897 69.17627
15500000000 -27.562984 83.763962 -35.068951 -110.69028 -34.992458 -111.78291 -11.455997 68.709877
15510000000 -28.070169 93.843506 -35.227951 -131.31354 -35.226669 -133.10797 -11.191175 68.617172
15520000000 -28.047543 71.908905 -35.285439 -151.59491 -35.25946 -152.84145 -10.948108 68.235786
15530000000 -30.425394 80.870255 -35.400444 -173.43449 -35.424046 -174.76372 -10.749526 67.972885
15540000000 -30.806757 60.230843 -35.834908 167.25356 -35.771469 165.87415 -10.552009 67.858849
15550000000 -34.688419 82.685638 -35.451481 147.06506 -35.401932 145.63669 -10.416656 67.72905
15560000000 -35.646519 64.75827 -35.777172 125.44579 -35.638676 123.30167 -10.32867 67.666779
15570000000 -37.671242 121.61565 -35.607132 104.24923 -35.599564 102.41558 -10.266102 67.334816
15580000000 -37.901554 74.787437 -35.816582 82.840233 -35.848789 80.977028 -10.247217 66.516846
15590000000 -39.188969 134.48563 -35.974915 61.283714 -35.986462 60.202789 -10.210462 65.509674
15600000000 -39.920628 85.319481 -36.254414 43.057396 -36.162991 41.635693 -10.112766 64.186974
15610000000 -41.582783 150.8054 -36.285915 22.480782 -36.260902 20.182539 -9.9562569 62.727455
15620000000 -44.909679 40.893456 -35.967216 4.0779696 -36.001366 2.4841006 -9.7616243 61.353924
15630000000 -39.334919 -126.65752 -35.877468 -19.711941 -35.902935 -21.228518 -9.5817785 60.475349
15640000000 -44.124733 -96.843529 -35.971947 -41.35067 -35.997948 -42.224022 -9.3806343 60.299904
15650000000 -33.035782 -131.36841 -36.287491 -62.686855 -36.185234 -63.705536 -9.1919088 60.285381
15660000000 -36.840591 -136.53325 -36.364944 -82.671532 -36.3176 -84.28241 -9.1025171 60.23225
15670000000 -30.577587 -139.11008 -36.678783 -103.19987 -36.737057 -104.60141 -9.1013222 60.046112
15680000000 -32.531776 -149.09129 -36.667084 -122.47563 -36.626442 -124.18063 -9.1234589 59.55751
15690000000 -29.603798 -146.59378 -36.664146 -143.04858 -36.608574 -145.26117 -9.1001034 58.666428
15700000000 -31.498465 -152.784 -36.545624 -163.62448 -36.563343 -165.3051 -9.0479832 57.417465
15710000000 -29.175968 -140.82629 -36.55508 176.60262 -36.611385 175.14957 -8.9838247 56.282932
15720000000 -29.279903 -146.08615 -36.445206 153.54935 -36.43819 152.23788 -8.9246855 55.261002
15730000000 -27.232836 -137.18385 -36.648136 132.85167 -36.606552 131.37462 -8.8782349 54.302582
15740000000 -27.358398 -144.09457 -36.676136 111.29108 -36.722336 109.63139 -8.8024712 53.220081
15750000000 -25.576958 -139.19412 -36.950813 91.177834 -37.051403 89.671608 -8.6827545 52.057903
15760000000 -25.454399 -150.50159 -37.189667 73.428619 -37.221317 72.149559 -8.50383 51.306534
15770000000 -24.803205 -148.14034 -36.72802 53.233475 -36.696083 52.176117 -8.2957792 51.045395
15780000000 -25.118187 -156.41068 -36.947311 31.624172 -36.90604 30.521059 -8.1766415 51.219997
15790000000 -24.707645 -150.97968 -36.5439 11.385506 -36.459827 10.14584 -8.1567783 51.467148
15800000000 -24.754299 -157.424 -36.747143 -12.553581 -36.709473 -13.759235 -8.2664013 51.35125
15810000000 -24.263065 -148.49304 -36.845455 -32.894054 -36.759865 -33.993351 -8.3676462 50.618122
15820000000 -23.673834 -152.8855 -37.145252 -54.138416 -36.990891 -55.403423 -8.4428959 49.115276
15830000000 -23.077732 -148.21521 -37.445641 -75.22876 -37.359776 -76.975983 -8.4255772 47.295452
15840000000 -22.428221 -152.06728 -37.32843 -91.804085 -37.315384 -93.933182 -8.3574057 45.600189
15850000000 -21.977514 -152.13905 -37.072147 -114.44227 -37.013607 -116.31168 -8.258997 44.129108
15860000000 -21.946838 -157.01152 -37.072002 -132.0999 -37.091137 -133.66434 -8.171874 43.103271
15870000000 -22.050913 -155.82201 -36.993378 -155.12769 -36.870918 -156.90717 -8.0605488 42.392067
15880000000 -22.043995 -158.00784 -37.009464 -176.67822 -36.938755 -179.0117 -7.9376798 41.80793
15890000000 -22.091177 -155.27274 -37.105263 163.67957 -37.087669 161.51323 -7.8571634 41.511787
15900000000 -21.984375 -157.50632 -36.747311 142.31989 -36.794495 140.0705 -7.7725897 41.560871
15910000000 -21.669401 -152.65619 -37.21246 121.37115 -37.30698 119.70808 -7.7210212 41.303379
15920000000 -20.875864 -155.08128 -37.03022 102.16267 -37.01228 100.57626 -7.7678385 40.767799
15930000000 -20.45373 -153.39706 -37.359989 79.433907 -37.348892 77.42569 -7.8457637 40.006721
15940000000 -19.92358 -157.37144 -37.164577 60.542202 -37.301949 59.153988 -7.9539924 38.774887
15950000000 -19.819597 -156.68774 -36.891617 38.498676 -36.991489 37.375351 -8.0306444 37.262676
15960000000 -19.686222 -160.17305 -36.84623 19.328156 -36.782661 18.160805 -8.0633411 35.416325
15970000000 -19.760059 -157.36307 -36.684029 -3.8390317 -36.663338 -5.3531485 -8.0500088 33.585587
15980000000 -19.649563 -159.00899 -36.982227 -25.778612 -36.958603 -26.898582 -7.952651 32.021488
15990000000 -19.671047 -153.64827 -37.233849 -47.167961 -37.22567 -47.952995 -7.8122578 30.75206
16000000000 -19.209295 -153.91248 -37.001862 -65.341156 -36.89711 -66.896286 -7.7066369 30.152821
16010000000 -18.657785 -151.50647 -37.298054 -85.189423 -37.083084 -86.400925 -7.637991 30.073914
16020000000 -18.122227 -155.97049 -36.879238 -104.69043 -36.77541 -106.32518 -7.6683836 30.018425
16030000000 -17.936415 -154.09177 -36.698647 -127.12739 -36.636379 -128.94148 -7.7883253 29.642448
16040000000 -17.369871 -158.29932 -36.616367 -148.71892 -36.651611 -150.6843 -7.9204659 28.71526
16050000000 -17.492929 -158.48654 -36.681286 -170.51935 -36.526619 -172.07603 -8.0224962 27.071177
16060000000 -17.178204 -159.87524 -36.74128 167.70128 -36.721302 165.37987 -8.1126823 25.151659
16070000000 -17.292267 -157.4646 -36.582806 147.67833 -36.609478 145.88565 -8.1747808 23.368139
16080000000 -16.684814 -157.28564 -36.487614 125.6692 -36.475815 123.27216 -8.2468224 21.78952
16090000000 -16.521812 -154.99237 -36.49773 103.76241 -36.613247 102.43971 -8.2917414 19.977074
16100000000 -15.782217 -156.11237 -36.528923 83.23481 -36.467602 81.523598 -8.3098164 17.9729
16110000000 -15.697934 -157.07791 -36.541752 62.606869 -36.581253 60.727123 -8.2936926 16.268307
16120000000 -15.071279 -158.5271 -36.332371 41.263233 -36.419094 39.643353 -8.2327423 15.362279
16130000000 -15.022951 -160.21033 -36.006931 20.090189 -35.971542 18.631584 -8.1668491 15.319593
16140000000 -14.669719 -161.60674 -36.145515 -3.6424899 -36.194199 -5.2215405 -8.1923962 15.561773
16150000000 -14.830416 -162.69673 -36.135422 -23.848011 -36.103867 -25.266932 -8.3820105 15.21197
16160000000 -14.338501 -162.36806 -36.172642 -47.454243 -36.215893 -48.73201 -8.6839495 13.998767
16170000000 -14.222123 -162.85176 -36.517948 -67.257095 -36.488304 -68.169182 -9.0089455 12.033596
16180000000 -13.576872 -162.22997 -36.334232 -86.958366 -36.297031 -88.933632 -9.2210732 9.5332232
16190000000 -13.419619 -163.95432 -36.024937 -109.22501 -36.045506 -111.26193 -9.3144541 6.7920399
16200000000 -12.927726 -163.60884 -35.810524 -131.2825 -35.805237 -132.68315 -9.3961468 4.2900715
16210000000 -12.747252 -166.53078 -35.854862 -154.21944 -35.825191 -155.82526 -9.5070314 2.312079
16220000000 -12.471462 -165.52473 -35.576736 -177.08939 -35.556915 -178.36082 -9.6125221 0.5227716
16230000000 -12.294397 -169.58865 -35.949463 159.91241 -35.92292 158.48096 -9.6853189 -1.1553242
16240000000 -12.295095 -167.93469 -35.860924 139.49933 -35.845894 137.5571 -9.7922029 -2.4480085
16250000000 -12.088052 -170.51091 -35.797119 117.58634 -35.823586 116.32894 -9.9375315 -2.7294559
16260000000 -11.814269 -169.73726 -35.852753 94.577553 -35.794052 93.493004 -10.171922 -2.4903772
16270000000 -11.542289 -172.86792 -35.811634 74.127701 -35.803253 72.993088 -10.532349 -2.8217683
16280000000 -11.287961 -172.18227 -35.837536 50.022038 -35.766037 48.973152 -11.059823 -4.1726847
16290000000 -10.939418 -175.26811 -35.78698 30.408495 -35.714947 28.85174 -11.614657 -6.5634346
16300000000 -10.730371 -175.12636 -35.639881 5.7082634 -35.667759 5.1256199 -12.074352 -9.6916466
16310000000 -10.503611 -178.3036 -35.701782 -17.305916 -35.604416 -18.602779 -12.390843 -12.927062
16320000000 -10.385536 -177.31303 -35.784241 -40.140976 -35.680988 -41.285473 -12.696441 -15.90338
16330000000 -10.168919 -179.80389 -35.843609 -64.554649 -35.765919 -66.303123 -13.088507 -17.74967
16340000000 -10.093865 -178.8452 -36.356979 -85.428894 -36.353111 -87.255104 -13.491474 -18.952065
16350000000 -9.8465624 178.69165 -36.168915 -107.14666 -36.140442 -108.42468 -13.867185 -19.385992
16360000000 -9.7367029 178.99788 -36.263306 -129.91679 -36.195866 -131.3049 -14.270083 -19.468784
16370000000 -9.517643 176.42026 -36.251999 -151.52016 -36.056683 -153.11783 -14.770552 -18.610453
16380000000 -9.3590832 176.29199 -36.107479 -175.34064 -36.06105 -177.80475 -15.546888 -17.310856
16390000000 -9.1280069 173.17358 -36.462955 161.79694 -36.437008 160.37782 -16.57515 -15.600009
16400000000 -9.0797777 172.88547 -36.528084 137.94182 -36.486 135.52946 -17.649817 -15.296298
16410000000 -8.8615685 170.78056 -36.96307 114.38889 -37.016666 113.02545 -18.796041 -16.843254
16420000000 -8.748785 170.96948 -37.202309 93.995926 -37.130028 92.116974 -19.814852 -18.201344
16430000000 -8.5038157 169.17393 -36.955536 71.642273 -37.026112 69.654083 -20.505774 -17.753761
16440000000 -8.3826675 169.4668 -37.446823 46.523193 -37.450752 45.648033 -21.056463 -15.034794
16450000000 -8.1558828 167.44231 -37.477989 26.320808 -37.485756 24.817106 -21.624058 -11.089162
16460000000 -8.0841646 167.53242 -37.609596 0.86086059 -37.699867 0.25221854 -22.270706 -6.7143388
16470000000 -7.8594365 165.57129 -37.793858 -19.957041 -37.657249 -21.221624 -22.849468 -0.5682174
16480000000 -7.8297987 164.88145 -37.837517 -45.345119 -37.843979 -47.112911 -22.809799 7.2074265
16490000000 -7.6911573 162.83987 -38.429123 -67.480812 -38.428474 -69.183144 -22.519583 16.872169
16500000000 -7.6683412 162.86998 -38.772274 -90.080063 -38.733013 -91.07119 -22.058077 27.64748
16510000000 -7.403224 160.86902 -39.204868 -111.47825 -39.150402 -113.15847 -21.723886 38.782173
16520000000 -7.3870001 160.58974 -39.415443 -130.39006 -39.444714 -132.34431 -21.595242 47.99585
16530000000 -7.0736194 158.97369 -39.045719 -153.15721 -38.981701 -154.95248 -21.684803 53.378181
16540000000 -7.0474787 158.78284 -39.256405 -178.55037 -39.344654 179.91602 -21.909451 54.215473
16550000000 -6.7277884 157.26871 -39.531185 158.52257 -39.612595 157.28743 -21.742001 53.223091
16560000000 -6.6856661 156.87834 -39.638721 133.16336 -39.678608 131.81099 -21.008255 51.618881
16570000000 -6.4773307 155.14987 -40.576828 109.806 -40.558189 108.58782 -20.168581 51.232079
16580000000 -6.492342 154.78293 -40.596489 90.179985 -40.679634 88.632248 -19.460098 51.433399
16590000000 -6.2598538 153.62431 -41.316406 65.297966 -41.447731 64.267998 -18.957285 52.848476
16600000000 -6.2549367 152.78497 -41.763458 46.602615 -41.760109 46.052891 -18.444681 53.456219
16610000000 -6.0251055 151.49878 -41.711529 25.379185 -41.54015 24.690071 -17.859623 54.094875
16620000000 -6.0010552 150.65651 -41.857128 1.9071724 -41.817604 1.0094148 -17.337748 54.818611
16630000000 -5.6780467 149.45804 -42.037815 -16.20928 -41.972889 -17.469006 -16.845869 57.246029
16640000000 -5.6037378 148.2701 -41.820137 -43.111462 -41.724319 -44.927219 -16.577581 59.513981
16650000000 -5.3167133 147.05742 -42.550125 -66.946602 -42.433002 -68.716354 -16.528097 61.341713
16660000000 -5.2911463 145.83975 -42.590847 -90.611954 -42.413258 -92.854179 -16.696394 60.67688
16670000000 -5.0320439 145.05423 -43.686192 -114.21871 -43.706997 -116.86171 -16.904215 58.494431
16680000000 -4.9980803 143.86778 -43.928459 -134.16107 -44.072124 -135.08922 -16.862244 54.889759
16690000000 -4.7575626 143.17796 -44.499432 -156.12956 -44.38652 -158.27873 -16.552225 52.159
16700000000 -4.7351213 141.99014 -44.845558 -176.32642 -44.814526 -177.94061 -16.081142 50.552509
16710000000 -4.4726262 141.24889 -44.536171 162.95062 -44.527771 160.58722 -15.667608 50.553596
16720000000 -4.4218402 139.6087 -44.938351 136.94994 -44.878998 134.7722 -15.300165 51.289078
16730000000 -4.1524973 138.58582 -45.355831 117.07984 -45.348053 117.19592 -15.097263 52.121651
16740000000 -4.0956106 136.77907 -45.396458 93.244316 -45.421387 90.999382 -14.875701 52.783569
16750000000 -3.8844991 135.66109 -45.81329 69.082619 -45.747166 68.241844 -14.850363 52.697659
16760000000 -3.8075616 134.11795 -47.036007 47.222137 -46.788052 46.05817 -14.927761 52.916103
16770000000 -3.6059854 132.98787 -47.066181 27.332268 -47.017803 25.149357 -15.075162 53.369884
16780000000 -3.5439444 131.57986 -47.7169 10.597453 -47.735313 9.9768105 -15.160104 53.033978
16790000000 -3.3512456 130.7765 -47.228016 -14.561135 -47.037399 -16.215515 -15.245647 51.436138
16800000000 -3.2673111 129.27336 -47.726032 -35.326683 -47.914486 -37.656994 -15.253784 48.893761
16810000000 -3.0724223 128.16446 -47.841274 -59.081944 -47.497932 -59.728905 -15.197924 45.922367
16820000000 -2.9908905 126.40265 -48.41877 -79.942993 -48.235081 -81.305099 -14.996022 43.586433
16830000000 -2.825253 125.0211 -48.530426 -104.8706 -48.572811 -106.44074 -14.703585 41.990181
16840000000 -2.7575576 123.18436 -49.299488 -123.5929 -48.9939 -123.9028 -14.37474 41.608089
16850000000 -2.607307 121.84821 -49.264 -145.62163 -49.202709 -149.94069 -14.098955 42.232903
16860000000 -2.5320692 120.0575 -49.844025 -163.50061 -49.707802 -165.22552 -13.90618 43.599602
16870000000 -2.3907261 118.89234 -49.237373 174.13142 -49.327137 172.4787 -13.87299 44.964928
16880000000 -2.2978268 117.43822 -49.187119 146.07094 -49.13187 145.4805 -13.972466 46.021355
16890000000 -2.1394413 116.23587 -50.476143 124.66341 -50.417416 122.64602 -14.180874 45.826237
16900000000 -2.0518663 114.75647 -49.997147 103.18748 -50.083775 99.567337 -14.424415 44.760921
16910000000 -1.919883 113.42731 -51.264465 83.039513 -51.542725 81.450829 -14.554981 42.443317
16920000000 -1.8538337 111.80257 -51.084423 65.555832 -51.246811 61.36182 -14.543083 39.854603
16930000000 -1.7535648 110.34676 -50.807934 42.361156 -50.990082 41.268127 -14.401234 37.066998
16940000000 -1.6982706 108.61124 -51.193779 18.945986 -51.06485 18.090004 -14.236885 35.320141
16950000000 -1.6132922 107.05385 -50.567005 0.49509427 -50.420277 -4.2711239 -13.972302 34.382484
16960000000 -1.5483001 105.3806 -51.286362 -29.853384 -51.370434 -30.665726 -13.778734 33.903416
16970000000 -1.4449751 103.91637 -51.667938 -48.754673 -51.831642 -49.355629 -13.645841 33.978752
16980000000 -1.3587806 102.27758 -51.708424 -70.372559 -51.464085 -73.568527 -13.583324 34.596073
16990000000 -1.2518286 100.78286 -51.863022 -94.279243 -51.853878 -97.914627 -13.577953 35.251438
17000000000 -1.1698356 99.199936 -52.15226 -120.00127 -52.14476 -122.2701 -13.652602 35.728626
