!Keysight Technologies,P9374A,MY57211807,A.19.30.04
!Date: Friday, May 08, 2026 15:42:47
!Correction: S11(C  2-Port  ) 
!S21(C  2-Port  ) 
!S12(C  2-Port  ) 
!S22(C  2-Port  ) 
!S2P File: Measurements: S11, S21, S12, S22:
# Hz S  dB   R 50
13000000000 -19.109415 57.525105 -40.207268 33.633961 -39.983265 33.475166 -9.049367 25.901701
13010000000 -19.435675 60.96616 -40.210377 10.524361 -39.943119 9.3693628 -9.1179705 21.739529
13020000000 -19.251337 62.484646 -40.228836 -11.975749 -39.931362 -12.295241 -9.2427864 17.655087
13030000000 -19.425085 62.582893 -39.981979 -35.537678 -39.653984 -37.221851 -9.3815203 13.680338
13040000000 -19.433788 64.435173 -40.226284 -61.503838 -39.976376 -63.262783 -9.5612459 9.7263308
13050000000 -19.494928 62.91909 -40.53788 -85.540726 -40.360699 -87.093651 -9.8632784 5.8375225
13060000000 -19.716604 63.200409 -40.997616 -108.66683 -40.745415 -110.27849 -10.305007 2.0271437
13070000000 -19.695854 61.789192 -41.078857 -130.3387 -40.720852 -131.85469 -10.846154 -1.4821033
13080000000 -19.861517 61.599941 -41.116199 -154.14238 -40.907825 -157.80013 -11.402866 -5.3034782
13090000000 -19.704538 60.455917 -41.198895 179.55215 -41.259335 176.41151 -11.8711 -9.4780807
13100000000 -19.881918 60.965027 -42.578777 154.3445 -42.353596 152.12462 -12.349404 -13.900064
13110000000 -19.751581 60.602726 -43.1423 141.92499 -42.910908 138.79434 -13.011722 -17.594782
13120000000 -19.816172 62.311531 -42.516678 120.6375 -42.35775 116.9866 -13.824367 -19.879065
13130000000 -19.6077 63.349583 -41.565716 93.739128 -41.664448 89.174248 -14.648368 -21.661114
13140000000 -19.338865 63.891434 -42.187805 63.48003 -42.429287 59.516521 -15.543453 -24.306877
13150000000 -19.19599 62.853184 -43.396255 35.431984 -43.504063 33.35564 -16.520164 -27.197971
13160000000 -19.102953 62.240204 -45.523079 18.113811 -45.422287 13.984292 -17.602173 -29.236687
13170000000 -19.146008 59.145771 -45.258228 4.4923916 -45.552765 0.66800255 -18.859756 -29.368773
13180000000 -19.448597 57.985355 -44.967487 -15.148161 -45.407307 -16.878277 -20.37458 -27.566044
13190000000 -19.507772 55.879925 -44.723419 -39.435368 -44.712742 -42.696945 -22.308863 -24.491165
13200000000 -19.879658 55.692448 -44.739216 -64.401123 -45.110916 -67.849335 -24.834341 -20.916502
13210000000 -19.775475 56.848698 -45.324406 -90.142578 -45.814857 -93.209404 -27.754454 -13.895161
13220000000 -19.618773 57.508095 -46.178432 -116.09557 -46.793419 -118.37184 -30.135456 -1.6977447
13230000000 -19.200228 57.222782 -47.639828 -133.53583 -48.565899 -134.18022 -31.173899 20.506554
13240000000 -18.887857 55.336349 -47.922878 -149.79727 -48.33783 -149.64365 -29.344398 48.279251
13250000000 -18.775673 52.9412 -47.327171 -169.04564 -47.716454 -170.57547 -26.110815 64.333611
13260000000 -18.832762 50.805214 -47.302738 161.6066 -48.018917 159.89525 -23.622383 73.541214
13270000000 -19.04814 46.574139 -48.854679 135.33603 -49.251328 137.34412 -21.937487 80.183205
13280000000 -19.711842 46.835457 -49.602238 122.57473 -50.130791 121.82561 -20.558565 84.819221
13290000000 -19.963087 46.158058 -49.870335 103.47784 -50.271141 105.00222 -19.396463 85.907822
13300000000 -20.252848 47.257214 -48.898388 86.92968 -49.700336 87.575279 -18.412508 83.935844
13310000000 -20.032875 47.809914 -49.322872 56.405277 -50.1343 59.007015 -17.495291 81.403168
13320000000 -19.672243 46.635242 -49.699921 35.415588 -50.50853 41.282391 -16.578695 80.07074
13330000000 -19.459562 43.599365 -49.780972 6.0396194 -50.074821 12.689833 -15.711696 79.001343
13340000000 -19.31472 41.485039 -51.319988 -15.948911 -52.100433 -10.255938 -15.025342 77.743614
13350000000 -19.330933 36.114494 -53.008621 -40.793251 -53.253593 -26.691715 -14.586404 75.506851
13360000000 -19.850136 34.720005 -52.662041 -47.980049 -51.89616 -40.979336 -14.242329 72.890915
13370000000 -20.272099 31.750072 -51.75227 -71.793358 -51.169998 -64.515083 -13.753963 69.31926
13380000000 -20.905531 35.343754 -52.776398 -110.23689 -51.480968 -105.38973 -13.148643 65.318588
13390000000 -20.977976 35.379513 -55.162743 -137.62546 -54.061497 -137.25475 -12.522427 62.04266
13400000000 -20.995359 36.846741 -56.80711 -156.7439 -58.018776 -155.88077 -11.9857 59.783241
13410000000 -20.796925 34.705818 -57.950523 -172.78934 -57.509651 -152.26347 -11.611988 58.302181
13420000000 -20.696039 31.612076 -59.393581 150.17189 -56.899292 167.94022 -11.413561 56.599648
13430000000 -20.746788 26.969471 -59.887234 124.23795 -58.633488 135.69209 -11.285745 54.140522
13440000000 -21.244307 23.318838 -64.57193 41.569393 -66.724686 79.064522 -11.203388 50.755749
13450000000 -21.597179 21.149424 -74.056709 19.715176 -66.753036 112.75159 -11.120385 47.020931
13460000000 -22.211689 20.272686 -71.077232 -41.593521 -69.292969 46.290176 -10.940836 43.745056
13470000000 -22.809717 21.377869 -65.77565 -87.490158 -73.182892 -66.026863 -10.745958 40.798306
13480000000 -22.599533 26.19463 -59.225052 -142.3369 -62.187477 -141.64101 -10.690104 38.028854
13490000000 -22.464571 22.865547 -62.057793 172.74619 -65.886261 177.92603 -10.742386 35.833305
13500000000 -22.665026 22.601171 -58.644657 -175.59689 -59.853424 -173.10085 -10.861955 33.961113
13510000000 -22.711609 19.435495 -54.228596 151.67918 -54.992855 152.25627 -10.960086 32.111332
13520000000 -23.275383 16.186747 -51.451775 120.13214 -52.476875 120.0516 -11.054051 30.273088
13530000000 -23.810436 14.063522 -50.099094 85.10215 -51.388256 81.709724 -11.2208 28.615337
13540000000 -24.286966 12.4774 -49.627495 51.419884 -50.990612 55.248474 -11.431621 27.645859
13550000000 -25.000376 13.090826 -49.291946 17.802601 -50.438087 18.921946 -11.649778 26.958803
13560000000 -24.784773 16.335907 -52.042191 -7.3558297 -52.524357 -5.4275904 -11.873761 26.253443
13570000000 -25.048183 14.62718 -50.939495 -12.499493 -51.925247 -7.9531789 -12.051981 25.232471
13580000000 -24.819471 16.037094 -49.173203 -35.737553 -49.620586 -33.402721 -12.18392 24.592318
13590000000 -25.54327 13.635907 -48.354935 -62.078819 -48.258907 -59.375431 -12.243991 24.365467
13600000000 -25.555527 16.850464 -48.236671 -88.919243 -48.687763 -85.79731 -12.195345 24.646921
13610000000 -25.961012 17.228699 -47.081623 -114.38393 -46.932266 -113.27983 -12.089004 24.802229
13620000000 -25.99255 16.680851 -46.380695 -139.4814 -46.718044 -140.27626 -12.102467 24.956734
13630000000 -26.445644 15.036453 -46.158436 -174.58406 -46.494152 -172.27051 -12.101751 25.468304
13640000000 -26.993835 13.485827 -47.040867 158.87291 -47.345203 160.13179 -12.076843 25.882448
13650000000 -27.773071 13.647986 -47.790134 133.53932 -48.081669 134.56667 -11.99851 25.841528
13660000000 -27.785933 14.188026 -48.007484 110.56927 -47.944801 115.28063 -11.853526 24.806814
13670000000 -28.453386 16.424034 -48.970749 87.317284 -48.986824 89.937401 -11.761286 23.522247
13680000000 -27.849747 22.897581 -49.734013 71.126579 -49.30685 76.128334 -11.631807 22.634693
13690000000 -27.069159 25.33605 -47.599991 57.146526 -47.478069 54.338833 -11.425468 21.754854
13700000000 -26.189114 20.383179 -46.686245 21.384857 -46.998878 25.702391 -11.255947 20.448002
13710000000 -26.461838 17.162294 -46.670536 -14.819921 -46.447365 -9.7183352 -11.207877 18.997841
13720000000 -26.712957 13.398902 -47.834633 -45.411354 -47.760918 -42.080246 -11.171205 17.439272
13730000000 -28.224916 10.93292 -50.527065 -83.217384 -50.298653 -76.826004 -11.115918 15.773798
13740000000 -28.984009 16.766584 -53.743221 -99.565735 -53.270676 -91.051392 -11.054643 13.697967
13750000000 -29.910894 25.225227 -55.656288 -107.80283 -54.140148 -98.185242 -11.001581 11.7706
13760000000 -28.653418 28.117634 -54.079739 -117.12524 -52.40461 -115.66055 -11.064275 10.091702
13770000000 -28.108717 28.715073 -54.481071 -154.14938 -52.977478 -148.89195 -11.245753 8.7653589
13780000000 -26.55228 19.604973 -55.979256 179.21834 -53.228054 177.12686 -11.460034 7.2895765
13790000000 -26.655817 12.038617 -59.15189 129.20749 -57.2215 135.28006 -11.71109 4.9532332
13800000000 -26.41341 1.8274096 -70.691231 93.273445 -63.655174 102.56547 -11.978664 2.4878771
13810000000 -27.866285 -1.0992053 -68.703583 -49.384197 -72.400131 -43.493992 -12.155432 0.60220963
13820000000 -28.264872 -3.2530823 -63.050323 -96.122925 -66.504898 -107.68264 -12.293708 -0.52998066
13830000000 -29.157619 6.1680284 -56.122692 -131.38474 -57.445595 -137.93677 -12.482965 -1.0180261
13840000000 -28.753426 7.0309992 -53.662876 -160.02777 -55.157677 -165.27675 -12.759274 -1.1096174
13850000000 -28.159616 16.141535 -50.822002 163.25096 -51.697704 161.20114 -13.080084 -1.0986503
13860000000 -26.724558 6.5419884 -49.885677 132.83331 -50.953831 127.03694 -13.3984 -1.4990944
13870000000 -26.915188 1.3724271 -50.329647 95.619759 -51.067703 90.779884 -13.676006 -1.7266022
13880000000 -26.441704 -9.3895912 -51.848301 89.696358 -53.554497 84.181473 -13.924627 -1.4068409
13890000000 -27.3407 -16.087637 -49.881924 76.045219 -50.927563 76.825523 -14.089689 -0.20986132
13900000000 -27.77243 -24.346352 -46.732647 54.137627 -47.547279 54.572479 -14.235205 1.0196784
13910000000 -28.791391 -23.507465 -45.078354 21.601538 -45.76852 22.820704 -14.422133 1.7846946
13920000000 -29.315935 -27.413343 -43.914078 -11.280673 -44.507187 -9.3857155 -14.650595 1.8930337
13930000000 -30.019867 -19.267551 -44.453072 -40.943768 -45.059036 -41.856079 -14.810752 1.9533293
13940000000 -29.443565 -21.305803 -44.361809 -66.558472 -44.910686 -65.598953 -14.807319 2.66903
13950000000 -28.846075 -21.427849 -44.75528 -93.793381 -45.217335 -93.616295 -14.630898 3.3985994
13960000000 -28.575268 -32.319794 -44.988689 -111.10251 -45.584942 -111.7875 -14.446619 4.2293582
13970000000 -28.416502 -38.276459 -44.055466 -134.78508 -44.668945 -133.96832 -14.356236 5.2073493
13980000000 -28.026968 -53.484459 -43.753002 -157.99515 -44.07629 -155.18523 -14.371197 6.0006299
13990000000 -28.916988 -61.26263 -42.821499 175.65981 -42.97493 176.95401 -14.439909 6.6748843
14000000000 -28.450451 -70.501099 -43.131615 148.49254 -43.376385 147.94359 -14.58051 6.7987967
14010000000 -29.148937 -75.382484 -43.024208 120.83303 -43.556286 120.90214 -14.702312 6.8538694
14020000000 -29.787441 -77.097267 -43.432819 97.505867 -44.035057 99.615486 -14.726665 6.4574509
14030000000 -29.438135 -70.696594 -43.434345 73.760063 -43.832619 76.39994 -14.733994 5.744545
14040000000 -29.352875 -73.601372 -43.160732 48.927902 -43.652153 52.007839 -14.819842 4.522963
14050000000 -28.877487 -71.626091 -43.856106 20.467798 -43.971802 22.772154 -14.989827 3.8700566
14060000000 -28.634459 -80.238625 -44.306843 -1.5963014 -44.806522 1.7995284 -15.139872 3.7926953
14070000000 -29.083691 -83.587349 -45.023552 -27.813166 -45.315006 -24.652304 -15.23638 3.4311101
14080000000 -28.332733 -95.346283 -46.339741 -46.270103 -46.164284 -41.447445 -15.285332 3.0174918
14090000000 -29.323883 -107.80379 -46.267262 -61.411537 -46.418991 -58.891571 -15.278898 2.480876
14100000000 -29.164133 -116.72729 -46.072216 -86.403358 -46.433952 -82.456146 -15.317049 1.7167205
14110000000 -29.657343 -121.88333 -46.365551 -105.81642 -46.539574 -99.253677 -15.394629 1.9533125
14120000000 -29.324755 -126.82095 -46.544788 -130.32068 -46.028271 -123.04524 -15.478925 3.0196934
14130000000 -29.208374 -126.67672 -47.623524 -153.54951 -46.824074 -146.12474 -15.580606 3.7688117
14140000000 -28.690226 -129.87747 -48.612682 -164.27058 -47.701492 -164.62305 -15.777481 3.5808172
14150000000 -28.662302 -130.12758 -48.468975 -175.24095 -47.630779 -173.40913 -16.061836 2.4348834
14160000000 -28.017443 -132.04071 -46.764576 166.80049 -46.003544 168.38281 -16.308491 1.2472159
14170000000 -28.114729 -136.2063 -45.460007 143.49121 -45.035774 140.58528 -16.434216 0.520836
14180000000 -27.476004 -141.52708 -46.222603 112.00032 -45.638859 113.82118 -16.532074 0.81907958
14190000000 -28.002924 -148.71635 -46.689072 95.251259 -45.985901 95.373398 -16.637953 1.8465608
14200000000 -27.500959 -153.69125 -46.72728 79.54689 -45.980572 78.224976 -16.896412 3.0820048
14210000000 -27.874012 -158.57553 -45.550728 59.653248 -44.720921 59.719193 -17.349859 3.9999475
14220000000 -27.293818 -163.2697 -44.634018 37.017384 -43.967873 35.270752 -17.904068 5.1458755
14230000000 -27.6975 -166.05031 -44.596401 9.4243259 -43.816093 8.4384298 -18.36167 6.7652469
14240000000 -27.71422 -166.3185 -44.62162 -15.405056 -43.73885 -17.534748 -18.636406 8.9572172
14250000000 -27.798876 -163.53159 -45.362411 -34.786583 -44.364117 -39.600613 -18.829351 11.735208
14260000000 -27.086327 -165.02319 -44.778919 -51.872616 -44.304184 -58.058796 -19.07988 14.741712
14270000000 -26.977932 -165.15767 -43.766499 -75.696175 -43.748318 -81.007256 -19.399605 18.361881
14280000000 -26.64217 -171.21619 -43.660877 -100.06173 -43.575836 -103.98196 -19.608788 21.678825
14290000000 -27.038902 -173.15825 -43.500431 -127.74068 -43.452709 -129.99854 -19.668905 24.705557
14300000000 -26.80167 179.18375 -44.183189 -151.58202 -43.694721 -153.8221 -19.415915 27.215578
14310000000 -27.599396 176.85425 -44.453995 -171.00594 -44.070896 -175.69368 -18.948393 29.487604
14320000000 -27.858175 172.53539 -44.089863 170.21828 -43.844154 165.33073 -18.413605 32.25951
14330000000 -28.32032 179.36571 -43.569187 146.21393 -43.634148 141.35973 -17.929312 35.744717
14340000000 -27.670647 176.75018 -43.407333 123.97236 -43.62812 118.51067 -17.421124 38.866821
14350000000 -27.306206 -177.93584 -43.10799 97.8423 -43.379932 94.722931 -17.08301 41.729939
14360000000 -26.58989 174.39943 -43.475662 74.318039 -43.709789 70.601677 -16.821247 44.038464
14370000000 -27.018957 175.42636 -43.390404 51.219704 -43.702473 49.195377 -16.531103 45.513821
14380000000 -26.840265 169.98175 -43.27692 25.942608 -43.426388 24.675243 -16.205521 45.33997
14390000000 -27.616356 168.73811 -43.713974 0.60923398 -43.445393 -0.083269387 -15.932931 44.401917
14400000000 -28.213894 166.44757 -43.870842 -21.320759 -43.863327 -24.731188 -15.517366 43.445198
14410000000 -29.023407 172.16228 -44.016048 -42.133564 -44.205814 -43.899307 -15.069312 42.593388
14420000000 -28.298561 173.71806 -43.747765 -65.608627 -43.876118 -67.694572 -14.618504 41.770641
14430000000 -27.674578 174.30734 -43.726421 -89.337494 -43.911186 -90.788185 -14.300184 41.392803
14440000000 -27.228443 172.12758 -43.599178 -114.70635 -43.667122 -115.86721 -13.965125 40.894718
14450000000 -26.760969 170.70006 -44.308853 -140.30792 -44.043186 -141.96317 -13.703066 39.760189
14460000000 -26.954426 166.78003 -44.474777 -160.61737 -44.557846 -164.52687 -13.495368 38.500427
14470000000 -27.053577 170.39581 -43.996956 174.45091 -44.331871 172.63782 -13.293919 37.675629
14480000000 -27.457882 171.29805 -44.624931 145.84267 -44.694038 145.43359 -13.161444 36.9324
14490000000 -27.213345 174.69255 -44.856155 122.31784 -44.954483 120.89101 -13.110801 36.354633
14500000000 -27.268187 178.32495 -45.299942 96.277885 -45.264832 95.231911 -13.185312 35.264141
14510000000 -26.579691 178.3625 -46.233265 69.746483 -46.16629 67.893608 -13.31717 33.829731
14520000000 -26.673395 177.68448 -48.00449 47.466766 -48.146904 46.343479 -13.355907 32.032482
14530000000 -26.181709 174.92755 -47.792168 32.887936 -47.921173 32.864513 -13.236262 30.197584
14540000000 -26.431532 176.38121 -47.784966 7.2154856 -47.994694 9.2698917 -13.048387 29.052811
14550000000 -25.598932 173.11488 -48.521572 -14.503823 -47.131542 -14.083067 -12.896228 28.925791
14560000000 -25.717611 173.95663 -48.430717 -39.366096 -47.990719 -46.205238 -12.817475 29.086321
14570000000 -25.036268 173.04329 -49.259403 -65.104126 -49.287125 -73.981651 -12.904877 29.541235
14580000000 -25.088331 173.09322 -50.499279 -88.818626 -51.52924 -95.175247 -12.971313 29.718801
14590000000 -24.707817 173.84775 -50.79343 -106.39622 -51.974483 -104.86312 -13.020037 29.464436
14600000000 -24.507299 174.88042 -51.481102 -133.60927 -50.803432 -128.1931 -13.023728 29.225376
14610000000 -24.135971 175.42336 -51.801365 -154.59203 -51.407421 -151.76189 -12.998801 29.181307
14620000000 -23.810181 175.78156 -52.313484 -176.87967 -51.399681 -176.96971 -12.957054 29.265131
14630000000 -23.051178 174.05315 -52.848282 161.83226 -52.481846 158.98714 -12.988184 28.910196
14640000000 -23.019339 169.77954 -52.288624 138.45673 -51.878525 137.33968 -13.006284 28.183327
14650000000 -22.781311 167.0589 -53.354626 109.69505 -52.563206 107.58206 -12.964464 27.224575
14660000000 -22.874397 164.74394 -53.814537 80.450195 -52.481251 72.737724 -12.801876 26.308525
14670000000 -22.959288 163.63522 -54.131905 58.770412 -54.445938 52.469193 -12.567231 25.862268
14680000000 -22.972063 166.49365 -54.137318 24.458981 -53.966156 22.452097 -12.320286 25.903507
14690000000 -22.196218 167.26254 -54.273911 -11.436028 -54.34103 -7.4109612 -12.165425 25.816095
14700000000 -21.865582 166.78293 -54.681 -52.930134 -54.156528 -53.252296 -12.131893 25.743729
14710000000 -21.11301 164.67107 -59.456837 -92.708565 -56.863022 -80.701233 -12.157627 25.449305
14720000000 -20.87945 160.07076 -58.801304 -117.95927 -55.165955 -112.31332 -12.244053 24.667608
14730000000 -20.993694 155.08128 -59.410793 -120.45346 -56.730175 -133.70033 -12.327709 23.909462
14740000000 -21.425125 152.57448 -55.907593 -162.64671 -53.560982 -175.52699 -12.374285 22.543177
14750000000 -21.708263 150.45039 -53.842216 155.25607 -52.723042 142.18605 -12.421979 20.725506
14760000000 -21.833015 153.45253 -52.442574 115.24341 -53.058201 108.58214 -12.441475 18.622349
14770000000 -21.374193 152.78719 -51.814011 77.103477 -51.550362 77.708618 -12.475777 16.930094
14780000000 -20.928223 153.30188 -51.849915 42.101879 -50.779835 43.902309 -12.454179 16.281212
14790000000 -20.135351 150.04402 -51.476143 8.8634262 -50.341167 9.4112206 -12.438576 16.098774
14800000000 -19.848455 146.51746 -52.319145 -19.448009 -51.185215 -25.669552 -12.496765 16.062016
14810000000 -19.739214 141.52542 -52.461266 -32.970741 -52.376976 -39.137104 -12.643973 15.744507
14820000000 -20.254055 137.81494 -50.429985 -58.038898 -50.219315 -53.913773 -12.859997 15.39225
14830000000 -20.8388 137.59039 -49.329498 -89.463066 -48.777061 -86.538315 -13.071476 14.859468
14840000000 -21.162472 139.95978 -49.277016 -116.98942 -48.191006 -116.62031 -13.261903 14.833965
14850000000 -21.044537 140.11328 -48.871571 -145.87061 -48.013073 -147.47052 -13.426243 14.95436
14860000000 -20.841528 140.31725 -49.296627 -166.90208 -48.453899 -172.86746 -13.651875 14.962949
14870000000 -20.414602 136.22083 -48.239616 170.45595 -47.90202 170.13274 -13.963052 14.500854
14880000000 -20.379932 133.04749 -47.630718 142.80611 -46.913246 139.01773 -14.22876 13.560131
14890000000 -20.142269 127.34885 -47.229309 114.70698 -46.826206 112.50698 -14.308659 12.513696
14900000000 -20.629936 122.16314 -47.768745 84.908035 -46.925816 83.086174 -14.248719 12.116273
14910000000 -20.996429 121.86992 -48.130093 66.757233 -47.206085 58.415337 -14.089758 13.067954
14920000000 -21.322285 122.18784 -48.353271 44.599957 -47.848606 34.519341 -14.03906 14.927493
14930000000 -21.364723 125.03369 -47.753971 22.926403 -48.238888 12.196258 -14.16793 17.132818
14940000000 -21.019846 124.90675 -47.214172 -1.7496258 -48.236553 -4.9303541 -14.536695 18.964657
14950000000 -21.021019 123.43224 -46.321381 -29.413998 -46.771484 -27.010994 -14.89428 20.07518
14960000000 -21.111425 121.99458 -47.173817 -60.487385 -46.681351 -61.351219 -15.178892 20.464813
14970000000 -21.251722 119.6306 -47.769588 -84.399597 -47.317741 -88.077332 -15.285587 20.907085
14980000000 -21.732759 115.78627 -48.356827 -106.2892 -48.040775 -110.45351 -15.370797 21.943794
14990000000 -22.258276 114.51556 -48.99715 -126.2693 -48.910744 -131.99986 -15.400536 23.257925
15000000000 -22.962038 112.04817 -49.115986 -148.26137 -49.633251 -157.79303 -15.545506 24.21072
15010000000 -23.36072 115.85275 -49.302528 -171.02167 -50.389153 -173.19066 -15.631854 24.732851
15020000000 -23.191458 114.97393 -50.063244 169.39066 -50.12426 167.50348 -15.528069 24.92651
15030000000 -23.174747 115.37122 -49.365753 149.80559 -50.082645 144.59013 -15.192204 25.428822
15040000000 -23.1712 114.85925 -49.579807 124.68241 -50.813549 125.66341 -14.804361 26.955072
15050000000 -23.192503 115.05134 -49.406441 102.85995 -50.304688 105.91533 -14.481174 29.820957
15060000000 -23.167475 114.71239 -50.783825 74.399757 -50.634392 80.499268 -14.340742 32.575359
15070000000 -23.492697 112.28319 -53.480228 61.315899 -52.6124 62.604237 -14.391366 34.844631
15080000000 -24.231737 113.3084 -52.100384 50.742271 -51.984886 46.260464 -14.510137 35.593468
15090000000 -24.728493 115.59031 -51.746822 31.025944 -52.88052 26.50284 -14.60697 35.262012
15100000000 -25.294039 118.79703 -51.976521 15.1931 -52.711849 20.047102 -14.557902 34.566357
15110000000 -25.04961 123.88925 -51.097534 -10.934493 -51.523079 -3.9173479 -14.309862 34.028713
15120000000 -25.052906 122.74466 -51.921417 -32.653343 -51.186192 -22.454538 -14.025176 33.163174
15130000000 -24.782122 125.34948 -53.082748 -44.090321 -51.362434 -48.467381 -13.874999 32.454716
15140000000 -24.228962 123.90849 -51.9795 -54.695629 -51.913494 -60.090202 -13.735473 32.038883
15150000000 -24.056894 120.82796 -50.988766 -73.141495 -51.145103 -76.64183 -13.516171 31.87327
15160000000 -24.260965 119.0096 -49.705265 -93.094124 -49.796116 -93.322922 -13.29286 31.705082
15170000000 -24.680981 119.29527 -49.439419 -125.04067 -49.371746 -126.67776 -13.100664 32.125122
15180000000 -24.837513 124.49703 -50.445091 -137.83463 -50.174347 -138.52133 -12.968793 32.668423
15190000000 -24.359312 127.77489 -49.37421 -152.29532 -49.423023 -155.83774 -13.014819 32.745483
15200000000 -24.192753 129.25557 -47.620922 -173.68083 -47.783081 -174.56126 -13.183955 32.396515
15210000000 -23.618383 131.44571 -47.45826 158.73511 -46.662476 159.99313 -13.388045 31.576265
15220000000 -23.136995 128.52264 -46.817898 136.61499 -46.193535 130.64104 -13.495978 30.571159
15230000000 -23.108614 126.16965 -46.807854 112.50149 -46.977329 106.62033 -13.489127 29.099611
15240000000 -23.172432 122.20176 -46.267166 90.942856 -46.955139 86.558449 -13.488006 27.648184
15250000000 -23.744884 121.31755 -45.889297 68.011543 -46.45216 67.796097 -13.493815 26.773678
15260000000 -23.73534 122.46963 -45.960606 45.542927 -45.986183 47.755672 -13.416558 26.508305
15270000000 -23.614157 123.45058 -45.140232 26.351112 -45.082592 24.617193 -13.308149 26.532501
15280000000 -23.078831 121.95026 -44.375256 -0.572043 -44.075714 -1.620355 -13.214516 27.248087
15290000000 -23.030579 120.74955 -44.385937 -26.815578 -44.040787 -29.706514 -13.19587 28.414766
15300000000 -22.621452 118.40979 -44.620049 -52.456905 -44.453312 -56.436543 -13.321632 29.823708
15310000000 -22.774405 116.2242 -44.780849 -71.736885 -44.981148 -75.511292 -13.484395 31.110729
15320000000 -22.779974 114.11077 -44.319012 -96.188934 -44.50119 -96.703545 -13.660175 31.290081
15330000000 -23.16745 114.99535 -44.034664 -119.44542 -43.95034 -121.16338 -13.848598 30.823431
15340000000 -22.962132 113.39079 -44.000065 -142.78481 -44.052067 -145.06763 -13.92355 30.448156
15350000000 -23.212704 113.64159 -43.441784 -169.14175 -43.663288 -170.51706 -13.875889 29.900797
15360000000 -22.75979 109.47168 -44.049835 164.53613 -43.974258 163.86664 -13.860847 29.94383
15370000000 -23.546154 106.14978 -44.65736 143.25351 -44.330284 139.13737 -13.812515 29.925835
15380000000 -23.531281 104.12736 -44.404114 125.08301 -44.651726 120.45329 -13.728071 29.597761
15390000000 -24.216099 102.20377 -43.842091 101.88049 -44.240601 98.184731 -13.563088 29.151398
15400000000 -24.50845 102.14854 -43.628918 76.081734 -43.763699 75.584251 -13.358013 29.206091
15410000000 -24.531363 103.48212 -43.500084 50.916138 -43.636616 47.721588 -13.161814 30.271584
15420000000 -24.339207 101.52674 -43.741409 23.942045 -43.869949 22.425404 -13.084325 32.023159
15430000000 -24.299255 99.954491 -44.16394 0.12115134 -44.421867 -3.5265739 -13.116385 33.574455
15440000000 -24.169817 93.978462 -44.666737 -23.676064 -45.166225 -26.675375 -13.30911 33.692482
15450000000 -25.201862 88.166519 -44.819466 -44.166691 -45.506962 -43.504292 -13.567228 32.618042
15460000000 -26.016045 85.148605 -44.808273 -66.665977 -44.973797 -65.934044 -13.756783 30.627983
15470000000 -27.684513 87.060249 -44.236343 -87.372467 -44.340675 -90.623535 -13.77356 28.847147
15480000000 -28.199812 88.851646 -44.0023 -118.08945 -44.453571 -120.47552 -13.650508 28.23119
15490000000 -28.610174 96.209641 -44.673946 -144.46239 -45.212097 -143.99504 -13.487202 28.005032
15500000000 -27.896553 93.339478 -45.037994 -168.23888 -45.447182 -168.47643 -13.418496 28.174984
15510000000 -27.706558 89.519585 -45.913082 169.46446 -46.16407 171.10043 -13.380951 28.587885
15520000000 -28.003166 79.307831 -45.711731 145.7594 -45.514446 148.42563 -13.372828 29.118965
15530000000 -29.272627 69.368073 -45.970287 122.83918 -45.543503 119.73782 -13.367767 29.990057
15540000000 -32.03463 60.062492 -45.822002 96.976959 -45.956497 94.593636 -13.376007 31.206966
15550000000 -36.263603 67.072639 -46.814686 73.190437 -47.181892 69.691628 -13.431443 32.482639
15560000000 -38.608597 84.827629 -45.996334 49.602314 -46.936874 45.831646 -13.587424 33.301785
15570000000 -37.852028 115.65179 -46.485619 20.024872 -46.886898 20.763407 -13.783541 33.533695
15580000000 -36.427189 107.99771 -47.133034 -7.6718421 -47.808044 -3.9305403 -14.011068 32.98431
15590000000 -36.491222 99.060661 -47.610638 -32.135735 -47.621685 -29.217125 -14.181345 32.360661
15600000000 -40.103607 73.071327 -47.842922 -61.156437 -47.48745 -57.244461 -14.141979 31.477047
15610000000 -45.089455 37.010952 -49.441132 -89.99202 -48.362434 -88.962944 -14.048141 30.376078
15620000000 -43.061447 -73.074852 -50.649796 -106.54449 -49.802692 -114.59395 -13.826673 29.849771
15630000000 -37.403851 -114.68166 -50.236225 -133.01659 -50.277084 -140.50543 -13.646925 29.873926
15640000000 -34.653877 -137.01863 -50.661201 -157.53186 -51.222481 -161.12959 -13.478801 31.124414
15650000000 -34.365669 -153.95903 -49.980022 173.75632 -50.605522 170.47479 -13.398356 32.551121
15660000000 -34.466122 -157.08139 -50.226128 143.07454 -50.499649 142.42175 -13.438804 34.0434
15670000000 -35.050125 -156.0112 -50.160553 107.96675 -50.719482 103.10823 -13.627198 34.775475
15680000000 -34.427292 -136.51358 -50.929207 63.547451 -51.571033 62.307888 -13.891442 34.954941
15690000000 -31.434687 -131.33752 -53.521191 33.339775 -53.780506 32.281712 -14.116661 34.346458
15700000000 -29.111866 -132.10248 -53.66864 5.9490213 -54.323853 6.0265889 -14.282822 33.96167
15710000000 -27.660921 -138.23282 -54.890301 -24.435505 -54.159927 -21.143702 -14.319503 34.048283
15720000000 -26.485756 -146.14594 -54.285931 -49.775028 -54.112339 -57.949669 -14.34248 34.17215
15730000000 -27.09511 -150.9872 -55.232559 -81.663742 -56.221214 -83.517281 -14.356042 34.076523
15740000000 -26.959673 -151.84018 -54.343124 -107.32107 -53.293324 -106.11012 -14.359336 33.840939
15750000000 -27.561892 -148.82739 -53.533379 -134.0981 -52.122925 -146.47972 -14.249529 33.9109
15760000000 -26.68895 -142.85912 -52.452965 -168.3571 -52.355648 178.88838 -14.029825 35.0336
15770000000 -25.605347 -143.04236 -52.089207 160.50642 -52.840191 148.75339 -13.688953 37.360188
15780000000 -24.508408 -143.83 -51.856171 127.10149 -52.908787 121.50179 -13.464033 40.221806
15790000000 -23.722168 -150.13774 -52.158588 99.848145 -52.464016 93.922966 -13.433732 43.060879
15800000000 -23.329016 -154.03476 -51.869167 72.147392 -52.266331 65.152367 -13.573428 44.965942
15810000000 -23.480984 -157.70724 -52.105297 47.223114 -52.987167 40.539829 -13.77161 45.672752
15820000000 -23.63759 -157.33476 -52.018875 22.138027 -52.654724 23.543991 -13.900922 44.857632
15830000000 -23.576916 -154.14693 -52.801071 -0.084334224 -52.083866 -3.5875599 -13.821918 43.547325
15840000000 -23.131855 -151.56036 -52.254013 -17.574862 -52.160698 -24.751163 -13.569226 42.206783
15850000000 -22.553928 -150.37737 -50.243351 -36.112438 -51.288963 -45.877499 -13.249743 41.11253
15860000000 -21.823168 -150.72168 -49.397007 -69.332146 -50.027222 -73.132988 -12.919627 40.61161
15870000000 -21.635124 -155.48016 -49.600315 -90.603989 -50.116352 -97.085289 -12.592007 40.342369
15880000000 -21.570055 -155.81238 -49.058537 -122.67819 -49.595215 -125.9844 -12.281611 40.292599
15890000000 -21.665968 -159.16075 -49.886856 -145.60222 -49.876335 -148.18352 -11.965628 40.782097
15900000000 -21.811422 -157.92302 -49.577168 -168.16574 -49.936024 -176.63126 -11.68772 41.255001
15910000000 -21.58423 -156.23364 -50.134613 172.60637 -50.753666 163.83372 -11.558056 41.527424
15920000000 -21.04977 -156.37204 -49.839054 152.35916 -51.24424 145.5994 -11.521673 41.584515
15930000000 -20.68631 -155.02104 -49.170162 128.86343 -50.184834 128.50969 -11.584412 41.00211
15940000000 -20.047318 -156.91145 -49.134506 104.91432 -49.35907 106.52263 -11.6569 39.646091
15950000000 -19.825171 -158.19055 -48.817787 85.013039 -48.300587 81.80999 -11.700827 37.674831
15960000000 -19.823753 -157.98195 -48.48473 58.455261 -48.947922 48.053314 -11.660471 35.099495
15970000000 -19.718765 -157.80656 -48.594627 37.39743 -49.614716 32.912697 -11.576518 32.248734
15980000000 -19.618387 -155.37431 -48.911972 16.483648 -49.819099 11.926239 -11.395441 29.945797
15990000000 -19.265373 -155.01799 -48.145306 -5.3681068 -49.117207 -5.162816 -11.163042 28.281982
16000000000 -18.928288 -154.74725 -48.441269 -28.065208 -48.991615 -25.60816 -10.938291 27.656872
16010000000 -18.665251 -155.04413 -48.348091 -48.591461 -47.814682 -50.867378 -10.805772 27.640318
16020000000 -18.312418 -156.51695 -48.081406 -69.391457 -48.611195 -76.401649 -10.817492 27.661367
16030000000 -18.138407 -157.23271 -47.350315 -88.811218 -48.350872 -93.276741 -10.993223 26.866688
16040000000 -17.895849 -158.41185 -47.123466 -116.7714 -47.87265 -118.57586 -11.280374 25.389696
16050000000 -17.780199 -157.52606 -46.963886 -139.34361 -47.959351 -141.66504 -11.543855 23.029722
16060000000 -17.291933 -156.66502 -47.236374 -164.29988 -47.824921 -161.47929 -11.73813 20.609901
16070000000 -16.905382 -157.18004 -47.335587 172.02119 -47.636005 172.76819 -11.82736 18.215313
16080000000 -16.46134 -156.77049 -47.878803 151.46178 -48.43087 151.4615 -11.960977 16.001902
16090000000 -16.201094 -158.15448 -47.644226 137.0614 -47.64859 136.63646 -12.12389 13.676097
16100000000 -15.957845 -157.84491 -46.838993 111.23202 -47.007996 113.10259 -12.26348 11.667985
16110000000 -15.720334 -158.67287 -47.101086 87.533463 -47.238827 89.306023 -12.312257 10.019751
16120000000 -15.551506 -159.22287 -47.267345 65.334297 -46.918758 66.859146 -12.284448 9.630022
16130000000 -15.282248 -159.35246 -47.126808 45.598064 -46.687603 44.066528 -12.271997 10.482409
16140000000 -15.020575 -159.68263 -47.120567 21.780066 -47.39101 20.47176 -12.471478 12.120442
16150000000 -14.591284 -160.84888 -47.66917 2.2009456 -47.651012 3.0248318 -12.853502 13.539389
16160000000 -14.26923 -161.83994 -47.107941 -15.83814 -47.011574 -14.524735 -13.423656 13.490863
16170000000 -13.897194 -163.4603 -47.336349 -40.953415 -47.088333 -39.221127 -14.013076 11.905329
16180000000 -13.646437 -164.05153 -47.125385 -58.963959 -46.982258 -59.230076 -14.405064 9.0813646
16190000000 -13.414644 -165.46036 -46.702915 -80.738777 -46.630741 -80.309372 -14.577774 6.6487594
16200000000 -13.244937 -164.99315 -45.944778 -101.67048 -45.836285 -101.89453 -14.627144 5.243022
16210000000 -12.915802 -165.64619 -46.151409 -128.51289 -46.081055 -128.2363 -14.674235 4.7943201
16220000000 -12.78076 -165.90726 -46.047443 -145.59 -45.95089 -145.14682 -14.736437 4.4592562
16230000000 -12.394938 -166.48763 -45.803886 -171.8757 -45.60754 -171.45717 -14.771269 4.1058507
16240000000 -12.18737 -167.63788 -46.041962 167.31024 -45.974041 167.89363 -14.796664 4.4122763
16250000000 -11.865396 -169.56 -45.608505 145.82277 -45.405949 146.40056 -14.784605 6.1125822
16260000000 -11.736203 -171.50349 -45.591755 123.34549 -45.881863 124.83567 -14.870335 8.7547083
16270000000 -11.563331 -173.16287 -45.848602 101.56087 -45.586277 105.30474 -15.10736 11.203382
16280000000 -11.396525 -174.35831 -45.250256 82.447197 -44.930126 83.747833 -15.600677 12.406059
16290000000 -11.229137 -175.24266 -44.806396 55.696705 -44.60218 58.573463 -16.169094 11.631983
16300000000 -11.014357 -175.3833 -44.809444 29.77581 -44.501797 31.969152 -16.644447 8.7239485
16310000000 -10.64607 -175.81929 -45.146458 4.2350521 -44.812408 7.5835438 -16.856281 5.3366642
16320000000 -10.385388 -176.44148 -45.651115 -18.398624 -45.126022 -13.972336 -16.838404 2.840719
16330000000 -9.9965096 -177.87029 -46.061005 -39.417778 -45.147175 -37.035824 -16.798119 1.3890547
16340000000 -9.891161 -179.80614 -46.225384 -60.373203 -45.211697 -59.9002 -16.78776 0.49243888
16350000000 -9.7855558 178.50159 -46.099487 -81.917938 -45.099998 -82.377464 -16.808756 0.085746452
16360000000 -9.7865877 177.09999 -46.402203 -106.85946 -45.338329 -106.05101 -16.833073 0.1665723
16370000000 -9.7622519 176.14914 -46.981167 -126.40857 -45.830757 -124.7881 -16.909607 0.87757468
16380000000 -9.6536236 175.78609 -46.897854 -147.95305 -45.546616 -150.42812 -17.23465 2.5658619
16390000000 -9.4109049 175.30795 -47.159012 -168.70728 -46.32048 -171.84554 -17.848303 3.8952796
16400000000 -9.095911 174.43365 -47.258034 169.42667 -46.27198 166.82678 -18.708652 3.9249542
16410000000 -8.7191858 172.88301 -47.919479 148.75389 -46.646969 144.54753 -19.680346 1.6480371
16420000000 -8.4955873 170.80896 -47.801922 128.41705 -46.815044 122.69252 -20.414736 -2.2532923
16430000000 -8.333209 168.86937 -48.328083 109.22791 -47.42503 101.12016 -20.86915 -5.4657922
16440000000 -8.3730869 167.56512 -48.31987 91.385551 -47.515816 86.894974 -21.173758 -7.1218534
16450000000 -8.3421192 167.10426 -47.901062 72.328316 -47.102486 64.382332 -21.557482 -7.1816068
16460000000 -8.3164215 167.19136 -47.749237 48.37289 -46.820259 40.248428 -22.112637 -7.0263486
16470000000 -8.1148129 167.24471 -47.99202 25.078257 -47.50647 14.280681 -22.581392 -4.8543382
16480000000 -7.8818593 166.57404 -48.442162 7.777719 -48.234505 -3.1470604 -22.567085 -1.0341738
16490000000 -7.6035357 164.96233 -48.194092 -9.7382975 -47.954121 -20.882406 -22.490498 4.758955
16500000000 -7.4263587 163.05608 -48.093182 -31.336199 -48.465141 -44.192165 -22.508595 13.562775
16510000000 -7.2758703 160.80693 -48.009678 -48.429291 -48.874336 -60.201508 -22.812935 23.314566
16520000000 -7.284636 159.26994 -47.587463 -69.040237 -48.516846 -80.082291 -23.577492 33.146278
16530000000 -7.2105851 158.38362 -47.043442 -90.523743 -48.411125 -100.30007 -24.517149 38.867085
16540000000 -7.1672463 158.2444 -47.149334 -112.12703 -48.573605 -121.64326 -25.433922 38.280796
16550000000 -6.936317 158.29091 -46.160732 -134.13641 -47.611851 -142.73988 -25.847092 33.181213
16560000000 -6.7071152 157.88599 -46.557873 -161.54515 -48.346577 -167.41664 -25.472784 29.873075
16570000000 -6.4478865 156.77313 -46.742085 178.22382 -48.208908 174.16139 -24.864414 29.10166
16580000000 -6.3007894 155.28145 -46.4506 156.92462 -48.092426 155.67583 -24.477627 30.742712
16590000000 -6.1816916 153.74564 -46.661263 133.73897 -47.764816 136.67018 -24.276258 32.211502
16600000000 -6.1656189 152.23647 -46.716354 116.3364 -47.757668 116.13296 -24.083372 33.723568
16610000000 -6.0986671 151.27441 -45.778893 95.225418 -47.088203 96.172859 -23.622238 35.195518
16620000000 -6.0108685 150.53781 -45.632584 72.233437 -46.593708 73.793877 -23.15399 39.100887
16630000000 -5.8109245 149.75958 -45.380718 48.152935 -46.062817 49.018379 -22.82637 45.510963
16640000000 -5.5998254 148.85294 -45.184689 23.498774 -46.050694 26.251947 -22.908985 53.987453
16650000000 -5.3594975 147.57101 -45.55595 -1.0755588 -46.137691 2.7384181 -23.220882 61.732372
16660000000 -5.1835513 146.28694 -45.752304 -22.304131 -46.433716 -21.20944 -24.008457 66.064095
16670000000 -5.0377879 145.11931 -45.92556 -45.09581 -46.429401 -41.730255 -24.933996 66.175705
16680000000 -4.9275789 144.05371 -45.67065 -67.003738 -46.022919 -63.552425 -25.39805 62.140141
16690000000 -4.8054008 143.34914 -45.934517 -88.441208 -46.339077 -87.686783 -25.121384 57.940262
16700000000 -4.674933 142.31316 -45.56514 -110.97234 -45.98954 -107.18742 -24.146801 55.61758
16710000000 -4.5020871 141.2963 -45.787502 -135.36 -45.51265 -133.22453 -23.104782 55.436005
16720000000 -4.3526292 139.92683 -45.323166 -156.76535 -45.563858 -156.02031 -22.343073 56.982414
16730000000 -4.1995802 138.41354 -45.265594 176.01004 -45.319286 178.09505 -21.714005 59.565186
16740000000 -4.0671916 136.96815 -45.758999 149.97462 -46.097179 152.67496 -21.160728 62.03688
16750000000 -3.9500978 135.5761 -46.455338 128.47758 -46.239948 132.23972 -20.860985 64.217354
16760000000 -3.8001473 134.48929 -46.74855 109.6706 -46.265556 111.67635 -20.799791 66.288391
16770000000 -3.6426055 133.33369 -46.523239 86.246452 -46.493641 86.676407 -20.918587 67.785378
16780000000 -3.4723032 132.15343 -46.706432 62.544659 -46.464901 64.191406 -21.297628 67.387527
16790000000 -3.3081872 130.82327 -47.241089 39.979935 -46.937824 39.220905 -21.807409 64.874985
16800000000 -3.1842036 129.33949 -47.034103 17.364618 -47.185165 17.099152 -22.268709 59.701443
16810000000 -3.0725939 127.87595 -47.31435 -5.618784 -47.271519 -6.0742402 -22.613707 53.469589
16820000000 -2.9938345 126.406 -47.288246 -31.502489 -47.833717 -29.860434 -22.567684 47.853233
16830000000 -2.8935831 124.96924 -48.19767 -59.413372 -48.129326 -55.592052 -21.993969 43.133804
16840000000 -2.7767265 123.62138 -49.120857 -77.546707 -48.916542 -75.916862 -21.488493 39.689014
16850000000 -2.6412745 122.14697 -49.09866 -97.356537 -48.622517 -96.755211 -21.261196 40.271835
16860000000 -2.4945996 120.64763 -49.177124 -121.92311 -48.663872 -118.9494 -21.140804 43.574219
16870000000 -2.3509586 119.04105 -49.593025 -145.01038 -49.081394 -145.77469 -21.377327 47.380501
16880000000 -2.2309833 117.44062 -50.120384 -166.86597 -49.988976 -163.20372 -22.032499 50.843399
16890000000 -2.1288261 115.9703 -50.674145 170.97847 -49.812061 174.33965 -23.277607 52.448868
16900000000 -2.0486569 114.61304 -51.712868 145.03995 -50.63007 147.19257 -24.958858 53.540367
16910000000 -1.962371 113.35617 -52.930431 125.93779 -51.678795 122.18598 -26.69348 52.689365
16920000000 -1.8803576 112.05751 -53.415234 107.94808 -52.645447 109.2235 -28.244974 48.262142
16930000000 -1.7755255 110.66374 -53.83453 88.226204 -52.617748 87.04644 -29.68704 42.521542
16940000000 -1.6808649 109.01961 -54.320431 70.106377 -53.11665 66.225121 -30.660103 39.743275
16950000000 -1.5906882 107.31477 -54.289303 50.882198 -53.131493 45.729015 -31.169483 41.659969
16960000000 -1.5052793 105.53162 -54.663322 26.581539 -53.998463 24.356947 -30.912699 50.21891
16970000000 -1.4292656 103.83127 -55.542751 12.599763 -54.313694 8.5774813 -30.063858 64.031387
16980000000 -1.3563681 102.22672 -54.800892 -10.232629 -53.814743 -11.112402 -28.739285 80.445755
16990000000 -1.2725174 100.72537 -55.306854 -33.163364 -54.309959 -37.967167 -26.96533 94.621193
17000000000 -1.1883464 99.311203 -56.433052 -48.123119 -55.464268 -56.255684 -25.556641 105.14487
