!Keysight Technologies,P9374A,MY57211807,A.19.30.04
!Date: Friday, May 08, 2026 14:14:53
!Correction: S11(C  2-Port  ) 
!S21(C  2-Port  ) 
!S12(C  2-Port  ) 
!S22(C  2-Port  ) 
!S2P File: Measurements: S11, S21, S12, S22:
# Hz S  dB   R 50
13000000000 -18.913645 59.794552 -47.187214 174.64275 -45.321739 172.10048 -9.1296139 22.484346
13010000000 -18.846083 60.329475 -46.646053 162.43306 -45.32531 154.52271 -9.1780205 18.260401
13020000000 -19.000561 60.266502 -44.962627 146.25742 -44.333393 138.56013 -9.2805109 14.052976
13030000000 -19.193623 60.235035 -44.064426 119.56543 -43.546329 114.21252 -9.4219437 9.8603077
13040000000 -19.642132 59.602329 -43.902393 97.526939 -43.256744 91.265015 -9.6197214 5.8586168
13050000000 -20.007915 61.679184 -44.178238 71.304817 -43.687408 64.649361 -9.9191179 2.194536
13060000000 -20.26375 63.332779 -44.407749 53.54591 -43.848316 46.792667 -10.281679 -1.3476366
13070000000 -20.028843 64.915482 -43.98637 38.341335 -43.868908 30.35471 -10.67244 -5.0013027
13080000000 -19.762358 64.997223 -43.220364 16.991219 -43.408848 9.3061819 -11.126665 -9.1724958
13090000000 -19.449614 63.104465 -42.734585 -6.0177245 -42.954754 -12.770988 -11.593635 -13.300813
13100000000 -19.449347 61.918083 -42.252216 -30.891129 -42.641689 -35.171761 -12.057726 -16.803764
13110000000 -19.264946 60.791561 -42.661663 -54.182705 -42.653843 -58.495777 -12.567279 -19.773201
13120000000 -19.540699 59.399513 -42.328445 -74.289856 -42.988148 -80.000038 -13.173082 -22.386251
13130000000 -19.390362 60.335926 -42.317287 -96.102547 -42.571312 -98.849854 -13.860087 -24.918814
13140000000 -19.605633 60.9063 -42.315384 -118.13424 -42.509392 -121.31169 -14.606468 -27.911329
13150000000 -19.43627 60.954098 -42.114731 -137.80458 -42.420956 -141.44594 -15.363841 -30.908133
13160000000 -19.627752 61.720753 -41.895916 -160.04628 -42.247185 -164.14891 -16.140427 -33.205379
13170000000 -19.4503 61.230083 -41.554676 177.7672 -42.082073 176.25938 -17.001272 -34.218567
13180000000 -19.527353 60.042454 -41.815502 156.83473 -42.014519 154.43005 -18.029646 -34.290855
13190000000 -19.35269 60.360302 -41.227859 135.30408 -41.668194 132.26134 -19.320097 -33.940559
13200000000 -19.03092 57.467899 -40.820023 113.49362 -41.348515 111.6903 -20.81492 -34.507648
13210000000 -18.954681 55.252098 -40.593822 88.642159 -40.891968 87.967705 -22.433302 -35.97533
13220000000 -18.957867 52.236362 -40.807167 65.600769 -40.856243 63.215778 -24.030355 -35.829201
13230000000 -19.261728 50.015888 -40.827263 43.67704 -41.202686 39.746548 -25.554611 -31.648966
13240000000 -19.623173 49.911678 -40.782166 22.487238 -41.683201 19.986042 -26.983099 -19.54421
13250000000 -19.792051 51.901871 -40.617401 2.7425199 -41.161018 2.5738363 -28.09939 -0.83513021
13260000000 -19.664063 53.205326 -39.910351 -19.698664 -40.311272 -20.334152 -28.506037 24.555738
13270000000 -19.401052 54.063408 -39.70369 -44.672703 -40.202023 -45.178753 -27.827955 47.388954
13280000000 -18.888445 51.590927 -39.633274 -70.680359 -40.237663 -70.801147 -26.491764 62.905399
13290000000 -18.971615 46.225159 -40.203197 -94.306961 -40.716217 -94.025955 -24.949678 69.361206
13300000000 -19.205908 43.072094 -40.125362 -115.72618 -40.71719 -114.0498 -23.461878 69.821754
13310000000 -19.764297 39.752686 -40.42881 -139.68561 -40.886326 -136.66315 -21.88274 69.167732
13320000000 -20.062111 39.91608 -40.749954 -158.67412 -41.134518 -156.76601 -20.326385 69.040207
13330000000 -20.228603 39.455219 -40.357288 -178.9166 -40.820484 -175.06161 -19.075096 69.640289
13340000000 -20.149319 41.934471 -40.015106 157.45581 -40.343819 161.24838 -18.142408 70.260582
13350000000 -19.86166 38.911343 -40.182964 131.34241 -40.16473 136.79927 -17.494026 69.93853
13360000000 -19.875298 38.775688 -40.495758 109.31854 -40.388992 114.09814 -16.896759 67.746567
13370000000 -19.989069 34.854549 -40.892521 88.927307 -40.505356 91.938538 -16.24584 63.485039
13380000000 -20.150915 34.438091 -40.655872 69.409058 -40.432358 70.862991 -15.507588 59.496338
13390000000 -20.734095 31.52257 -40.524509 43.81839 -40.357803 49.058533 -14.735406 56.516407
13400000000 -20.686766 34.305893 -40.983013 21.755259 -40.42271 25.294155 -14.020774 54.743279
13410000000 -20.651609 28.489809 -41.028255 1.7481006 -40.501019 6.0520401 -13.497387 53.172661
13420000000 -21.069279 28.289297 -41.008652 -18.782883 -40.122467 -16.235029 -13.183582 51.036293
13430000000 -21.151688 22.026659 -40.548141 -39.856968 -39.772644 -39.122898 -12.974337 47.907024
13440000000 -21.945242 20.937946 -40.579487 -64.791237 -39.810181 -63.020901 -12.821019 44.071007
13450000000 -22.533913 21.902002 -40.97673 -88.788025 -39.752308 -87.124176 -12.605436 40.017391
13460000000 -22.440748 26.430426 -41.176682 -109.13165 -39.936283 -110.0522 -12.326878 36.527084
13470000000 -22.163614 25.016605 -40.940605 -131.4156 -39.772991 -134.17574 -12.075457 33.569817
13480000000 -21.710331 25.141987 -41.245586 -153.72975 -40.208858 -157.79485 -11.948451 30.737782
13490000000 -21.92696 17.015041 -41.705578 -175.37488 -40.60088 -179.71181 -11.970273 28.014036
13500000000 -22.351511 14.626618 -41.580311 166.23274 -40.677074 159.66594 -12.110677 25.446358
13510000000 -23.455936 9.6451683 -41.235596 146.93938 -40.564686 139.67722 -12.183 22.930086
13520000000 -24.571928 11.370983 -40.836189 121.82298 -40.28038 114.22094 -12.252794 20.182234
13530000000 -25.415714 14.492554 -41.125454 97.189232 -40.540833 89.758842 -12.409984 17.853273
13540000000 -24.824909 18.912544 -41.243748 77.293915 -40.90815 67.889671 -12.594902 16.333729
13550000000 -24.763 16.954878 -40.942009 56.031754 -40.956928 46.234097 -12.784164 15.262422
13560000000 -23.826757 15.591633 -40.905392 30.094179 -41.448776 21.325321 -13.026645 14.001783
13570000000 -25.066874 9.2600698 -41.428314 9.4999399 -41.593353 3.1384964 -13.25036 12.666368
13580000000 -24.830057 10.975918 -41.323517 -13.048257 -41.662868 -21.660625 -13.448915 11.545188
13590000000 -26.169703 8.4586296 -41.060177 -32.772873 -41.868938 -40.70256 -13.592033 11.045042
13600000000 -25.756496 11.711756 -40.757183 -58.569031 -41.755791 -63.896133 -13.638909 11.063257
13610000000 -27.141043 11.906649 -40.656425 -83.720085 -41.550167 -87.44178 -13.661153 11.397541
13620000000 -27.079985 13.929557 -41.24242 -107.70464 -42.206085 -111.40231 -13.730231 12.059694
13630000000 -28.483713 15.362571 -41.63604 -131.60712 -42.824192 -134.43346 -13.757151 12.813191
13640000000 -27.683563 19.949863 -41.665192 -153.49504 -43.126118 -154.26892 -13.746476 13.041327
13650000000 -28.302912 19.751854 -41.725132 -176.56299 -42.670261 -173.88664 -13.705972 12.480323
13660000000 -26.847351 18.788197 -42.137665 159.84761 -42.821728 163.14807 -13.5976 11.687914
13670000000 -27.64954 11.053745 -42.403778 137.60728 -42.964779 138.50017 -13.400534 11.013157
13680000000 -27.789656 11.111543 -42.812622 113.80445 -43.863094 117.00233 -13.133411 10.47959
13690000000 -28.700304 9.712615 -43.199997 90.515114 -43.703014 97.635155 -12.845906 9.6293364
13700000000 -29.367077 18.97562 -43.963219 67.98098 -44.141674 73.704132 -12.662193 8.4444618
13710000000 -28.832981 27.096888 -44.893234 48.500969 -44.764053 54.942207 -12.539293 6.9919629
13720000000 -27.656252 25.288067 -44.674809 29.41589 -44.427635 34.660507 -12.409902 4.9032054
13730000000 -28.384451 23.224195 -45.49984 5.7035146 -44.827248 11.701094 -12.278577 2.2226908
13740000000 -27.717649 23.529312 -45.747292 -9.811738 -45.139721 -9.5947056 -12.169325 -0.48791003
13750000000 -29.123056 19.395472 -46.115562 -32.387299 -45.477985 -29.070358 -12.061152 -2.7992952
13760000000 -28.772417 23.408344 -46.529774 -47.691624 -45.157166 -47.36298 -12.021541 -5.1216969
13770000000 -28.769243 21.995327 -45.939289 -66.357758 -45.15078 -71.024307 -12.105318 -7.8632083
13780000000 -28.242027 16.672449 -46.213421 -90.811676 -45.742222 -93.929726 -12.298637 -11.171435
13790000000 -28.217272 13.08853 -46.6245 -109.13605 -46.010132 -111.27598 -12.538834 -14.741454
13800000000 -29.151173 4.9340582 -46.549213 -126.01884 -45.987854 -130.1727 -12.751907 -18.390097
13810000000 -29.946806 14.624053 -46.09 -145.51003 -45.661114 -151.31233 -12.864841 -21.206648
13820000000 -29.030319 13.783517 -45.652206 -165.18066 -45.76825 -170.27028 -12.993812 -23.740513
13830000000 -28.257805 25.338577 -45.217663 171.90738 -45.171509 165.96443 -13.272081 -26.062733
13840000000 -26.273432 12.28075 -45.268795 147.47771 -45.801895 144.10385 -13.719867 -28.129148
13850000000 -26.693745 6.2349186 -45.33279 128.10753 -45.844086 127.17458 -14.260808 -29.988792
13860000000 -26.415033 -7.255425 -45.043919 104.35892 -45.196896 104.47586 -14.781994 -32.260921
13870000000 -28.754642 -14.331903 -45.519611 84.85199 -45.696518 82.650307 -15.259414 -34.09185
13880000000 -30.304779 -15.327942 -44.951962 63.813507 -45.0896 63.941219 -15.701264 -35.424675
13890000000 -31.264685 5.649951 -44.88731 40.829876 -45.480762 43.096935 -16.192194 -36.073971
13900000000 -28.856909 -1.3331157 -44.337738 21.23118 -44.082706 25.305353 -16.775221 -35.81741
13910000000 -28.301401 0.26122266 -44.127857 -4.652935 -43.709991 -2.8606279 -17.384651 -35.563923
13920000000 -27.060431 -13.22388 -43.860718 -27.505692 -43.394077 -28.248989 -17.933449 -35.360027
13930000000 -28.158375 -21.803841 -44.043728 -56.777447 -43.844147 -54.876476 -18.33173 -35.290951
13940000000 -28.248974 -30.318907 -44.771397 -74.261269 -44.319084 -73.094513 -18.647329 -34.078236
13950000000 -30.256697 -33.667088 -44.330437 -94.530396 -43.692951 -93.185699 -18.77453 -31.453615
13960000000 -30.126791 -35.326363 -44.574535 -115.70871 -43.530266 -116.36675 -18.853783 -28.354839
13970000000 -30.180872 -37.14307 -43.270939 -137.90407 -42.428059 -140.62497 -19.032978 -25.13508
13980000000 -29.463852 -49.526333 -43.028019 -165.1302 -42.508312 -169.19496 -19.264408 -22.47226
13990000000 -30.125156 -58.610283 -42.879192 167.83861 -42.472179 164.7536 -19.548237 -20.701752
14000000000 -30.316111 -66.963249 -43.533581 143.56319 -42.966354 140.50636 -19.753506 -19.638231
14010000000 -31.137917 -63.897533 -43.302685 121.14034 -42.615444 115.57916 -19.826857 -20.002605
14020000000 -30.38488 -58.95348 -43.317688 97.150177 -42.880787 91.31514 -19.864088 -20.772688
14030000000 -29.01396 -58.630508 -42.631176 70.608864 -42.404064 65.320236 -19.846828 -21.196823
14040000000 -27.711124 -66.926193 -43.389523 43.42527 -43.314259 38.465794 -19.882639 -21.868702
14050000000 -27.350334 -77.140251 -43.442535 21.510979 -43.526756 17.525875 -19.951923 -22.710718
14060000000 -28.078341 -92.501984 -43.178638 -3.8939114 -43.044601 -8.3377447 -20.141602 -23.661257
14070000000 -30.020901 -99.555466 -43.226658 -27.620424 -42.959095 -31.531551 -20.30534 -24.557774
14080000000 -30.972769 -114.28303 -42.673363 -57.478603 -42.655899 -62.611954 -20.368269 -25.594999
14090000000 -34.167038 -104.95045 -43.743824 -88.688004 -43.576336 -93.074715 -20.40258 -26.681467
14100000000 -32.360798 -104.60426 -44.094418 -111.02384 -44.495296 -116.68828 -20.428347 -27.346115
14110000000 -31.381016 -100.35383 -44.691177 -137.37199 -44.979729 -139.13951 -20.496979 -27.102266
14120000000 -29.025152 -112.70692 -44.979885 -159.50272 -44.661896 -163.39191 -20.715317 -27.032433
14130000000 -28.60664 -117.97752 -44.878719 174.86922 -44.806198 169.21957 -21.085182 -27.171045
14140000000 -27.313742 -129.77367 -45.279991 146.918 -45.047352 140.70644 -21.453564 -28.664726
14150000000 -28.485918 -134.36099 -45.73679 120.2807 -46.09684 114.00974 -21.760057 -32.0354
14160000000 -27.194605 -139.88713 -46.295692 96.904617 -46.426208 90.783798 -21.891573 -35.159569
14170000000 -28.950827 -149.50777 -46.677547 72.777725 -46.798801 65.513947 -21.88393 -38.204479
14180000000 -28.920094 -151.51628 -46.671425 46.217201 -47.285809 39.702766 -22.143015 -39.743698
14190000000 -30.146414 -153.94356 -47.025795 24.75403 -47.409775 21.067465 -22.743031 -40.822483
14200000000 -29.487 -152.21426 -46.606045 -7.1159 -46.759422 -13.424109 -23.712761 -42.812851
14210000000 -29.675047 -150.29636 -47.486374 -33.626884 -48.0172 -42.525654 -25.062429 -47.943928
14220000000 -27.978075 -149.12332 -47.953232 -58.552841 -48.999153 -67.118019 -26.675299 -56.116169
14230000000 -27.183388 -157.47606 -47.784218 -81.716576 -48.989635 -87.562744 -28.140127 -64.830307
14240000000 -26.697336 -161.73004 -47.715302 -108.05685 -48.640663 -113.11697 -29.5562 -73.817871
14250000000 -26.400272 -168.21854 -47.659447 -139.27696 -49.027859 -146.75537 -31.34481 -85.557205
14260000000 -27.109118 -174.94759 -48.10149 -162.75537 -50.130016 -168.69539 -34.356617 -106.27563
14270000000 -27.891678 -173.86873 -48.341488 165.20554 -50.40958 170.25162 -36.069408 -143.57835
14280000000 -28.03615 -177.65042 -49.004887 142.26341 -49.550232 144.35577 -34.066166 -178.2104
14290000000 -28.403786 -174.53398 -48.192543 117.68922 -49.422253 117.94398 -31.504677 162.36778
14300000000 -28.811441 -178.10675 -48.249561 89.647446 -49.533192 91.593735 -29.780411 148.10326
14310000000 -28.484026 -172.50925 -47.43399 60.666172 -48.599152 61.913391 -28.353209 133.80075
14320000000 -28.229757 -177.92123 -47.771973 29.834024 -49.337658 29.827229 -26.506844 121.65662
14330000000 -27.224535 -173.28787 -48.726391 0.36177343 -49.808258 5.2864814 -24.512207 112.33531
14340000000 -26.759304 177.20503 -49.130348 -23.7374 -50.173889 -22.453072 -22.768835 106.80154
14350000000 -26.360838 177.47296 -49.157627 -41.575451 -50.202969 -32.229389 -21.422421 103.44493
14360000000 -26.674028 165.2057 -48.532024 -70.259415 -48.957592 -60.955559 -20.411657 102.07387
14370000000 -27.91791 167.4501 -48.462276 -94.483162 -48.126522 -92.613144 -19.526377 99.552147
14380000000 -29.031155 160.27916 -47.589211 -124.84836 -48.209751 -123.52041 -18.93993 95.594872
14390000000 -30.394499 179.77487 -48.167034 -145.41595 -48.579788 -143.50056 -18.436047 90.878624
14400000000 -28.913698 -178.12245 -47.1003 -175.63377 -47.559151 -170.40414 -17.942284 85.576813
14410000000 -27.656013 -175.73096 -47.48962 158.26491 -47.499622 162.68028 -17.47838 81.132645
14420000000 -26.831991 175.32848 -46.822056 132.41441 -47.004623 134.94258 -16.990499 77.467659
14430000000 -26.430082 170.60849 -46.743301 112.22555 -46.645187 113.0384 -16.504265 74.781731
14440000000 -27.089041 159.97069 -45.69334 81.801453 -46.319061 83.254028 -16.044344 71.768959
14450000000 -27.964804 165.34897 -45.0644 54.071575 -45.814224 57.063713 -15.746179 68.280571
14460000000 -28.785547 164.93958 -45.249386 23.973528 -45.430954 29.554636 -15.530858 65.149445
14470000000 -28.689503 178.0976 -45.301907 0.64587539 -45.444847 2.22539 -15.356383 62.469593
14480000000 -27.627052 -179.0058 -44.578979 -28.150887 -45.082684 -24.708719 -15.241029 60.154522
14490000000 -26.939304 -179.59743 -44.574028 -56.135105 -44.502373 -51.251385 -15.233416 58.546284
14500000000 -26.568104 179.78859 -44.198681 -85.69593 -44.321224 -81.635307 -15.280715 56.663044
14510000000 -26.295298 176.4532 -44.515205 -113.41004 -44.526772 -109.04925 -15.447855 54.456112
14520000000 -26.848509 175.84004 -44.061108 -137.72157 -44.222794 -135.60843 -15.543298 52.204628
14530000000 -26.158405 173.28801 -43.859795 -166.71127 -44.102638 -161.28674 -15.476295 49.794483
14540000000 -26.981344 173.40286 -43.957363 163.29822 -43.991646 170.04445 -15.28446 47.807915
14550000000 -26.403454 174.0239 -44.292011 134.57053 -43.862152 140.66373 -15.120584 46.505199
14560000000 -26.636095 177.52132 -44.427277 109.15781 -43.894913 113.3285 -15.050838 46.38073
14570000000 -25.333199 179.1377 -44.205765 84.711876 -43.854115 86.356804 -15.059288 46.716774
14580000000 -25.021118 -179.31647 -43.590473 55.267246 -43.617619 60.286835 -15.093095 46.855442
14590000000 -23.862253 176.91103 -43.532906 22.9935 -43.084709 27.099924 -15.134567 46.333
14600000000 -23.889688 176.48378 -43.95771 -7.5854101 -43.788921 -3.9939225 -15.073104 45.749344
14610000000 -23.322205 170.2476 -44.577332 -35.776585 -44.150131 -30.648756 -14.989552 44.962376
14620000000 -24.288494 170.47217 -44.880051 -64.182884 -44.167545 -59.569263 -14.839184 44.302677
14630000000 -23.812824 170.75658 -45.231064 -91.926872 -44.546551 -89.522591 -14.768535 43.085789
14640000000 -24.181965 172.08446 -45.588947 -117.56403 -44.907757 -114.34017 -14.791633 42.134357
14650000000 -23.39093 174.3149 -46.077747 -144.90152 -45.364643 -142.04253 -14.720993 41.059925
14660000000 -22.722853 172.25346 -45.733532 -170.47191 -44.961037 -166.79102 -14.543075 39.704586
14670000000 -22.375521 169.50946 -45.419708 158.95842 -44.402573 161.8894 -14.251008 38.175991
14680000000 -21.903049 167.7821 -45.43829 126.12756 -44.785542 126.8688 -13.978364 36.7411
14690000000 -21.672695 165.01622 -46.044197 93.228546 -45.447628 96.287071 -13.832216 35.37537
14700000000 -21.436083 162.34743 -47.836216 63.200451 -46.821911 69.169525 -13.824351 34.486462
14710000000 -21.450655 159.67372 -48.15123 40.638702 -46.704601 43.518764 -13.852688 33.772514
14720000000 -21.836399 156.54515 -48.277279 13.411318 -46.756916 15.725746 -13.91367 32.406487
14730000000 -22.113874 158.58867 -48.274025 -14.629678 -47.156414 -14.074004 -13.990958 30.639734
14740000000 -21.87414 157.93243 -48.567688 -44.344788 -47.731567 -39.65818 -14.105535 28.207539
14750000000 -21.685341 160.23936 -49.812843 -69.341988 -47.773735 -65.257774 -14.226075 25.492584
14760000000 -20.719296 158.70639 -49.635811 -95.586845 -47.843918 -95.653328 -14.358095 23.013094
14770000000 -20.278978 154.46582 -49.130455 -127.27082 -48.020306 -125.63334 -14.428286 21.41234
14780000000 -19.719488 148.30724 -49.276833 -153.68057 -47.79047 -152.33893 -14.389653 20.311302
14790000000 -20.084669 141.32008 -50.447891 174.34068 -48.338589 177.7636 -14.451473 19.230686
14800000000 -20.721361 140.05293 -51.35553 145.85406 -48.775127 147.58575 -14.682806 18.325478
14810000000 -21.45262 141.53539 -51.502113 120.68456 -48.999783 118.00418 -14.97549 17.591076
14820000000 -21.345238 146.20593 -53.007488 100.60403 -50.646347 92.251221 -15.341581 16.91062
14830000000 -20.805817 149.105 -53.861759 70.995491 -50.563381 69.413551 -15.584239 16.499151
14840000000 -19.87561 146.08099 -54.310383 61.168873 -51.437843 46.014698 -15.770479 15.760209
14850000000 -19.82736 139.30991 -52.622799 43.850544 -50.407944 26.729553 -16.085974 15.170834
14860000000 -19.913324 135.0634 -51.077621 13.390081 -49.949104 -3.3199818 -16.487513 15.461834
14870000000 -20.555624 128.59096 -52.089443 -34.220184 -50.052952 -42.052731 -16.952988 15.499229
14880000000 -21.157326 128.78372 -56.855713 -46.879555 -52.458668 -70.452286 -17.289576 14.816192
14890000000 -21.298237 128.73213 -55.471123 -52.074253 -54.510426 -86.671631 -17.410217 13.47832
14900000000 -21.087423 129.06886 -53.885559 -70.858788 -53.866566 -102.04855 -17.387016 12.501765
14910000000 -20.869495 128.47224 -52.705856 -92.52301 -53.545986 -126.24641 -17.43799 13.579809
14920000000 -20.618067 124.77514 -51.871613 -121.93097 -53.906815 -149.91805 -17.550003 16.551767
14930000000 -21.024208 124.04749 -52.35202 -154.20462 -54.781517 -171.203 -17.848705 19.899166
14940000000 -21.031126 123.76595 -52.111397 -168.59323 -54.858906 171.76286 -18.340923 22.889612
14950000000 -21.116999 125.53105 -50.809937 161.67502 -52.973488 151.74449 -18.792133 25.055676
14960000000 -20.823847 121.59398 -50.831352 135.15579 -53.695686 118.23417 -19.082281 25.508266
14970000000 -21.130381 119.94549 -50.922592 107.57983 -54.810768 102.36259 -19.290695 26.473392
14980000000 -21.591024 112.36613 -51.994446 79.827881 -54.877079 76.403206 -19.383154 28.603069
14990000000 -22.833805 113.33601 -51.913712 62.584568 -55.72979 68.346352 -19.442522 32.039639
15000000000 -23.596508 113.02018 -51.62981 44.383572 -53.886017 56.790134 -19.557613 35.521988
15010000000 -23.822433 121.58952 -50.728668 15.823217 -52.808052 22.630886 -19.564205 37.579517
15020000000 -23.082586 121.61603 -50.415947 -9.6708841 -52.242062 0.88712633 -19.392067 38.240105
15030000000 -22.325838 121.64515 -50.83849 -31.967072 -52.050762 -19.185331 -18.938587 38.976727
15040000000 -21.877249 113.85468 -50.694752 -59.744053 -51.468845 -45.967525 -18.267559 40.103779
15050000000 -22.500637 109.71844 -50.753975 -82.985077 -50.706367 -73.706451 -17.725332 42.852394
15060000000 -23.493727 106.47649 -51.357491 -113.46227 -51.515694 -100.93956 -17.391581 46.42345
15070000000 -24.884657 111.00275 -50.693707 -130.7126 -50.848598 -122.73009 -17.200623 49.414558
15080000000 -25.447712 119.65621 -51.717236 -163.66675 -50.944401 -151.71588 -17.122726 50.451359
15090000000 -24.549038 126.22101 -52.324837 -176.04221 -51.660656 -167.81964 -17.088152 49.940136
15100000000 -24.16573 124.94579 -51.970905 159.35492 -50.705162 167.69981 -16.852358 48.677788
15110000000 -23.978415 123.63961 -51.714317 132.05931 -50.731583 139.10489 -16.570169 47.008789
15120000000 -24.159735 121.47944 -51.83733 109.18969 -50.554955 111.22767 -16.277586 46.417084
15130000000 -24.228523 118.45741 -52.906471 85.284782 -51.860775 88.3797 -15.971696 45.688663
15140000000 -24.869631 119.85738 -52.218803 62.01141 -50.696587 64.433258 -15.747134 44.517334
15150000000 -24.571625 120.79543 -52.656673 38.03656 -51.467468 35.536667 -15.547203 43.242935
15160000000 -25.018452 122.1949 -52.929329 3.3859246 -51.725876 2.1344337 -15.326408 42.241035
15170000000 -24.817739 124.93124 -55.511234 0.0063533015 -54.301285 -11.675897 -15.078748 41.415951
15180000000 -24.671577 128.84743 -52.906029 -31.863878 -51.986526 -37.944748 -14.964491 41.318409
15190000000 -23.918266 130.68484 -54.169552 -63.279804 -53.791786 -66.353874 -14.925823 41.327564
15200000000 -23.432238 131.96945 -55.328056 -84.574806 -53.696453 -91.072678 -15.025693 40.694172
15210000000 -22.663998 126.97322 -55.680874 -98.693016 -56.200836 -120.16022 -15.192616 39.850426
15220000000 -23.173368 124.21626 -56.347477 -132.77911 -55.439194 -138.29883 -15.317283 38.254005
15230000000 -23.194778 121.44434 -56.211544 -148.21754 -57.119549 -156.62044 -15.465743 36.55101
15240000000 -24.055187 122.20636 -57.042095 176.13748 -57.260849 173.72937 -15.530926 35.396812
15250000000 -23.957531 124.06891 -59.131714 149.38072 -60.235447 135.53891 -15.506904 34.033173
15260000000 -23.705048 127.77582 -62.795174 115.44285 -64.278633 120.55915 -15.531453 33.207275
15270000000 -23.043802 126.23965 -63.360767 114.09577 -65.138054 107.13538 -15.41124 33.695969
15280000000 -22.51285 123.4353 -65.659302 100.20261 -66.652489 115.2238 -15.207405 34.353329
15290000000 -22.548878 118.88402 -66.094521 79.43512 -67.198311 92.628944 -15.185313 35.159714
15300000000 -22.500984 117.90231 -67.944038 55.533627 -66.240562 63.071239 -15.306173 36.574955
15310000000 -22.740883 116.25423 -72.593727 87.739906 -75.679092 79.99575 -15.533859 37.564262
15320000000 -22.515869 115.83492 -78.454933 122.87013 -70.235146 111.65455 -15.748296 38.218697
15330000000 -22.713634 113.90328 -64.470215 86.389336 -62.927906 85.193703 -15.904509 37.841721
15340000000 -22.550741 109.84851 -63.616898 47.254738 -64.218185 45.012814 -15.889593 37.718678
15350000000 -23.648705 109.60091 -67.613647 -2.7292354 -70.955841 2.2021008 -15.736397 37.579628
15360000000 -23.601793 108.05346 -64.271973 35.315651 -64.12706 31.095098 -15.639154 36.978317
15370000000 -24.434704 113.4397 -59.451614 -4.8365469 -60.956673 -0.79700434 -15.669859 36.459362
15380000000 -23.186001 113.37759 -61.372543 -68.15741 -61.872547 -66.068192 -15.709048 36.282471
15390000000 -23.026869 110.04779 -69.330589 -110.59585 -70.443512 -92.23436 -15.528167 35.746006
15400000000 -22.258635 102.75472 -80.020851 21.71032 -75.83744 31.884382 -15.247491 35.540546
15410000000 -23.097788 93.415115 -63.523243 -5.1106539 -62.366604 -4.938508 -14.933169 36.015701
15420000000 -24.071321 86.707497 -61.100197 -46.33453 -59.127731 -56.160416 -14.795585 36.899406
15430000000 -26.136312 89.944679 -60.488998 -84.402008 -60.459068 -93.67794 -14.859103 37.762127
15440000000 -26.632128 95.265259 -62.91127 -87.112747 -62.314278 -102.25209 -15.164397 38.275902
15450000000 -26.627493 105.05709 -61.374393 -94.619392 -62.044765 -99.806694 -15.410101 37.479206
15460000000 -25.162235 102.05373 -56.930473 -108.19162 -56.235668 -111.24013 -15.559933 35.777241
15470000000 -25.184523 97.868904 -53.842274 -134.41896 -53.805103 -142.94876 -15.524981 33.701626
15480000000 -24.964909 85.989655 -52.215458 -175.00415 -52.260708 175.65804 -15.392443 32.353443
15490000000 -26.679523 77.109848 -51.586277 151.21391 -53.215595 144.26363 -15.347112 31.922665
15500000000 -28.398153 72.981094 -53.360283 122.95899 -53.732876 115.99834 -15.365619 32.489716
15510000000 -30.633823 81.459602 -53.274033 118.8842 -54.434208 122.17085 -15.345129 33.22438
15520000000 -30.495901 84.370712 -51.567478 98.976959 -51.532776 93.898033 -15.319447 33.419071
15530000000 -30.0249 90.286118 -49.023918 77.417099 -50.150475 74.407303 -15.315372 34.012493
15540000000 -30.311993 74.376732 -48.52243 39.76548 -49.286297 39.533607 -15.277176 35.067307
15550000000 -32.514156 78.262527 -48.427837 14.26268 -49.270893 18.036537 -15.360826 36.127747
15560000000 -34.646774 64.79689 -48.445522 -10.478543 -48.531132 -8.1066141 -15.542068 37.747009
15570000000 -38.517193 101.42 -48.308357 -33.507706 -48.67025 -31.716288 -15.683733 38.788219
15580000000 -38.207924 95.980362 -48.154507 -58.89761 -48.175159 -56.315071 -15.854025 38.327587
15590000000 -36.605347 114.03262 -48.359917 -76.225739 -48.484043 -74.550171 -15.994654 37.673103
15600000000 -36.9701 77.893303 -47.200264 -99.928947 -47.417847 -98.141953 -15.963405 36.384968
15610000000 -43.415615 61.195683 -46.839485 -123.40895 -46.83519 -119.74683 -15.857806 35.421432
15620000000 -39.855606 -27.604668 -45.97834 -148.66188 -45.426941 -147.22548 -15.627918 35.008739
15630000000 -36.040806 -108.81551 -45.939301 -175.37613 -45.786491 -175.4314 -15.409362 35.119766
15640000000 -34.698132 -125.79462 -46.418453 160.29451 -46.082092 163.46191 -15.255016 36.3522
15650000000 -31.968586 -153.66754 -45.62587 138.4964 -45.253502 137.84975 -15.10931 37.531128
15660000000 -34.721031 -166.84686 -45.184132 116.17381 -44.815113 116.78622 -15.170519 38.235165
15670000000 -33.956505 -169.52995 -45.1054 86.572571 -44.674347 84.855675 -15.403394 39.009041
15680000000 -38.571922 -144.04286 -45.909462 66.466133 -45.430332 61.791103 -15.593453 39.223846
15690000000 -33.368267 -127.64184 -46.063354 43.84758 -46.042645 42.958408 -15.772655 38.727493
15700000000 -30.026737 -122.0658 -45.740192 27.087536 -45.194752 24.057978 -15.849526 38.684288
15710000000 -27.412485 -134.56903 -44.964828 4.19628 -44.698856 0.49657625 -15.785423 38.500347
15720000000 -26.623823 -143.16141 -44.178341 -23.436831 -44.107525 -25.850058 -15.861096 38.339378
15730000000 -26.526379 -150.87843 -44.20702 -50.167049 -44.045185 -52.778275 -15.942675 38.887886
15740000000 -27.076687 -151.65776 -44.552776 -76.017204 -44.55928 -78.646355 -15.901 39.171917
15750000000 -27.073025 -151.20049 -45.526688 -96.720215 -45.130428 -98.652824 -15.757124 39.181057
15760000000 -26.889135 -146.90839 -44.919849 -113.24711 -45.026237 -116.77508 -15.48055 39.950645
15770000000 -26.137926 -145.89343 -44.318176 -138.91628 -44.373379 -141.73878 -15.141652 41.683083
15780000000 -25.367954 -146.08305 -44.215141 -163.88846 -44.316914 -165.0099 -14.92752 44.358032
15790000000 -24.67243 -149.00435 -44.536339 172.58241 -44.681664 171.31424 -14.819751 47.210934
15800000000 -24.283092 -148.89784 -44.275032 151.30605 -44.12289 150.84781 -14.894749 48.918266
15810000000 -23.602579 -152.01572 -44.128784 125.53104 -43.944889 121.40897 -15.063475 49.444923
15820000000 -23.324152 -151.26421 -44.299797 101.39835 -44.345665 97.113815 -15.070724 48.54623
15830000000 -22.809355 -153.86819 -44.883907 77.899033 -45.156628 75.267426 -14.929057 46.471439
15840000000 -22.619942 -153.18575 -45.265583 58.530678 -45.435211 56.657658 -14.659018 44.945255
15850000000 -22.436049 -156.95689 -44.962437 38.793072 -44.99614 35.625355 -14.279167 44.227478
15860000000 -22.729904 -153.57602 -44.38932 20.767065 -44.690247 17.03838 -13.893922 43.645397
15870000000 -22.425985 -155.46413 -43.671043 -9.3580256 -44.256359 -13.50079 -13.604293 43.345726
15880000000 -22.450867 -150.50977 -44.377529 -34.670494 -44.988213 -34.111221 -13.313597 43.207996
15890000000 -21.758608 -152.86525 -44.93187 -55.694939 -45.210629 -55.932552 -13.021187 42.825981
15900000000 -21.389843 -152.45094 -44.756664 -75.817665 -44.952908 -76.365982 -12.810625 42.356697
15910000000 -20.987883 -155.88976 -44.719097 -97.331329 -45.48616 -98.90303 -12.661825 41.937145
15920000000 -20.672483 -156.11937 -44.819263 -121.69736 -45.229748 -119.42541 -12.612851 41.479237
15930000000 -20.53014 -159.02583 -45.504131 -141.13158 -45.483677 -139.49483 -12.572607 40.65345
15940000000 -20.470814 -157.04713 -44.828659 -161.33562 -44.903111 -160.93459 -12.586181 39.145496
15950000000 -20.196083 -158.55025 -44.734531 174.38826 -44.819576 174.88963 -12.589884 36.894054
15960000000 -20.212358 -156.5813 -44.229897 151.4702 -44.20591 154.13885 -12.563474 34.206974
15970000000 -19.820574 -155.32198 -44.763424 126.67202 -44.428455 128.13782 -12.458889 31.362255
15980000000 -19.67157 -153.12616 -45.007362 107.37539 -44.801594 107.75335 -12.28261 28.754116
15990000000 -18.96801 -152.53409 -45.066463 86.195953 -44.585873 87.853004 -12.09408 27.110327
16000000000 -18.756388 -153.65298 -44.445896 68.618942 -44.212868 65.473137 -11.916325 26.005066
16010000000 -18.295053 -155.10986 -44.009857 43.899784 -43.738049 43.42334 -11.861282 25.34174
16020000000 -18.177931 -157.90894 -43.963131 21.228039 -43.549774 19.613066 -11.935248 24.723648
16030000000 -18.234528 -158.28835 -43.922619 -2.766984 -43.481922 -5.6300159 -12.105467 23.413912
16040000000 -18.182026 -157.59074 -43.733833 -25.579828 -43.484077 -28.072088 -12.312439 21.072876
16050000000 -17.84404 -156.43959 -43.161842 -49.962891 -42.960121 -50.627403 -12.557722 18.201817
16060000000 -17.406298 -154.74556 -43.636269 -73.311005 -43.134617 -76.322571 -12.722525 15.803787
16070000000 -16.699331 -154.98544 -43.346989 -95.426102 -42.92868 -99.935486 -12.813426 13.50501
16080000000 -16.275751 -156.39372 -42.806999 -117.91057 -42.851879 -123.16995 -12.939692 11.473117
16090000000 -15.983679 -157.85579 -42.639767 -143.99086 -42.723236 -146.79825 -13.092304 9.009387
16100000000 -15.932482 -158.84575 -42.681633 -168.88937 -42.620537 -171.11382 -13.256086 6.5799656
16110000000 -15.83859 -158.92812 -42.275974 165.16548 -42.290527 161.82021 -13.411027 4.5986185
16120000000 -15.572742 -157.97264 -42.721268 141.72263 -42.710968 137.1852 -13.480609 3.9505332
16130000000 -15.157977 -158.43193 -42.852982 116.59565 -43.198608 113.43853 -13.592961 4.3618922
16140000000 -14.776164 -159.1217 -42.845444 95.512413 -43.172565 93.843414 -13.836799 5.4944324
16150000000 -14.436456 -161.61627 -42.687965 70.541214 -42.866955 70.450882 -14.244502 5.8886399
16160000000 -14.249665 -163.03967 -42.376431 47.4035 -42.522415 45.840202 -14.767447 5.0618129
16170000000 -14.085217 -163.49001 -42.05463 21.25153 -42.182186 19.636852 -15.288123 2.5636656
16180000000 -13.849959 -162.79083 -41.914078 -6.983603 -42.20602 -7.5218296 -15.67078 -0.25519392
16190000000 -13.339258 -162.72913 -42.076584 -35.786995 -42.19392 -36.012684 -15.872622 -2.0828445
16200000000 -12.933362 -163.40022 -42.95153 -63.02409 -42.841827 -62.855225 -15.94507 -2.7255809
16210000000 -12.49508 -165.90491 -43.616722 -85.236778 -43.448196 -87.071793 -16.053068 -3.0367079
16220000000 -12.480533 -167.46251 -43.538944 -104.75861 -43.689716 -107.51868 -16.197432 -3.4850402
16230000000 -12.359656 -169.41634 -43.028339 -128.85242 -43.289799 -129.21288 -16.352039 -4.1111708
16240000000 -12.51097 -168.94168 -42.69117 -157.05055 -42.709892 -155.75652 -16.480499 -4.4986305
16250000000 -12.264608 -169.21529 -42.684364 175.6199 -42.431667 176.00818 -16.564264 -3.4583766
16260000000 -11.954569 -168.43137 -42.855419 146.68845 -42.669624 145.59068 -16.670717 -1.5196046
16270000000 -11.325823 -170.1909 -43.424301 116.67699 -43.326496 116.01012 -16.973766 -0.04537297
16280000000 -10.994813 -172.80927 -43.679703 93.422592 -43.52256 91.828651 -17.426676 0.77232647
16290000000 -10.698797 -175.91396 -44.583591 64.922676 -44.601021 65.202057 -17.952438 -0.6025306
16300000000 -10.801402 -177.80107 -44.986965 43.802605 -44.619549 42.212585 -18.396338 -3.4001541
16310000000 -10.666482 -178.36188 -44.556286 17.669384 -44.618671 16.094772 -18.547491 -6.3017445
16320000000 -10.677535 -177.90445 -44.81353 -10.654754 -44.619686 -10.263835 -18.472071 -8.8441324
16330000000 -10.293739 -177.50018 -44.946472 -36.79958 -44.823555 -37.387249 -18.427242 -11.071904
16340000000 -10.06577 -178.11475 -45.123165 -66.031052 -44.683716 -65.92263 -18.513756 -12.542813
16350000000 -9.6757498 -179.63889 -45.586067 -92.868065 -45.21526 -94.502617 -18.637728 -13.65535
16360000000 -9.5732307 178.11546 -46.069546 -121.67683 -45.855194 -123.3644 -18.816757 -13.954321
16370000000 -9.426506 176.33344 -46.163723 -145.32468 -45.756779 -147.91362 -18.969599 -13.738075
16380000000 -9.4111252 174.72997 -46.096649 -175.42813 -46.163757 -176.78319 -19.368744 -13.472155
16390000000 -9.2669096 173.81967 -46.380875 155.43175 -46.403549 154.50372 -20.014952 -14.58988
16400000000 -9.088028 172.96217 -47.740326 129.55109 -47.08881 130.86368 -20.971148 -17.962685
16410000000 -8.8277178 171.53931 -47.471516 106.76616 -46.938343 102.77315 -22.007959 -23.549423
16420000000 -8.7129316 170.33501 -47.248531 82.231766 -47.088188 77.140182 -22.798052 -28.569134
16430000000 -8.5522003 169.4415 -46.56097 51.03249 -46.757359 47.71706 -23.180891 -32.168827
16440000000 -8.4546452 169.05949 -46.869316 16.49456 -47.05827 15.773482 -23.585993 -35.029839
16450000000 -8.2298441 168.65497 -47.843525 -11.804678 -47.571991 -11.468843 -24.424992 -37.538738
16460000000 -8.0294781 167.95116 -48.420166 -32.736893 -47.984592 -36.431305 -25.526258 -41.161411
16470000000 -7.7800403 166.45441 -47.969006 -62.009628 -47.966267 -65.920883 -26.754808 -43.168884
16480000000 -7.6653471 164.42445 -48.684795 -87.757484 -48.842865 -89.539017 -27.863867 -40.651222
16490000000 -7.6283431 162.3418 -48.421539 -109.75885 -48.694706 -112.09162 -28.99053 -31.928617
16500000000 -7.6932526 161.26088 -47.925629 -138.33687 -48.027557 -140.27875 -30.793201 -19.146797
16510000000 -7.6592026 160.79362 -48.008408 -168.31165 -48.434937 -168.42082 -33.757416 4.7281413
16520000000 -7.5222998 161.31895 -48.445202 169.65146 -48.672894 169.33858 -36.793762 41.585041
16530000000 -7.1315732 160.67484 -48.586639 139.46638 -48.860268 141.24341 -37.846489 77.810005
16540000000 -6.8687673 159.63725 -48.352669 118.1849 -48.466988 118.41924 -39.237251 100.70175
16550000000 -6.5784879 157.5708 -48.414001 85.646217 -48.745117 88.304344 -40.250332 99.930382
16560000000 -6.5490026 155.8438 -48.979462 63.03828 -48.789345 66.245285 -38.818016 87.090164
16570000000 -6.5214143 154.40868 -49.255024 38.200581 -48.759724 41.067265 -35.440056 79.008247
16580000000 -6.5746984 154.12747 -48.476868 14.077687 -48.578934 15.491265 -33.240501 80.507614
16590000000 -6.4639201 153.93475 -48.810623 -15.698398 -48.635845 -11.03798 -32.062893 85.57399
16600000000 -6.2962608 153.74519 -49.591587 -38.273537 -48.372292 -35.192177 -31.367746 89.413918
16610000000 -6.0127792 152.58397 -49.719288 -62.425014 -48.759525 -62.342819 -30.269915 89.578613
16620000000 -5.8219409 150.96776 -49.397846 -81.114632 -48.872437 -84.431343 -28.744246 88.620201
16630000000 -5.6382456 149.13998 -49.305099 -108.60645 -48.576466 -109.15959 -27.16263 91.608032
16640000000 -5.560894 147.78922 -49.555027 -133.00931 -48.523487 -132.44534 -25.645336 99.143288
16650000000 -5.4122887 146.7912 -49.349731 -156.82214 -48.175648 -159.6828 -24.555613 106.17443
16660000000 -5.3115263 146.12694 -49.516472 177.15593 -48.233379 169.68909 -24.150013 111.65897
16670000000 -5.0928044 145.38437 -50.010628 147.17813 -49.253571 143.46983 -24.25688 114.09669
16680000000 -4.9458447 144.325 -50.910473 123.99299 -50.046501 117.80605 -24.44314 112.4888
16690000000 -4.7745428 143.33562 -50.982117 106.87572 -49.690075 101.06673 -24.081175 107.10925
16700000000 -4.6590333 142.12372 -50.81797 84.163307 -50.219059 72.972237 -23.247343 101.10897
16710000000 -4.5128684 141.04189 -51.178921 60.128895 -50.757057 49.946377 -22.186724 97.377884
16720000000 -4.3981004 139.85037 -51.190315 35.701172 -50.953526 26.030375 -21.271917 95.533348
16730000000 -4.1927972 138.64879 -51.381939 13.240433 -51.247047 1.871136 -20.496281 95.189049
16740000000 -4.0535669 137.08653 -50.77076 -10.800513 -51.250675 -21.552094 -19.83604 94.009834
16750000000 -3.8900852 135.61693 -51.969826 -34.650967 -52.891094 -46.852573 -19.359011 92.753479
16760000000 -3.7776713 134.12868 -52.153778 -57.200222 -53.202301 -65.761818 -19.113153 91.439995
16770000000 -3.6557028 132.9453 -52.486069 -79.87561 -54.037876 -85.386971 -19.096224 90.48304
16780000000 -3.535054 131.90289 -52.181522 -95.680916 -54.002632 -102.06676 -19.17149 89.489525
16790000000 -3.3816957 130.88551 -51.500973 -126.98214 -53.770733 -130.23131 -19.353642 87.29892
16800000000 -3.2224824 129.67238 -52.240459 -150.36671 -53.968102 -152.371 -19.566265 83.183197
16810000000 -3.0664933 128.15608 -52.832901 -175.77895 -54.859772 -176.9194 -19.717434 77.686249
16820000000 -2.9478559 126.49382 -53.486103 166.35249 -55.316929 173.46642 -19.768074 71.890533
16830000000 -2.8379347 124.78078 -53.038692 139.65256 -55.141418 147.17513 -19.622011 66.807129
16840000000 -2.7637472 123.24153 -54.099331 116.64999 -54.961121 130.59956 -19.373535 63.177017
16850000000 -2.6524796 121.78875 -54.164181 93.524544 -54.258701 104.1815 -19.161385 61.626469
16860000000 -2.5386717 120.47508 -54.628292 65.926445 -55.210247 78.96727 -19.035126 61.47274
16870000000 -2.3878484 119.12157 -54.272926 40.749607 -54.168007 52.475193 -19.145937 62.73724
16880000000 -2.2527745 117.66993 -57.6413 9.4231987 -56.473473 24.281246 -19.589453 64.113243
16890000000 -2.122719 116.16099 -58.325928 3.3824382 -57.314659 11.678232 -20.503181 64.838928
16900000000 -2.0275385 114.75858 -57.813587 -17.781424 -56.82917 -10.950346 -21.583633 65.058891
16910000000 -1.9403393 113.25233 -58.542179 -46.14397 -57.083069 -36.799046 -22.761137 62.962357
16920000000 -1.8733169 111.94212 -60.55872 -77.318405 -58.157719 -66.559563 -23.720387 59.738445
16930000000 -1.7823527 110.45424 -62.683926 -79.681435 -60.626122 -81.374771 -24.487419 57.287289
16940000000 -1.7035761 108.93717 -65.023781 -102.7926 -63.353123 -91.677322 -25.019222 58.142662
16950000000 -1.601091 107.24562 -64.598717 -107.76901 -60.404636 -108.06445 -25.258583 62.27248
16960000000 -1.520825 105.57281 -63.84853 -114.04903 -59.715923 -136.79918 -25.248247 67.914528
16970000000 -1.4269334 103.87035 -64.117714 -138.01253 -62.793797 -162.42262 -25.121141 75.039528
16980000000 -1.3530822 102.28121 -65.319435 -147.41003 -65.123238 -165.39888 -24.793278 84.165535
16990000000 -1.261268 100.74734 -64.548042 -151.95679 -63.841946 -170.06302 -24.088514 93.201248
17000000000 -1.1799172 99.293335 -62.546688 -168.4449 -62.177357 165.54553 -23.2307 100.92197
