!Keysight Technologies,P9374A,MY57211807,A.19.30.04
!Date: Friday, May 08, 2026 14:59:34
!Correction: S11(C  2-Port  ) 
!S21(C  2-Port  ) 
!S12(C  2-Port  ) 
!S22(C  2-Port  ) 
!S2P File: Measurements: S11, S21, S12, S22:
# Hz S  dB   R 50
13000000000 -18.513508 58.216866 -44.181637 131.42621 -46.498302 143.45935 -9.070322 21.996599
13010000000 -18.75161 57.482422 -43.563046 111.08373 -45.387245 123.04047 -9.0945349 17.975349
13020000000 -19.258875 57.784603 -43.343327 88.380722 -44.814648 100.71095 -9.1783228 14.023901
13030000000 -19.479303 59.701633 -43.396946 65.802628 -44.40546 78.143951 -9.2901812 9.9469223
13040000000 -19.940569 60.83313 -43.527142 47.116108 -44.20163 56.713642 -9.466464 6.1410885
13050000000 -19.895861 64.353645 -43.549671 25.938627 -44.135071 37.291821 -9.7194748 2.637959
13060000000 -19.768108 63.954533 -43.191376 7.3038936 -43.28006 18.516605 -10.025896 -0.75575054
13070000000 -19.74453 63.67844 -42.535931 -15.061515 -42.386509 -4.6607151 -10.401003 -4.1875429
13080000000 -19.567427 62.437149 -42.515598 -40.438789 -41.952209 -30.03446 -10.820571 -7.8571458
13090000000 -19.515465 60.115753 -42.961666 -65.51992 -42.183056 -55.121719 -11.217669 -11.568192
13100000000 -19.692078 59.617401 -43.497894 -84.004143 -42.381058 -75.258385 -11.624144 -14.88844
13110000000 -19.696856 60.276817 -43.11409 -100.15651 -41.949013 -93.045647 -12.094687 -17.721584
13120000000 -19.820024 60.463661 -42.553001 -124.54323 -41.404716 -117.96507 -12.610145 -20.117895
13130000000 -19.661686 62.140045 -42.103428 -149.0377 -41.329971 -141.80757 -13.238523 -22.596968
13140000000 -19.516113 64.525711 -42.113029 -176.38229 -41.037315 -163.99072 -13.892817 -25.063143
13150000000 -19.053053 63.039261 -42.943447 162.02171 -40.982307 171.5448 -14.536247 -27.53718
13160000000 -19.059519 61.76931 -43.319969 142.33849 -41.379871 149.45663 -15.129127 -29.32312
13170000000 -18.926329 59.767941 -42.7808 123.49005 -41.132786 128.66357 -15.804016 -30.557163
13180000000 -19.007427 56.161156 -42.385101 100.38168 -40.976696 108.70744 -16.636187 -30.921698
13190000000 -19.250776 54.259403 -41.603539 75.477989 -40.389561 84.218063 -17.731768 -31.197508
13200000000 -19.572712 51.498932 -41.708031 47.570702 -40.356651 59.833866 -18.954382 -31.206335
13210000000 -20.03911 53.250107 -42.57111 22.631758 -40.485626 35.873238 -20.111488 -32.195431
13220000000 -19.858589 53.727077 -42.888424 6.0365667 -40.648121 14.235526 -21.083887 -32.288174
13230000000 -19.933363 55.464081 -42.843266 -14.932168 -40.714962 -7.7044067 -22.003588 -31.013186
13240000000 -19.55835 57.442287 -42.168884 -34.162762 -40.393791 -27.009012 -23.040707 -25.567823
13250000000 -18.969427 57.082558 -41.741982 -59.067921 -40.217003 -52.858574 -24.265738 -15.25036
13260000000 -18.657524 53.69717 -41.398205 -85.64782 -40.154285 -76.86248 -25.496262 -1.6652983
13270000000 -18.411577 51.138317 -42.298233 -108.87459 -40.497932 -98.953537 -26.667662 13.089522
13280000000 -18.475491 44.820965 -42.33778 -128.21803 -40.258442 -121.34872 -27.263802 29.395731
13290000000 -19.191923 41.193913 -42.282478 -147.38092 -40.443279 -145.09966 -26.728313 41.331356
13300000000 -19.619238 38.425671 -41.630203 -168.20403 -40.586788 -166.69966 -25.443621 48.208099
13310000000 -20.566462 37.801723 -41.700527 167.4783 -40.486195 170.50168 -23.758181 52.429943
13320000000 -20.706612 40.105198 -41.730873 143.88419 -40.537483 146.29247 -22.24629 56.794502
13330000000 -20.98885 42.468315 -42.111477 123.43743 -41.074829 124.79873 -20.868015 61.29509
13340000000 -20.272606 46.038239 -42.197395 103.57262 -40.773376 103.71821 -19.774475 63.993736
13350000000 -19.832518 43.88192 -41.865566 85.107361 -40.897003 79.858353 -19.024536 64.620949
13360000000 -19.244345 41.361668 -41.210876 63.616173 -40.732029 58.832947 -18.419075 62.606716
13370000000 -19.169373 35.952099 -40.917015 38.120163 -40.665287 34.544483 -17.759483 59.370525
13380000000 -19.294809 30.18358 -41.282887 11.944114 -40.887669 8.5622892 -16.798571 56.160656
13390000000 -20.33358 26.303684 -42.140671 -9.1705503 -41.983158 -15.245167 -15.820769 53.51936
13400000000 -20.782997 25.860359 -42.418476 -26.922964 -42.247684 -31.398338 -15.006873 51.818687
13410000000 -21.769726 22.643042 -41.856022 -45.556252 -41.750351 -52.110428 -14.435592 50.922932
13420000000 -22.410006 28.170904 -41.356071 -70.093163 -41.49778 -78.891243 -14.074785 49.28009
13430000000 -22.415617 29.771805 -41.898846 -94.434044 -42.596592 -100.96381 -13.871121 46.468681
13440000000 -21.850077 30.341917 -42.23333 -118.82308 -42.503677 -121.13647 -13.702402 42.976784
13450000000 -21.351183 28.889126 -42.732975 -138.9194 -42.314396 -143.97174 -13.405348 38.998661
13460000000 -21.09609 23.767712 -42.882076 -159.41808 -42.762379 -166.48979 -13.061728 34.871658
13470000000 -21.417524 19.186302 -42.813087 178.15623 -43.081543 168.6266 -12.843291 31.529949
13480000000 -21.75766 15.458617 -43.101879 156.18364 -43.996918 152.07132 -12.74315 28.891174
13490000000 -22.809891 10.760948 -43.485062 132.38794 -43.635742 134.26459 -12.717568 26.498598
13500000000 -23.598932 11.500913 -43.324669 109.73106 -42.903061 109.96951 -12.782666 23.707561
13510000000 -24.855312 15.955945 -44.297653 84.578087 -43.645798 85.277885 -12.921789 20.786367
13520000000 -24.781628 20.329737 -45.173328 66.593269 -43.896656 65.69014 -13.084106 18.367725
13530000000 -24.491659 21.945133 -44.889793 47.573402 -43.634289 44.775593 -13.280106 16.437477
13540000000 -23.791815 17.663649 -44.634014 21.381207 -43.451111 21.89081 -13.507932 14.816449
13550000000 -23.965576 14.846384 -45.712574 -4.2681317 -44.056087 -1.4184572 -13.826677 13.626682
13560000000 -23.729033 8.981452 -46.762688 -28.192019 -44.123444 -23.812302 -14.187897 12.446532
13570000000 -25.139648 5.6954679 -47.790459 -45.641441 -44.245838 -44.649651 -14.501848 11.477857
13580000000 -25.421244 3.5861754 -47.875851 -62.388218 -44.328037 -68.427994 -14.724304 11.01664
13590000000 -27.316231 6.3316827 -47.717865 -85.59446 -44.691833 -91.11512 -14.824671 10.984426
13600000000 -27.294048 13.750155 -48.658966 -114.98891 -44.995861 -114.68233 -14.894932 11.169566
13610000000 -27.679493 23.876099 -50.10083 -129.13544 -45.363167 -134.70407 -15.005566 12.662076
13620000000 -26.607559 21.921988 -49.614754 -147.97182 -45.429756 -156.22501 -15.028264 14.585808
13630000000 -26.972593 20.461037 -49.832211 -167.89767 -45.373028 179.92729 -15.003717 15.830181
13640000000 -26.37398 14.746669 -49.865311 161.24632 -45.850296 151.1846 -14.974055 16.571577
13650000000 -27.707861 10.286743 -50.420727 142.19322 -46.887711 132.39104 -14.863955 16.618225
13660000000 -27.832069 9.779952 -51.635479 112.2786 -47.520103 109.75025 -14.703948 15.624454
13670000000 -28.90843 7.0673327 -53.605736 97.671906 -48.548935 91.113632 -14.562157 15.333271
13680000000 -29.802204 15.690582 -52.969673 89.088226 -48.92992 75.940689 -14.216969 15.028296
13690000000 -28.982445 21.676315 -52.797676 60.294384 -48.68409 54.0895 -13.841183 14.064688
13700000000 -28.657818 25.034388 -51.732662 44.168808 -48.851879 34.690926 -13.572391 12.615168
13710000000 -27.754509 26.963953 -52.447811 10.92398 -49.380146 9.5459728 -13.420642 10.664538
13720000000 -27.559254 22.770334 -53.384064 -5.6954932 -51.029667 -11.112638 -13.30718 8.4695358
13730000000 -28.069262 22.670935 -54.718098 -31.772804 -51.939121 -21.96398 -13.168837 6.1808648
13740000000 -27.924698 20.426462 -54.491817 -38.529972 -52.030991 -32.086933 -13.011484 3.412848
13750000000 -29.450199 16.292686 -54.06329 -59.699364 -50.312134 -47.614761 -12.917699 0.45193875
13760000000 -29.67931 24.038651 -52.180153 -84.431076 -49.665943 -74.921265 -12.97016 -2.3281529
13770000000 -29.606155 22.04604 -52.806145 -111.34023 -50.437847 -92.919121 -13.181576 -5.0442038
13780000000 -29.279545 25.114395 -53.018982 -131.94273 -50.802475 -112.49889 -13.446618 -8.1473866
13790000000 -28.171843 22.008278 -52.988724 -153.43845 -49.939487 -128.62134 -13.725104 -12.166143
13800000000 -28.220728 16.575209 -52.143536 -167.93031 -49.334904 -148.72328 -13.996861 -16.400074
13810000000 -27.36865 15.639559 -50.927673 156.92465 -49.119663 -175.89879 -14.225799 -20.265709
13820000000 -27.140488 4.4782271 -52.89793 130.71484 -49.158566 167.91571 -14.587733 -22.699022
13830000000 -28.270008 5.6025133 -52.837982 122.96334 -48.658775 147.13002 -15.030059 -24.211172
13840000000 -28.142765 -1.0497634 -51.307442 98.32679 -48.116776 121.44061 -15.59286 -25.535374
13850000000 -29.943516 5.5881062 -51.431026 71.343147 -48.526154 100.87213 -16.288633 -27.190388
13860000000 -29.297726 7.0171475 -50.849293 51.883072 -47.38382 79.830673 -17.066645 -28.982494
13870000000 -29.204063 11.222995 -51.301853 23.772573 -47.58448 52.381577 -17.766022 -29.854412
13880000000 -28.347862 6.462214 -51.034054 3.0886869 -47.65274 26.315405 -18.445086 -30.008242
13890000000 -27.476917 4.3115807 -50.855721 -18.621824 -48.382015 7.1023164 -19.250036 -28.868065
13900000000 -26.73707 -10.598191 -50.856564 -42.218624 -48.070919 -14.153687 -20.14772 -26.11507
13910000000 -27.437641 -15.032393 -51.35144 -64.32312 -48.564098 -32.565937 -20.972824 -22.659861
13920000000 -27.223957 -28.283918 -51.544235 -81.740211 -46.850174 -51.873241 -21.587727 -19.63549
13930000000 -29.892822 -35.684013 -50.819618 -100.53214 -46.488857 -86.212555 -21.8398 -16.879923
13940000000 -30.68083 -30.917856 -49.425331 -123.62983 -47.091763 -115.28065 -21.835676 -13.783184
13950000000 -32.155365 -31.834017 -49.237591 -147.2256 -48.243145 -137.51874 -21.680014 -9.2929153
13960000000 -32.582561 -26.450607 -49.108135 -172.27693 -48.501667 -154.96616 -21.364265 -3.507911
13970000000 -31.539801 -16.837259 -48.813126 162.39204 -48.135101 179.15755 -21.062075 1.4464604
13980000000 -29.292273 -26.768929 -49.988136 136.1739 -48.565483 159.6226 -20.951229 5.3468685
13990000000 -27.95192 -40.488304 -49.540562 127.26107 -47.632633 135.79036 -20.915251 8.2311707
14000000000 -27.288986 -57.886654 -48.10331 107.61214 -47.826248 108.07848 -20.839125 9.5865498
14010000000 -27.459261 -69.197685 -46.730427 76.938942 -48.030273 81.488602 -20.869925 9.1369247
14020000000 -27.691593 -77.361267 -46.895954 49.414127 -48.372669 61.009178 -20.899147 8.7425013
14030000000 -28.720144 -89.24176 -47.11842 20.221256 -48.188164 31.488039 -20.888233 8.4423771
14040000000 -30.68878 -93.846558 -47.492813 -1.4312223 -47.949825 5.9904714 -20.893085 8.0779629
14050000000 -32.835022 -84.22332 -47.726444 -24.818562 -48.762245 -21.18581 -20.843819 7.7522655
14060000000 -33.548565 -71.567978 -47.103188 -43.161419 -48.60239 -41.823414 -20.939453 7.3323073
14070000000 -31.444935 -60.550243 -46.373287 -69.234573 -48.209042 -70.149422 -20.974371 7.0689931
14080000000 -29.61194 -77.471756 -46.077175 -98.648735 -47.936249 -94.741051 -21.044109 6.5130167
14090000000 -29.683626 -85.306526 -46.316818 -124.41198 -47.164131 -124.47279 -21.088341 6.2927599
14100000000 -27.862288 -102.08528 -46.606834 -153.72365 -46.685902 -159.40204 -21.072998 6.1586113
14110000000 -27.819534 -114.72815 -46.906574 179.51883 -46.731358 163.48116 -21.052233 6.3572898
14120000000 -27.100941 -130.50697 -47.089108 154.85452 -48.227291 128.8952 -21.191826 7.4492998
14130000000 -28.388935 -143.82745 -47.605175 131.9146 -50.168343 108.17603 -21.288357 8.6391773
14140000000 -29.033524 -149.15602 -47.895836 106.77744 -48.513458 91.867104 -21.538954 8.5321922
14150000000 -32.465797 -144.78979 -47.415997 82.450203 -46.872078 55.360966 -21.992601 6.6605935
14160000000 -30.247015 -130.77499 -47.308914 48.228333 -47.067795 16.982767 -22.456734 4.9101963
14170000000 -31.305084 -130.58623 -47.925774 21.852005 -47.460571 -8.9669657 -22.755951 4.3144951
14180000000 -28.970808 -127.41431 -48.082443 -7.5603118 -47.056339 -40.213024 -22.904902 5.3565421
14190000000 -28.08135 -133.85631 -49.040928 -35.362709 -46.878029 -69.690773 -23.336458 7.0221429
14200000000 -26.287313 -142.81946 -48.805824 -64.739845 -46.94923 -97.989227 -24.143206 11.781329
14210000000 -26.267521 -158.74997 -49.611023 -93.803383 -46.274628 -127.02285 -25.111525 18.340809
14220000000 -26.285215 -168.61871 -50.247673 -125.12971 -45.998772 -158.68695 -26.147612 24.786295
14230000000 -27.672222 -178.70146 -50.847889 -148.71336 -46.461555 172.65724 -27.215269 31.483036
14240000000 -28.4499 -174.89275 -50.682064 178.53499 -46.533665 147.32069 -27.61606 42.215904
14250000000 -29.314167 -174.67361 -50.954983 152.8347 -45.769653 122.5363 -27.156315 51.912872
14260000000 -29.51713 -166.1622 -50.768417 119.85677 -45.354988 94.68042 -26.403862 61.883968
14270000000 -29.096922 -158.59172 -51.076393 85.945488 -45.143425 64.035744 -25.263689 70.650925
14280000000 -27.377327 -158.47343 -51.60693 55.133644 -45.792355 39.379562 -24.278563 76.038429
14290000000 -26.149942 -165.25517 -52.408749 26.844318 -45.363907 14.29607 -23.324001 79.677879
14300000000 -26.402954 -177.60133 -51.167645 4.1097355 -44.675671 -13.136522 -22.325232 79.583534
14310000000 -26.691526 177.13379 -50.84153 -27.951796 -44.659889 -41.031761 -21.27758 78.15519
14320000000 -27.249914 167.9865 -50.600399 -64.864769 -44.823822 -68.37011 -20.207697 76.61055
14330000000 -27.782209 169.40761 -51.5383 -100.22837 -45.10466 -96.754333 -19.187899 76.122749
14340000000 -29.068939 163.18631 -52.713245 -125.35345 -45.688461 -120.87495 -18.262516 76.490707
14350000000 -29.900126 177.71236 -52.248119 -144.8784 -45.498829 -140.77872 -17.535738 76.095879
14360000000 -29.268629 -176.71277 -52.930435 -170.21338 -44.6194 -168.4838 -17.034147 75.377739
14370000000 -27.327547 -171.33934 -52.232746 166.71951 -45.22197 158.28233 -16.664986 74.222748
14380000000 -26.737928 177.42325 -51.61417 141.58534 -46.278652 136.11063 -16.268311 72.386543
14390000000 -26.875666 176.32111 -50.579327 110.6749 -45.733448 113.04082 -15.89206 69.798012
14400000000 -26.936243 168.0451 -50.376175 83.842209 -46.061646 85.069481 -15.498818 67.123749
14410000000 -27.430246 165.81412 -51.499508 49.055691 -46.854286 59.503769 -15.101964 64.534286
14420000000 -28.326811 158.67892 -51.987186 33.762604 -46.812786 40.304249 -14.716854 62.485439
14430000000 -29.65423 164.03549 -50.890087 4.281817 -46.937912 7.8836308 -14.380188 60.318077
14440000000 -30.17313 174.52716 -51.522213 -27.40517 -47.920139 -18.732195 -14.172269 58.21479
14450000000 -27.98987 -176.88966 -53.327789 -41.277046 -49.303139 -36.784653 -14.000097 56.468895
14460000000 -27.225801 178.51044 -51.606323 -57.248852 -49.210587 -58.086346 -13.8263 54.688442
14470000000 -26.660692 177.84442 -49.607552 -85.882881 -48.830788 -82.77034 -13.670287 52.563019
14480000000 -26.260843 176.93105 -49.739601 -123.51717 -49.212032 -108.89237 -13.597513 50.95182
14490000000 -26.250208 171.19856 -49.815304 -151.87106 -49.132259 -137.69141 -13.624949 49.30011
14500000000 -26.620522 170.35364 -50.31081 174.62334 -50.096836 -168.04459 -13.759628 48.306999
14510000000 -27.472923 166.62361 -51.272743 145.05763 -51.698895 154.44275 -13.821774 47.009747
14520000000 -28.584299 178.77155 -52.227699 116.19862 -54.929482 130.20433 -13.850559 44.80283
14530000000 -27.6133 179.12491 -53.324783 102.64176 -57.745155 121.76495 -13.863868 42.347855
14540000000 -26.816893 -172.78122 -52.451408 81.27877 -57.954098 122.15956 -13.829163 41.168129
14550000000 -25.44022 -179.88509 -51.532494 52.282726 -55.140221 104.62946 -13.716058 40.900421
14560000000 -25.264269 -179.22505 -51.674305 20.981089 -53.446617 58.062099 -13.650539 40.910969
14570000000 -24.302237 175.46153 -50.692337 -7.2085733 -53.194458 7.0023212 -13.700607 41.116486
14580000000 -24.104137 173.40216 -49.942936 -44.500957 -54.253803 -55.95097 -13.773703 41.157986
14590000000 -24.470039 165.64502 -49.750656 -84.083687 -55.198326 -116.91189 -13.785899 40.853329
14600000000 -25.081203 172.92531 -51.967976 -119.32452 -57.113773 168.05756 -13.778808 40.161678
14610000000 -24.923494 171.24435 -52.254669 -145.49495 -61.947838 111.10939 -13.744153 39.83939
14620000000 -24.640434 179.25249 -52.760979 -170.69122 -69.667099 116.78687 -13.716703 39.828335
14630000000 -23.820349 176.78784 -52.082321 167.7431 -64.2005 124.66643 -13.673577 39.880169
14640000000 -23.289427 176.8176 -50.305176 145.07452 -57.514584 124.61881 -13.645443 39.17181
14650000000 -22.517471 174.44919 -48.212566 112.9217 -53.320648 89.682526 -13.552575 37.988468
14660000000 -21.858253 169.12148 -46.989983 71.986382 -50.236416 46.510433 -13.419481 36.247192
14670000000 -22.106352 164.15715 -46.887081 34.745296 -49.37973 8.4700422 -13.234692 34.998829
14680000000 -21.94805 160.88281 -47.205311 1.8137777 -48.521553 -21.748541 -13.055914 34.305695
14690000000 -22.802929 160.68356 -47.935722 -25.411978 -48.559078 -54.768761 -12.909338 34.177361
14700000000 -22.385633 163.78726 -48.051064 -47.640629 -49.513527 -76.072525 -12.789795 33.630665
14710000000 -22.271349 164.10617 -47.157124 -71.195015 -48.659336 -92.056152 -12.814946 32.642178
14720000000 -21.937164 164.69505 -46.32169 -100.28658 -47.015476 -119.06655 -12.899424 31.711609
14730000000 -21.441469 165.21402 -46.023502 -123.99124 -47.768162 -146.13037 -12.982031 30.104902
14740000000 -20.565001 160.00635 -45.734535 -152.08076 -46.959549 -157.75632 -13.129376 28.32589
14750000000 -20.585854 155.42485 -45.317291 -176.6564 -44.755634 -179.23691 -13.319401 26.661428
14760000000 -20.372854 149.60806 -44.044128 155.63541 -42.835693 146.95605 -13.363254 25.174341
14770000000 -21.042568 146.71442 -43.940609 123.4985 -42.633938 112.01098 -13.35744 23.154638
14780000000 -20.910681 146.18295 -44.726494 94.467415 -43.76091 84.389091 -13.444521 21.500179
14790000000 -21.209263 145.72865 -45.297653 73.240227 -44.563545 63.309422 -13.536471 21.204594
14800000000 -20.984066 147.27318 -45.052921 54.539768 -44.296425 49.282841 -13.68278 20.879402
14810000000 -20.908566 148.18614 -44.641491 33.472084 -43.087933 28.322422 -13.909818 20.918493
14820000000 -20.142117 148.87607 -43.898438 6.113729 -41.950619 1.0975037 -14.111051 20.860434
14830000000 -19.828129 144.7122 -43.500046 -19.151587 -41.666416 -27.119787 -14.316022 20.601727
14840000000 -19.640862 139.65125 -43.130013 -41.982258 -41.736561 -51.050056 -14.545228 20.233158
14850000000 -20.318924 135.34384 -42.792538 -71.660019 -40.778168 -75.472771 -14.792211 20.954317
14860000000 -20.417257 133.58113 -43.967636 -100.67026 -41.343681 -109.29159 -14.988181 21.55818
14870000000 -21.069332 130.08998 -44.717484 -116.92809 -42.386726 -133.17697 -15.262529 21.70833
14880000000 -21.294249 129.49918 -44.453342 -133.87996 -43.634533 -148.45518 -15.544516 20.56958
14890000000 -21.570061 130.67633 -43.217804 -154.79445 -42.129608 -161.41672 -15.771637 19.797234
14900000000 -21.15271 131.12999 -42.62183 179.52185 -40.960712 173.1404 -15.757504 19.701212
14910000000 -20.677402 131.29636 -42.196014 152.30978 -40.481758 145.06993 -15.601263 20.742151
14920000000 -20.172228 125.87131 -42.451962 124.03252 -40.466717 114.62993 -15.510134 22.666191
14930000000 -20.415216 124.24358 -43.165981 99.68399 -41.54644 87.219742 -15.619085 25.468485
14940000000 -20.467653 119.52513 -43.683266 82.717056 -42.939499 69.993965 -15.843771 27.960175
14950000000 -21.045324 119.92334 -43.341064 59.536095 -42.379055 54.912056 -16.148809 29.471823
14960000000 -21.502083 115.51141 -43.165565 39.609203 -41.47612 34.682831 -16.346516 30.227341
14970000000 -22.398252 119.63203 -42.685616 18.501196 -41.112095 10.103257 -16.420351 30.949223
14980000000 -22.805191 118.52012 -41.990658 -6.6289325 -40.83931 -14.475295 -16.409269 32.534317
14990000000 -22.667061 125.99844 -41.976501 -35.786556 -40.414665 -39.067268 -16.35961 34.721008
15000000000 -22.105139 119.36543 -42.565807 -60.886566 -40.338192 -64.549217 -16.291414 36.339527
15010000000 -22.194086 119.29072 -43.596912 -84.8386 -40.696323 -92.741188 -16.263266 36.208786
15020000000 -22.343935 111.06851 -43.898441 -101.09325 -41.856544 -115.21372 -16.213039 35.614185
15030000000 -22.837721 114.55843 -43.481068 -118.99472 -42.22805 -130.83624 -15.899417 35.749874
15040000000 -22.883783 107.43384 -42.859798 -139.55989 -41.163158 -147.44708 -15.404399 37.214512
15050000000 -23.896111 111.47234 -42.263138 -163.79839 -40.425442 -172.54216 -14.85217 39.089943
15060000000 -24.606668 113.06075 -42.281551 169.23717 -39.970978 159.71729 -14.561402 40.873821
15070000000 -24.343615 123.07365 -42.488338 144.63814 -40.47765 130.80978 -14.526457 41.816971
15080000000 -23.937077 122.9625 -42.991901 120.7466 -41.33569 106.43436 -14.67207 42.287594
15090000000 -23.325895 122.30465 -43.283752 98.718559 -41.826183 86.68058 -14.673395 41.78392
15100000000 -23.984047 118.52921 -43.362007 78.651558 -41.855686 66.018608 -14.532421 40.707737
15110000000 -24.023912 119.65028 -43.958382 55.949997 -41.890358 43.929852 -14.285151 39.430588
15120000000 -24.572865 117.29466 -43.351421 41.185989 -41.547504 21.833488 -14.045819 38.090157
15130000000 -24.849945 116.26258 -42.68605 19.283033 -41.834789 -1.4620874 -14.011987 37.10619
15140000000 -25.990858 120.23384 -42.112843 -8.1683893 -41.976467 -23.971779 -13.900129 36.684799
15150000000 -25.120073 128.48608 -42.691456 -34.757004 -42.217102 -47.719959 -13.642746 35.51247
15160000000 -24.461142 129.63681 -42.574867 -57.863613 -41.803127 -67.153862 -13.447112 34.260746
15170000000 -23.489645 127.32693 -42.922188 -81.990517 -41.32962 -94.700867 -13.321759 33.761108
15180000000 -23.622715 125.52022 -43.451469 -104.81107 -42.466911 -125.52019 -13.3114 34.008022
15190000000 -23.300089 124.5127 -43.934483 -126.54202 -44.157383 -143.39232 -13.400668 34.494068
15200000000 -23.644854 124.5355 -43.902222 -144.59843 -43.908001 -156.11176 -13.509874 34.279312
15210000000 -23.266327 122.21631 -43.3587 -164.18011 -43.186813 -174.67001 -13.643764 32.71442
15220000000 -24.509445 123.76571 -42.894848 169.33182 -42.322777 155.73756 -13.837194 30.554144
15230000000 -23.912933 128.4782 -42.796028 143.49014 -42.900135 127.54733 -14.010967 29.136454
15240000000 -23.779421 130.51115 -43.48447 114.30566 -44.444271 101.85508 -14.091693 28.556278
15250000000 -22.809256 127.79539 -44.141438 92.661667 -44.649879 88.35424 -14.058007 28.292768
15260000000 -23.057995 123.58341 -44.896725 72.052246 -44.507084 66.455826 -13.937279 27.494223
15270000000 -22.808643 123.68862 -44.604309 51.322224 -44.382511 41.00967 -13.974436 26.734964
15280000000 -22.432135 120.79997 -45.079422 27.105412 -45.640335 17.539143 -14.062772 27.903639
15290000000 -22.379288 115.38188 -45.04776 6.482368 -46.359657 3.4568677 -14.02754 29.85928
15300000000 -22.996908 113.51378 -44.97361 -18.317406 -45.424957 -16.650146 -14.044324 31.130281
15310000000 -23.332878 115.04212 -45.595325 -43.867115 -45.462643 -40.264271 -14.263294 31.534922
15320000000 -23.222948 116.53456 -45.730228 -70.067558 -45.268585 -67.611015 -14.527601 31.819708
15330000000 -22.914982 117.62048 -47.125633 -91.970741 -46.496796 -90.198753 -14.706989 31.868481
15340000000 -22.835079 112.6336 -47.453022 -118.11765 -46.578255 -110.20412 -14.718978 31.745695
15350000000 -23.122261 115.96459 -49.056667 -141.9059 -47.330841 -132.32472 -14.613747 31.314737
15360000000 -22.601154 111.51112 -49.39027 -156.3707 -46.704021 -152.01253 -14.674667 31.204702
15370000000 -22.856472 109.59518 -49.633324 178.84508 -47.316414 -174.78233 -14.672777 31.859612
15380000000 -22.581512 101.96382 -51.748974 156.70102 -48.113972 164.77307 -14.565943 31.751497
15390000000 -23.870346 99.067703 -52.152935 148.9157 -48.079338 146.91576 -14.36906 31.266905
15400000000 -24.308245 98.631058 -51.462349 124.5284 -46.959702 121.5933 -14.173643 30.920954
15410000000 -24.437504 100.65722 -51.487701 91.042213 -46.729179 88.716866 -13.979412 31.752771
15420000000 -24.825191 95.690125 -54.700756 54.475731 -48.719349 56.192745 -13.967889 33.165077
15430000000 -25.384283 101.30549 -61.279053 44.978031 -50.591164 34.54298 -14.016019 34.976986
15440000000 -25.012047 99.781731 -60.92067 65.025253 -52.433228 23.356369 -14.187264 35.150364
15450000000 -24.691284 99.996758 -59.35239 72.934326 -53.101692 9.8337984 -14.424021 33.973309
15460000000 -24.662342 90.595024 -56.578724 40.850937 -52.777847 -14.444491 -14.597131 32.129185
15470000000 -25.756641 86.402237 -56.733078 14.578222 -53.081779 -35.917698 -14.5747 30.795357
15480000000 -26.548769 82.087234 -57.661243 -12.523191 -52.018009 -57.019497 -14.438858 30.086571
15490000000 -27.646194 82.79454 -62.018543 -1.8421566 -53.567982 -91.583878 -14.330605 30.180759
15500000000 -28.614407 77.192207 -59.354744 -7.2045255 -54.267818 -124.83437 -14.293569 30.478073
15510000000 -29.993698 82.545822 -55.699005 -23.940273 -57.084354 -160.44072 -14.31742 31.28437
15520000000 -31.497601 84.434471 -55.414772 -46.508057 -62.028767 123.42219 -14.303049 32.02742
15530000000 -29.904057 97.246147 -53.692081 -60.299534 -63.288345 -29.918066 -14.23815 32.877815
15540000000 -30.23344 81.680031 -54.677639 -84.353828 -62.606419 -98.210754 -14.253644 33.631718
15550000000 -30.566286 82.351456 -52.288445 -101.56376 -58.479027 -148.97462 -14.353118 34.845596
15560000000 -32.92189 66.026848 -50.93961 -133.37175 -63.416576 154.69464 -14.490313 35.982822
15570000000 -34.815308 74.097557 -52.612419 -167.88104 -71.41143 13.828468 -14.632674 36.506218
15580000000 -37.752563 51.501743 -55.174992 -170.28969 -58.29705 -81.790337 -14.758794 36.589668
15590000000 -44.40089 65.486305 -52.298561 -176.37515 -53.351242 -140.78494 -14.797889 35.876263
15600000000 -51.639164 -78.460892 -51.032375 155.53072 -53.764927 170.07437 -14.789577 35.137054
15610000000 -39.84185 176.86914 -49.636051 130.65573 -53.273026 144.13168 -14.691311 34.499493
15620000000 -44.428436 179.77826 -51.033192 102.00765 -56.926003 128.76074 -14.550446 34.599487
15630000000 -40.90733 167.97551 -51.827503 89.352119 -53.619728 126.8448 -14.283891 35.127934
15640000000 -45.053673 -129.09259 -50.858059 76.135742 -50.351563 103.31337 -14.086382 35.546185
15650000000 -38.74218 -147.77231 -48.924423 54.949116 -49.252956 63.267303 -14.061397 36.631977
15660000000 -37.861542 -122.04658 -48.119953 23.017006 -49.501614 30.393471 -14.12344 38.193394
15670000000 -34.177498 -132.99628 -50.194611 -3.5827878 -52.309711 16.203634 -14.221883 39.346394
15680000000 -31.448347 -125.64901 -52.092361 -10.218804 -50.705311 15.047776 -14.333451 39.459728
15690000000 -29.527456 -141.40738 -48.473507 -15.567955 -47.119701 -9.1874809 -14.377796 38.799316
15700000000 -28.990278 -143.9063 -46.183346 -44.244987 -45.748631 -43.586983 -14.434266 37.960148
15710000000 -28.978214 -149.56898 -45.869469 -81.818954 -45.901222 -80.924133 -14.507277 37.99873
15720000000 -28.182608 -143.85388 -47.415249 -106.43802 -47.894867 -105.27141 -14.498227 39.32053
15730000000 -27.975939 -148.44061 -48.488483 -120.59207 -48.404793 -117.55279 -14.37664 39.881481
15740000000 -27.262157 -143.96162 -47.248848 -132.15514 -46.622593 -127.39569 -14.271679 39.60833
15750000000 -27.196684 -145.42717 -45.678207 -154.65955 -45.131924 -157.02197 -14.146369 39.05806
15760000000 -26.115944 -142.49785 -45.048737 174.50235 -45.044891 171.63165 -13.926948 39.581051
15770000000 -25.335516 -145.63618 -45.784824 150.91295 -45.801731 147.87688 -13.620063 41.112991
15780000000 -24.87365 -148.80417 -45.888851 133.27991 -46.108044 124.6264 -13.381824 43.441071
15790000000 -24.760338 -150.60745 -45.393982 116.34707 -46.052258 108.55425 -13.258288 45.406158
15800000000 -23.944397 -150.4507 -44.172081 93.869209 -45.103436 87.231682 -13.281579 46.705429
15810000000 -23.748842 -153.16452 -44.019501 65.090218 -45.139095 58.438339 -13.365332 46.473248
15820000000 -23.210411 -154.1326 -44.086449 38.452198 -45.344505 34.830597 -13.427296 45.365383
15830000000 -23.220068 -154.74559 -45.280132 18.116907 -45.833466 14.777 -13.247875 43.939526
15840000000 -22.932718 -152.81827 -44.566231 6.1641803 -45.899681 -6.5047774 -12.997933 42.355499
15850000000 -22.809542 -154.64761 -43.356972 -17.418619 -45.519539 -26.431738 -12.708611 41.659882
15860000000 -22.463972 -151.59653 -43.058693 -42.359886 -45.354832 -47.706676 -12.42973 41.099705
15870000000 -22.330917 -153.7997 -42.442509 -66.506081 -45.480961 -69.604393 -12.151879 40.663887
15880000000 -21.995646 -151.02003 -42.493706 -94.203217 -45.322208 -90.444748 -11.900331 39.937244
15890000000 -21.519644 -153.54549 -42.804165 -118.62943 -45.140297 -111.94248 -11.677371 39.634407
15900000000 -21.139534 -155.59535 -43.101196 -138.62105 -44.89146 -134.84834 -11.457842 39.526421
15910000000 -21.101236 -158.37692 -42.957928 -159.32224 -45.201389 -158.43973 -11.286514 39.330357
15920000000 -20.861814 -158.29654 -42.806602 177.2392 -45.265842 -176.565 -11.211266 38.621082
15930000000 -21.035982 -159.52422 -42.523659 156.39961 -44.732258 164.20244 -11.265776 37.604317
15940000000 -20.674505 -155.64078 -42.405029 130.82654 -44.480755 139.33942 -11.327043 36.308765
15950000000 -20.416367 -156.34677 -42.574142 108.19382 -44.288101 118.96136 -11.317225 34.493946
15960000000 -19.941862 -153.09599 -42.415997 86.564018 -43.937321 97.240982 -11.243016 32.131004
15970000000 -19.408768 -153.61514 -42.140217 65.029114 -43.893444 73.305214 -11.158109 29.418219
15980000000 -19.022068 -154.39081 -41.693146 38.628742 -43.534538 51.376892 -11.029716 27.274101
15990000000 -18.777054 -156.24072 -42.192242 10.868818 -43.341946 26.945705 -10.874969 25.555492
16000000000 -18.901516 -157.90807 -42.926414 -7.3485017 -43.853161 3.6316764 -10.75184 24.776232
16010000000 -18.894087 -156.64589 -42.708279 -28.193863 -43.888771 -15.684983 -10.653779 24.257557
16020000000 -18.744486 -156.60356 -42.31044 -53.240818 -43.614689 -34.963669 -10.673063 23.386112
16030000000 -18.412142 -154.89624 -42.470276 -76.472725 -42.83263 -59.019196 -10.863023 22.108414
16040000000 -17.919798 -154.79608 -42.520382 -100.47704 -42.951565 -85.571136 -11.095501 20.673599
16050000000 -17.461103 -155.43503 -42.903877 -126.61755 -43.305065 -111.35226 -11.228641 18.972885
16060000000 -16.897903 -155.77414 -43.487595 -146.567 -43.6036 -130.03772 -11.308276 16.503258
16070000000 -16.54353 -157.91951 -43.463261 -166.52196 -43.242176 -151.22821 -11.43347 14.170292
16080000000 -16.414989 -158.55539 -43.045876 168.03273 -43.087345 -176.81361 -11.626769 12.20712
16090000000 -16.240114 -158.60591 -43.334789 144.07625 -43.175514 161.30298 -11.823892 10.415145
16100000000 -16.074366 -158.50742 -44.003475 118.86126 -43.386684 136.04506 -11.97236 8.7565689
16110000000 -15.89972 -158.40109 -43.612137 99.734734 -43.120773 115.85337 -11.967672 7.3742371
16120000000 -15.550951 -157.77742 -44.093121 71.69873 -43.063007 90.252602 -11.926046 6.2991004
16130000000 -15.207628 -158.13217 -45.223885 49.835217 -43.427303 65.361633 -11.952641 6.4035544
16140000000 -14.736304 -158.61897 -44.729828 31.757412 -43.981297 42.429176 -12.159605 7.130487
16150000000 -14.358271 -161.33034 -44.686047 2.0472038 -44.003101 20.813736 -12.536792 8.1415253
16160000000 -14.102857 -162.67213 -45.684792 -21.755699 -43.921581 -1.3014041 -12.967058 8.2802191
16170000000 -13.862398 -164.08565 -46.600986 -42.394493 -43.962803 -25.935099 -13.350648 6.8384075
16180000000 -13.631372 -164.50331 -46.85611 -63.35107 -44.108967 -50.985687 -13.624412 4.5565462
16190000000 -13.397536 -165.60039 -46.514053 -89.227951 -44.188839 -79.087463 -13.75881 2.314749
16200000000 -13.266946 -165.11285 -47.644009 -118.1982 -45.126499 -104.79626 -13.832743 1.1301821
16210000000 -12.961199 -165.24332 -49.071762 -138.30354 -45.947281 -126.94936 -13.903866 0.28125995
16220000000 -12.613164 -164.81921 -49.499687 -161.63757 -46.366615 -152.62662 -13.996881 -0.13442171
16230000000 -12.204794 -166.92699 -50.427578 176.96758 -46.839027 -174.33107 -14.037116 -0.75266385
16240000000 -12.06244 -168.14249 -50.78986 154.12024 -46.741302 156.23415 -14.073769 -0.67621261
16250000000 -11.863858 -170.33626 -51.099098 128.15697 -48.157047 128.46024 -14.044986 0.22322762
16260000000 -11.702109 -171.42744 -52.260056 93.229332 -49.372929 104.32703 -14.111401 1.7244917
16270000000 -11.476715 -173.60028 -54.494545 58.307407 -50.040062 74.884995 -14.310818 2.8803799
16280000000 -11.424008 -174.52707 -57.935322 33.549435 -51.170406 43.086132 -14.710218 3.1908479
16290000000 -11.160599 -174.95462 -60.241924 -5.7835445 -53.556904 1.9144232 -15.177876 1.9755065
16300000000 -10.9032 -175.20425 -63.339275 -61.662224 -56.000847 -50.785339 -15.494482 -0.38740531
16310000000 -10.518238 -176.55988 -63.668087 -146.87671 -60.752094 -131.32352 -15.577828 -3.0848324
16320000000 -10.315779 -177.32979 -61.593929 156.73561 -65.186455 173.4381 -15.528159 -5.5396419
16330000000 -10.069928 -178.79305 -59.666283 120.4847 -62.104908 153.02638 -15.547944 -7.2298269
16340000000 -9.9387207 -179.67892 -59.694462 109.16058 -57.019363 122.76092 -15.610788 -8.2746162
16350000000 -9.7545881 178.55527 -55.439346 102.82546 -53.113689 96.691017 -15.657393 -9.0207329
16360000000 -9.7249832 177.28859 -51.516224 65.331245 -50.349125 64.902496 -15.687564 -9.4038954
16370000000 -9.6260624 176.2442 -50.000481 37.481712 -48.230957 37.923717 -15.773252 -9.6225338
16380000000 -9.4618254 175.41843 -48.224495 7.5043573 -45.701023 4.163444 -16.146368 -9.4747763
16390000000 -9.2465105 174.04501 -47.891129 -22.247786 -45.086761 -31.867884 -16.748287 -9.0347357
16400000000 -9.0656834 172.82321 -47.297092 -47.293335 -45.155289 -65.241356 -17.422316 -9.9924955
16410000000 -8.8849401 171.62206 -47.015465 -74.748589 -45.654331 -88.919121 -18.077515 -12.702181
16420000000 -8.6403751 170.86028 -46.70562 -96.088272 -45.757919 -109.31866 -18.505507 -16.815212
16430000000 -8.4206276 169.40872 -46.758198 -119.97797 -45.085144 -130.26218 -18.864828 -20.112848
16440000000 -8.2814016 168.38664 -45.720867 -137.16805 -43.813698 -153.33411 -19.227127 -21.513466
16450000000 -8.1916294 167.12436 -44.811127 -161.83888 -43.203373 179.44583 -19.718645 -21.429716
16460000000 -8.1137505 166.7374 -43.660686 172.62001 -42.943832 151.16685 -20.220446 -21.104317
16470000000 -7.9562664 165.77223 -43.306446 145.36304 -42.934982 125.88161 -20.630007 -20.529961
16480000000 -7.8472915 164.55754 -42.889416 119.47956 -43.108315 99.835274 -20.934555 -19.074472
16490000000 -7.7729416 163.43629 -42.67498 90.387177 -42.855648 76.05381 -21.225302 -15.243801
16500000000 -7.6289811 162.84914 -43.323132 66.503616 -43.163174 50.386871 -21.732649 -9.5334234
16510000000 -7.4065914 161.39424 -43.956833 46.335545 -43.857349 27.915514 -22.676617 -2.2911785
16520000000 -7.2574997 160.25273 -43.344383 29.239676 -43.736423 11.682404 -23.876801 4.1850386
16530000000 -7.0893974 158.76329 -42.614555 5.4553733 -43.023876 -11.840266 -25.064112 6.5693488
16540000000 -6.9762416 158.15556 -42.179688 -18.442482 -42.847378 -38.827087 -25.605572 3.0765686
16550000000 -6.7844086 157.00372 -41.762032 -43.349926 -43.059895 -64.488251 -25.627588 -1.4692434
16560000000 -6.6994314 156.2533 -41.526821 -71.76963 -43.563206 -88.970757 -25.335417 -1.1490027
16570000000 -6.5811939 155.28314 -42.119724 -96.300644 -44.271648 -110.72112 -25.076456 3.9813676
16580000000 -6.4873619 154.91634 -42.346035 -118.66239 -44.463085 -129.44052 -24.876194 8.606657
16590000000 -6.3222766 153.98076 -42.320824 -139.65839 -44.329494 -150.43475 -24.900747 12.036024
16600000000 -6.1766958 153.00092 -42.360107 -162.29921 -44.550526 -172.6003 -25.038069 13.047165
16610000000 -6.0171447 151.62984 -42.420261 176.29637 -44.831547 169.55994 -25.118896 16.593023
16620000000 -5.8845372 150.40332 -42.14473 155.53726 -44.348366 152.02777 -24.807558 23.122734
16630000000 -5.6978493 149.04771 -41.655884 130.9341 -43.654625 128.38493 -24.604725 31.630877
16640000000 -5.5646658 147.7252 -41.77248 105.24833 -43.495113 103.01267 -24.775114 40.181614
16650000000 -5.4233694 146.51337 -42.102364 80.515251 -44.052242 82.343369 -25.546703 48.228172
16660000000 -5.3219833 145.8974 -42.7519 57.916256 -43.892445 60.547825 -26.463318 54.37661
16670000000 -5.1130638 145.22615 -42.841457 39.148769 -43.843693 39.9585 -26.848597 53.841473
16680000000 -4.9549985 144.24959 -42.8652 18.203627 -43.791775 18.228741 -26.645588 48.470764
16690000000 -4.7696195 143.28604 -42.414753 -2.7904801 -43.305782 -3.620156 -25.75407 45.725468
16700000000 -4.6367769 142.13103 -42.229244 -27.014399 -43.057148 -25.829481 -24.589598 47.287292
16710000000 -4.4559193 140.83777 -42.365837 -50.778324 -42.933945 -49.965546 -23.519073 51.383831
16720000000 -4.3517451 139.30957 -42.728855 -73.404297 -42.974258 -73.756981 -22.592226 55.028896
16730000000 -4.2183571 137.86 -42.505013 -93.822075 -42.672676 -98.040642 -21.924696 56.971241
16740000000 -4.129662 136.69662 -42.69556 -116.58337 -43.140179 -122.20184 -21.485579 57.95023
16750000000 -3.9546499 135.52841 -42.657871 -137.99409 -43.320293 -142.67645 -21.19779 58.692322
16760000000 -3.8135138 134.34885 -42.286083 -160.63089 -43.091511 -165.11197 -20.998451 59.83749
16770000000 -3.623524 133.02301 -42.426353 175.87456 -43.243908 170.75623 -20.887344 60.342857
16780000000 -3.4890251 131.80353 -42.411312 152.9601 -43.209824 146.72156 -20.905449 59.263161
16790000000 -3.3322361 130.52362 -42.715443 129.85756 -43.817272 122.69466 -21.066185 55.698429
16800000000 -3.1952322 129.14893 -42.638386 108.93666 -44.159321 102.31219 -21.165545 50.267597
16810000000 -3.0839579 127.57719 -42.527283 86.448174 -44.107101 82.034874 -21.149656 44.859283
16820000000 -3.0005679 126.24815 -42.34016 61.801376 -43.937122 58.103367 -20.85013 40.51173
16830000000 -2.877162 124.7179 -42.543182 38.980316 -44.262638 35.913746 -20.343653 37.489147
16840000000 -2.763998 123.3475 -42.442368 15.412765 -44.337891 13.097238 -19.877441 35.324875
16850000000 -2.630234 121.71035 -42.552383 -7.4133859 -44.64011 -8.4925699 -19.668325 34.942219
16860000000 -2.5162752 120.27381 -42.556076 -31.041157 -44.583572 -29.846384 -19.714563 35.976944
16870000000 -2.3748207 118.75373 -42.793442 -52.954655 -44.748901 -51.334263 -19.94442 37.712635
16880000000 -2.2553897 117.31763 -42.570633 -77.793732 -44.598885 -75.425934 -20.556129 38.657608
16890000000 -2.1391904 115.8223 -42.759144 -103.18205 -44.642395 -98.130234 -21.371595 37.455074
16900000000 -2.0441854 114.54481 -43.139091 -127.70253 -44.997059 -122.33909 -22.459265 33.867447
16910000000 -1.9470859 113.10633 -43.522404 -149.86613 -45.340366 -143.53307 -23.472315 29.405888
16920000000 -1.8621422 111.76604 -43.761917 -173.24577 -45.367237 -165.06117 -24.076246 24.751163
16930000000 -1.7714576 110.18903 -43.764183 164.31462 -45.266388 171.57452 -24.375881 21.257204
16940000000 -1.7006429 108.67581 -43.786835 139.19942 -45.536388 147.8576 -24.709921 19.702923
16950000000 -1.605967 106.97329 -44.030285 112.91724 -45.698036 125.30777 -25.199108 21.104427
16960000000 -1.5224228 105.36728 -44.613594 87.492897 -46.101456 101.87978 -25.964109 26.086798
16970000000 -1.431357 103.64278 -45.138844 64.439003 -46.084122 78.5298 -26.334162 35.529915
16980000000 -1.354123 102.07771 -45.541084 40.688332 -46.308598 54.948338 -26.565889 45.628326
16990000000 -1.2623487 100.51781 -46.151531 16.607168 -46.55315 30.515978 -26.592876 57.430225
17000000000 -1.1753455 99.068245 -46.425713 -7.1239824 -47.108047 5.8284898 -26.604189 69.862816
