!Keysight Technologies,P9374A,MY57211807,A.19.30.04
!Date: Friday, May 08, 2026 15:44:29
!Correction: S11(C  2-Port  ) 
!S21(C  2-Port  ) 
!S12(C  2-Port  ) 
!S22(C  2-Port  ) 
!S2P File: Measurements: S11, S21, S12, S22:
# Hz S  dB   R 50
13000000000 -19.416201 56.596909 -39.815632 58.471161 -40.169796 57.876556 -9.5951023 23.625175
13010000000 -19.757509 61.526005 -40.210754 35.384182 -40.415726 33.714626 -9.6592197 18.786924
13020000000 -19.259668 64.362297 -40.086529 14.277864 -40.401287 11.941092 -9.7739744 14.053116
13030000000 -19.243179 63.780689 -40.166264 -10.368344 -40.540195 -13.803426 -9.9270058 9.264926
13040000000 -19.131554 63.625595 -40.447998 -33.437096 -41.105968 -35.913029 -10.142233 4.8037682
13050000000 -19.307165 61.368347 -40.802383 -55.074394 -41.246841 -57.494469 -10.456364 0.56377965
13060000000 -19.679171 60.084251 -40.922913 -77.085464 -41.370399 -79.831291 -10.864769 -3.8545055
13070000000 -20.089827 59.588196 -40.971752 -99.783714 -41.470966 -103.53435 -11.388828 -8.6407156
13080000000 -20.351696 61.203503 -41.169178 -124.1554 -41.952278 -129.48697 -11.967246 -13.82572
13090000000 -20.247494 63.641163 -41.813618 -147.60048 -42.936607 -149.01877 -12.45391 -19.207598
13100000000 -19.795366 64.326431 -42.49609 -165.64296 -43.050426 -167.62392 -12.938921 -24.417356
13110000000 -19.431658 63.16798 -42.04015 174.17676 -42.97649 170.62019 -13.539769 -28.992302
13120000000 -19.294441 61.491142 -42.198315 150.06177 -43.185024 147.41737 -14.300147 -33.124382
13130000000 -19.345945 61.015366 -42.21434 125.99064 -43.205231 124.33722 -15.190753 -37.388592
13140000000 -19.27227 60.180798 -42.822327 101.71207 -44.136208 97.380257 -16.155615 -42.582012
13150000000 -19.709116 59.364151 -44.053291 78.208702 -45.291962 78.568626 -17.148216 -48.141571
13160000000 -19.732172 62.126846 -44.657272 64.882614 -45.357559 62.626934 -18.255112 -53.545273
13170000000 -19.68985 61.361988 -44.565418 45.654087 -46.028034 41.574875 -19.681011 -58.262756
13180000000 -19.481863 62.191536 -44.256187 25.349184 -45.983498 25.331293 -21.52763 -62.885349
13190000000 -19.271294 58.899616 -44.455524 1.7044976 -46.055977 3.2892284 -23.848364 -71.280647
13200000000 -19.38493 56.626247 -44.541294 -21.596754 -45.888508 -20.308855 -26.476561 -87.486618
13210000000 -19.395357 55.710957 -45.769981 -45.29718 -46.6828 -45.434216 -28.696041 -112.26099
13220000000 -19.31238 53.807674 -45.901989 -58.940018 -47.722168 -63.558552 -29.825975 -138.34143
13230000000 -19.601046 53.510361 -45.943657 -78.748352 -47.971458 -76.732491 -30.466078 -165.36627
13240000000 -19.391663 54.186684 -45.88953 -99.341454 -47.81805 -97.052528 -29.567635 163.13411
13250000000 -19.356396 53.783813 -46.22134 -120.0639 -48.164116 -115.08082 -26.697706 138.16756
13260000000 -19.148109 53.279549 -45.814449 -138.10527 -47.95335 -135.88364 -23.659643 126.06454
13270000000 -19.179966 50.44326 -46.071426 -163.43735 -48.582615 -155.71524 -21.362827 120.27398
13280000000 -19.324686 49.275932 -46.476658 177.56436 -48.805138 -174.27615 -19.83477 116.79934
13290000000 -19.553879 46.820107 -46.524845 158.95847 -49.230255 171.64819 -18.760462 113.26634
13300000000 -19.726294 46.11731 -45.871788 138.68324 -47.978065 152.96227 -17.959993 108.4535
13310000000 -19.87298 43.135895 -46.047588 110.21854 -47.838436 125.89395 -17.146702 103.41824
13320000000 -20.037907 43.846008 -46.813438 86.656914 -48.700066 100.99687 -16.278812 99.169228
13330000000 -19.983282 42.052067 -47.632256 65.86821 -50.572689 84.614853 -15.462812 95.663948
13340000000 -19.946659 42.279953 -48.308117 48.568882 -49.99189 78.033646 -14.850274 92.729881
13350000000 -19.856613 39.627308 -48.359264 28.434715 -49.320145 60.051346 -14.450871 89.546761
13360000000 -19.839071 39.240166 -48.474617 12.370386 -47.982571 37.42215 -14.16036 85.779945
13370000000 -19.973934 35.983627 -48.365643 -12.181231 -47.602486 10.309306 -13.812134 81.039902
13380000000 -20.10465 35.886223 -49.857655 -40.417271 -49.827942 -12.191483 -13.321878 75.875633
13390000000 -20.503815 32.128452 -51.233242 -49.571934 -49.036667 -19.35685 -12.764741 71.596275
13400000000 -20.875248 32.713528 -51.021957 -65.449814 -48.704914 -38.692104 -12.240749 68.428383
13410000000 -21.313742 29.662369 -51.93671 -85.024094 -48.241966 -62.363239 -11.880094 66.216415
13420000000 -21.552113 31.583553 -51.799408 -90.921829 -47.868198 -82.125198 -11.716971 64.019791
13430000000 -21.528738 28.24762 -51.886379 -115.14524 -48.600739 -104.58688 -11.647172 61.288239
13440000000 -21.647827 30.346359 -52.743225 -122.39777 -48.333485 -116.76144 -11.643829 57.617401
13450000000 -21.346697 26.346409 -50.591263 -134.65286 -46.874752 -136.31444 -11.628899 53.651882
13460000000 -21.442215 24.597685 -51.114609 -156.60957 -47.035389 -163.82159 -11.49536 50.010029
13470000000 -21.852375 20.123562 -50.099594 -169.48972 -47.195763 173.56703 -11.365281 46.627453
13480000000 -22.118074 21.377979 -48.947971 166.11819 -47.590305 154.27443 -11.363047 43.875549
13490000000 -22.705645 16.982494 -49.04525 148.71329 -47.937141 137.92429 -11.40982 41.756187
13500000000 -23.420843 19.861719 -48.767303 134.09592 -47.346958 124.26734 -11.536475 39.705173
13510000000 -23.989578 20.839731 -47.05328 119.61779 -46.030083 105.23305 -11.664442 37.648968
13520000000 -23.711931 24.033739 -45.705093 94.006462 -45.379753 80.232552 -11.81681 35.780365
13530000000 -23.643761 20.375496 -44.617085 69.428276 -45.234531 54.484314 -12.01578 34.364105
13540000000 -23.493803 17.940063 -44.417656 42.599575 -45.641327 33.684574 -12.235354 33.610107
13550000000 -24.017782 12.182819 -44.274918 16.489239 -45.481144 14.729585 -12.468081 33.096245
13560000000 -24.290995 13.050591 -44.817558 -5.4734335 -44.934032 -7.3239608 -12.718595 32.632595
13570000000 -24.915854 9.1286516 -44.669235 -22.558884 -44.85638 -27.973244 -12.91287 31.943674
13580000000 -25.620472 12.689841 -44.221848 -40.247543 -45.015236 -46.21521 -13.016541 31.548323
13590000000 -26.379288 16.912117 -42.989483 -63.76091 -44.098877 -68.748932 -13.038354 31.291771
13600000000 -25.733595 23.103983 -42.762119 -87.579201 -44.164593 -88.752251 -12.984954 31.356501
13610000000 -25.595936 21.165663 -41.899803 -112.56334 -43.022339 -108.80586 -12.871099 31.747679
13620000000 -25.49111 19.788765 -41.849209 -139.83916 -42.671883 -135.28056 -12.793539 32.143551
13630000000 -26.024828 14.958223 -42.290951 -164.1534 -42.726318 -159.69775 -12.71651 32.563858
13640000000 -26.595221 13.528 -42.214329 175.18875 -42.719517 177.04585 -12.650373 32.876373
13650000000 -27.805351 10.693293 -42.472473 149.59653 -43.123688 153.75308 -12.538129 32.75985
13660000000 -28.098169 15.608029 -42.66095 130.98322 -43.339417 134.93571 -12.391539 31.654663
13670000000 -28.358566 19.361671 -42.209602 109.90255 -42.841129 116.7851 -12.274064 30.146475
13680000000 -27.536785 24.27507 -42.249546 88.210564 -42.077839 95.577911 -12.100595 28.896086
13690000000 -26.873051 22.494698 -41.429684 67.134277 -41.525677 71.718971 -11.899877 27.542479
13700000000 -26.413616 21.521267 -41.053089 40.365993 -41.098507 45.383854 -11.720863 26.220278
13710000000 -26.348013 17.700029 -41.047119 12.980328 -41.233871 18.393486 -11.616278 24.539938
13720000000 -27.010077 15.09195 -41.559872 -11.856169 -41.491585 -3.9574876 -11.578892 22.390329
13730000000 -27.928896 16.657396 -42.146465 -35.076134 -41.850544 -27.868822 -11.575402 20.196869
13740000000 -28.375368 20.459072 -42.637989 -58.037312 -41.958874 -48.351849 -11.557203 18.090822
13750000000 -28.649551 24.640249 -43.249966 -74.000015 -41.766441 -70.35141 -11.508012 16.023596
13760000000 -27.850731 24.377583 -42.331692 -94.148277 -41.813931 -91.205849 -11.572508 14.247421
13770000000 -27.886431 21.899801 -41.899292 -119.98054 -41.452469 -115.29017 -11.790006 12.630276
13780000000 -27.141438 17.51078 -42.27916 -145.59859 -41.479404 -140.35304 -12.096197 11.042262
13790000000 -26.94948 11.537271 -42.979458 -169.93633 -41.716515 -164.99077 -12.400678 8.9143381
13800000000 -27.231586 5.6925306 -43.620888 168.92726 -42.152893 172.37918 -12.707911 6.2677383
13810000000 -27.400061 5.949429 -44.016685 148.94312 -42.342442 150.37061 -12.932756 4.1611519
13820000000 -27.676857 1.7568183 -44.490753 130.46985 -42.759075 126.96027 -13.159328 3.0397289
13830000000 -27.933319 6.7192698 -44.391113 113.21934 -43.120956 108.03677 -13.386781 2.9120338
13840000000 -27.702311 4.1732187 -44.025936 92.757957 -43.166759 87.412857 -13.678634 3.1433797
13850000000 -27.589508 6.621233 -43.855068 72.395531 -43.231747 67.704239 -14.069337 3.3955424
13860000000 -27.312998 2.1560488 -43.484657 49.258999 -42.73642 44.385979 -14.488729 3.7062075
13870000000 -27.176373 -0.68216038 -43.424831 26.044031 -42.832035 19.80006 -14.767679 4.5398254
13880000000 -27.28591 -9.0363331 -43.925983 0.50274563 -43.388557 -3.7686889 -14.934458 5.3085723
13890000000 -27.52561 -10.663178 -44.410255 -19.017563 -44.070007 -23.748718 -15.104888 6.9197659
13900000000 -27.571301 -18.737568 -44.618294 -37.298813 -44.209812 -40.985226 -15.246816 8.7669296
13910000000 -27.868881 -19.479036 -44.621254 -57.198044 -44.163849 -60.390251 -15.387786 10.269573
13920000000 -28.139475 -26.536743 -44.2901 -72.859871 -43.70369 -78.860329 -15.54184 11.093493
13930000000 -29.050377 -24.693081 -43.110245 -96.572685 -42.981258 -102.68368 -15.575272 11.45803
13940000000 -29.106821 -26.392706 -42.936951 -123.73113 -42.952454 -127.19661 -15.495925 11.779318
13950000000 -28.724459 -27.395638 -42.924923 -148.71887 -42.827145 -152.49202 -15.27634 12.456061
13960000000 -28.955633 -36.993893 -43.539726 -174.36055 -43.069492 -176.15976 -14.970439 13.307089
13970000000 -29.112951 -38.248802 -44.201744 166.68121 -43.317909 159.5381 -14.769635 13.937589
13980000000 -28.490721 -50.766792 -43.812405 147.72635 -43.875797 139.05768 -14.710882 14.858754
13990000000 -28.655249 -55.628696 -43.196091 123.73566 -43.316669 118.09988 -14.689203 15.347997
14000000000 -27.97501 -67.8312 -43.361004 99.675667 -43.452332 94.120781 -14.777662 15.592477
14010000000 -28.710165 -72.189018 -43.2901 72.853203 -43.457447 68.497047 -14.854329 15.484522
14020000000 -28.567616 -76.75441 -43.758362 50.838463 -43.730358 45.897633 -14.889035 14.787551
14030000000 -28.975773 -73.977249 -43.34948 25.193321 -43.692127 20.891294 -14.927288 13.940352
14040000000 -28.975206 -79.100739 -43.481472 0.1603546 -43.96151 -1.7283891 -14.990606 12.877137
14050000000 -29.23597 -73.06295 -43.678932 -29.119095 -43.68877 -29.046343 -15.063708 12.146078
14060000000 -28.897823 -79.826683 -44.400658 -57.250809 -44.299702 -56.549274 -15.133757 11.545972
14070000000 -28.849173 -81.471756 -45.57613 -83.980103 -44.936161 -84.838715 -15.26292 10.70305
14080000000 -28.545099 -94.12606 -47.105766 -109.45202 -46.131611 -111.06708 -15.369752 10.190022
14090000000 -28.800428 -101.26774 -47.917355 -125.47353 -47.705574 -129.04492 -15.360225 9.8426533
14100000000 -28.419987 -116.27473 -47.582672 -149.97636 -47.379765 -152.88341 -15.32284 9.0364304
14110000000 -29.138468 -121.16151 -48.163425 -179.14937 -48.537079 -177.24992 -15.323681 8.7555685
14120000000 -28.733414 -129.56769 -49.59153 150.71698 -49.529232 159.56996 -15.428326 9.1024733
14130000000 -29.568205 -128.55611 -51.296467 119.13911 -49.746849 131.86836 -15.582452 10.045448
14140000000 -28.889074 -128.90181 -54.439293 98.902542 -51.490253 104.39077 -15.800441 10.222002
14150000000 -28.806679 -126.03702 -55.989372 73.449623 -53.984524 76.180435 -16.063103 9.1331396
14160000000 -27.594553 -129.96878 -58.451775 49.18026 -59.173832 59.207817 -16.329737 7.710669
14170000000 -27.583921 -133.96042 -61.2841 30.465246 -57.551243 62.252457 -16.462904 6.8675008
14180000000 -26.985382 -141.91669 -64.617668 -10.430903 -61.609352 34.114197 -16.531422 7.0051293
14190000000 -27.405619 -149.78474 -67.341362 -70.677887 -59.668972 14.885695 -16.659721 7.8043494
14200000000 -27.273102 -157.41667 -63.250031 -161.68161 -65.38858 -42.450119 -16.936008 9.2923126
14210000000 -28.117903 -162.16321 -61.740601 150.36298 -71.059509 158.56271 -17.345337 10.787595
14220000000 -28.213806 -161.29478 -58.981869 105.29106 -63.330952 77.554848 -17.792025 12.042646
14230000000 -27.84746 -159.01256 -57.970772 99.512527 -60.31839 59.046906 -18.228943 13.530312
14240000000 -27.021101 -161.58055 -55.514694 71.883858 -59.407951 17.158478 -18.510744 15.837173
14250000000 -27.11705 -162.02278 -52.899761 43.629044 -59.22229 9.1065893 -18.685261 18.811285
14260000000 -26.379625 -164.28209 -51.109383 12.798027 -58.368111 5.0320439 -18.820269 22.190844
14270000000 -26.253572 -168.97885 -51.067173 -22.440443 -54.923882 -28.994946 -19.014513 25.163902
14280000000 -26.620546 -176.21608 -51.270321 -40.477207 -54.79422 -48.725517 -19.22707 28.124994
14290000000 -27.44767 -177.60432 -51.294361 -69.041344 -54.003658 -67.832352 -19.289566 30.873186
14300000000 -27.784973 -179.92445 -51.506973 -84.554428 -52.834545 -96.65242 -19.012045 33.307011
14310000000 -27.944998 -178.76724 -50.193466 -105.69644 -54.120491 -115.78257 -18.540903 35.012306
14320000000 -27.838713 178.22107 -50.258572 -129.40955 -52.941517 -129.50586 -18.013359 37.116062
14330000000 -27.592424 -176.71198 -49.757668 -152.1989 -52.595024 -148.68114 -17.546656 39.91412
14340000000 -26.685839 179.27835 -49.401386 -177.18173 -51.131203 -169.35475 -17.080021 43.083649
14350000000 -26.495108 177.14146 -49.874989 159.20654 -50.114029 163.174 -16.67688 45.826324
14360000000 -26.33143 171.16513 -49.668945 138.69023 -50.114323 135.79274 -16.414764 47.874287
14370000000 -27.376989 169.35135 -50.323544 119.54729 -51.557335 111.36676 -16.16782 49.150532
14380000000 -27.572577 171.15523 -49.766708 107.09508 -51.071899 102.85771 -15.881964 49.313438
14390000000 -28.184177 170.98552 -48.991375 82.369728 -50.376255 77.221497 -15.581779 48.294861
14400000000 -28.439686 175.14478 -48.904629 57.962181 -49.948116 59.460636 -15.188711 47.027668
14410000000 -28.026731 176.63425 -48.669987 42.067532 -49.665806 39.596523 -14.760736 45.809868
14420000000 -27.430367 174.09685 -48.545143 16.618607 -49.158955 16.168249 -14.372933 44.938541
14430000000 -27.012808 172.17705 -48.805882 1.1751142 -49.160931 -3.9330735 -14.028988 44.762119
14440000000 -26.878172 167.66899 -47.550865 -23.370564 -48.734669 -27.105938 -13.698377 43.941219
14450000000 -26.888035 167.48569 -47.806725 -44.665382 -48.433537 -46.447628 -13.476634 42.822571
14460000000 -27.262238 165.1709 -47.659737 -64.521652 -48.10281 -67.153175 -13.296291 41.690941
14470000000 -27.753643 171.54445 -47.588535 -84.584969 -48.249454 -89.758392 -13.092867 40.823257
14480000000 -27.221964 174.43585 -46.972931 -106.98859 -47.671486 -110.42969 -12.967785 40.25016
14490000000 -27.260647 176.23666 -46.925365 -128.77983 -48.152267 -134.17604 -12.900366 39.848499
14500000000 -26.721544 -178.87126 -46.685871 -151.34688 -48.122433 -152.48642 -12.951856 38.888084
14510000000 -26.118237 176.90108 -46.928139 -174.36174 -47.622181 -170.60635 -13.071487 37.353462
14520000000 -26.278412 176.30923 -46.355717 172.1557 -46.577431 172.17232 -13.127815 35.536617
14530000000 -26.07966 173.68268 -45.900299 141.32571 -46.228477 141.4465 -13.032286 33.753853
14540000000 -26.198456 173.91336 -46.618622 123.37543 -46.545834 122.19856 -12.859688 32.700779
14550000000 -25.813381 171.66237 -46.708408 99.986839 -46.682957 97.463737 -12.674459 32.585438
14560000000 -25.850986 173.12456 -47.086758 84.799614 -47.128273 81.142616 -12.584469 32.742966
14570000000 -25.506048 174.42677 -46.665661 67.411751 -46.960464 60.822636 -12.646639 33.240711
14580000000 -24.829111 176.22813 -46.346901 47.99472 -46.9132 42.664051 -12.702974 33.554165
14590000000 -24.506975 174.54129 -45.702518 28.39649 -46.624794 24.34321 -12.734864 33.450424
14600000000 -24.099054 176.35649 -44.932621 7.2372684 -45.52375 5.8920588 -12.690768 33.263554
14610000000 -23.626337 173.95793 -44.587917 -14.300917 -44.966232 -18.55418 -12.623878 33.112091
14620000000 -23.504984 172.70451 -43.973679 -35.073242 -44.800278 -41.756401 -12.560508 33.143791
14630000000 -23.259975 170.79774 -43.527199 -59.285927 -44.777092 -64.656494 -12.54159 32.687782
14640000000 -23.357359 168.52344 -42.943359 -82.247292 -44.509842 -82.81311 -12.53791 31.855316
14650000000 -23.10095 168.21414 -42.476818 -108.77151 -44.163776 -105.65701 -12.472387 30.766018
14660000000 -22.993958 166.13728 -42.796593 -132.73537 -43.565189 -127.39016 -12.307774 29.60008
14670000000 -22.945465 166.82716 -42.714401 -154.04677 -43.118679 -150.99113 -12.079749 28.961472
14680000000 -22.356054 167.74989 -42.542393 -177.60472 -43.199535 -175.51393 -11.844708 28.726686
14690000000 -21.92301 166.05365 -42.765392 160.00572 -43.332733 163.867 -11.694376 28.623486
14700000000 -21.829746 168.1357 -42.976742 146.48663 -42.67001 140.68459 -11.673761 27.943108
14710000000 -21.151146 165.71761 -42.421333 121.88791 -42.327541 117.40131 -11.700474 27.425758
14720000000 -20.837885 161.50282 -42.264427 94.987144 -41.938225 93.483002 -11.782233 26.638853
14730000000 -20.728506 156.50288 -43.184868 72.329659 -42.517227 69.125191 -11.844574 25.58613
14740000000 -21.116564 153.00107 -43.092587 52.839912 -42.52985 50.387836 -11.928367 24.161377
14750000000 -21.330618 151.15468 -42.717991 33.292164 -42.28804 31.543756 -11.963566 22.421099
14760000000 -21.306564 151.11664 -42.395905 9.5253468 -41.769226 8.6606169 -11.990023 20.229366
14770000000 -21.394392 148.80214 -42.309666 -15.598585 -41.839058 -12.372364 -12.01445 18.54574
14780000000 -20.942215 150.80606 -42.228455 -38.252892 -41.429909 -34.229179 -11.983222 17.606157
14790000000 -20.657709 148.21011 -42.173248 -62.666824 -41.377754 -59.321293 -11.981647 17.275778
14800000000 -20.202084 147.92531 -42.652489 -87.20504 -41.718246 -83.483109 -12.062065 17.154343
14810000000 -19.932489 143.4922 -42.844856 -108.39713 -42.610474 -106.96309 -12.211243 16.884058
14820000000 -20.156273 141.55956 -43.257957 -126.98677 -43.268787 -122.03013 -12.408068 16.446371
14830000000 -20.3088 138.8653 -42.980141 -146.36824 -43.033928 -140.6057 -12.603364 15.901646
14840000000 -20.68479 138.79602 -42.420658 -168.30325 -42.800217 -160.96143 -12.749274 15.710736
14850000000 -20.829113 137.88968 -42.60688 167.36429 -42.592781 175.91391 -12.914052 15.523538
14860000000 -20.827164 137.76743 -42.984486 145.52649 -42.960773 151.71886 -13.151578 15.520666
14870000000 -20.821955 134.94157 -43.337879 126.84455 -43.484959 130.93507 -13.425958 15.029744
14880000000 -20.457813 134.18791 -43.509537 106.20434 -43.3955 109.43377 -13.665926 13.784046
14890000000 -20.347557 128.23036 -43.08366 87.679794 -43.545807 86.81131 -13.770286 12.528611
14900000000 -20.36112 125.74807 -43.221722 63.488308 -43.881821 62.711948 -13.703454 12.016132
14910000000 -20.562975 121.31372 -43.796047 41.961819 -44.312 42.130184 -13.585232 12.778231
14920000000 -20.927263 121.53702 -44.141651 22.782141 -44.619461 18.235855 -13.552591 14.545409
14930000000 -21.132055 120.02058 -44.760834 6.9655409 -45.45042 -0.72912306 -13.724831 16.574497
14940000000 -21.413847 123.22734 -43.86631 -10.689627 -44.99387 -16.423367 -14.08043 18.402775
14950000000 -21.365925 122.36922 -43.344688 -33.075935 -44.377945 -39.559696 -14.41532 19.376936
14960000000 -21.456816 123.90462 -43.590923 -57.578312 -44.483746 -64.521355 -14.658255 19.511948
14970000000 -21.430077 121.38158 -43.43449 -77.113106 -44.491108 -83.649635 -14.778502 19.698725
14980000000 -21.452717 119.4336 -43.810658 -103.02674 -44.441105 -106.86124 -14.868361 20.288668
14990000000 -21.90354 113.83798 -44.33551 -116.97926 -44.644974 -124.75713 -14.990565 21.344063
15000000000 -22.504948 111.83818 -43.900913 -137.91177 -44.298248 -144.46576 -15.158813 22.211166
15010000000 -23.164198 111.08971 -44.016487 -158.476 -44.011402 -165.10756 -15.295087 22.677645
15020000000 -23.381924 112.31943 -43.404549 -176.60023 -43.405014 175.78625 -15.215799 22.837015
15030000000 -23.59363 111.85745 -43.485733 161.15895 -43.609932 153.85921 -14.88532 23.49921
15040000000 -23.712412 116.43152 -43.190632 140.16611 -42.860798 136.6212 -14.500644 24.936104
15050000000 -23.486406 116.35923 -43.340393 120.39925 -42.424679 113.53165 -14.218434 27.620224
15060000000 -23.25116 118.40771 -43.149014 99.965294 -42.156895 92.533508 -14.133781 30.389029
15070000000 -23.35293 115.28236 -42.779224 79.413033 -42.077293 70.45649 -14.219559 32.583324
15080000000 -23.857752 117.03989 -42.627823 55.945358 -42.126511 49.232971 -14.352255 33.295547
15090000000 -24.026896 116.40917 -42.528492 36.509098 -42.069656 30.193003 -14.448213 32.668884
15100000000 -24.465801 116.91495 -42.565495 15.459574 -41.727055 9.9210033 -14.444325 31.645414
15110000000 -24.928638 118.48419 -42.250618 -3.9100587 -41.187492 -10.195705 -14.294793 30.778708
15120000000 -25.123688 120.08321 -41.678127 -25.306385 -41.128372 -31.517311 -14.099252 30.400007
15130000000 -25.043707 120.90442 -41.436054 -49.327118 -40.76778 -52.708683 -13.939211 29.865658
15140000000 -24.774605 122.61334 -41.406902 -69.851456 -40.468182 -73.296364 -13.807253 29.555941
15150000000 -24.662441 122.02338 -40.952114 -92.571648 -39.905106 -96.719521 -13.579863 29.249998
15160000000 -24.345306 123.02507 -41.238968 -115.74644 -39.844986 -119.70249 -13.37547 29.150517
15170000000 -24.320313 123.09428 -41.103062 -136.07346 -39.72052 -144.49933 -13.205789 29.541758
15180000000 -24.022324 123.16409 -40.904106 -154.68631 -40.479839 -164.71254 -13.124262 30.108759
15190000000 -24.15251 124.29789 -40.230946 -176.5831 -40.298016 177.29808 -13.206367 30.343918
15200000000 -24.072891 125.66183 -39.784199 159.55757 -39.503639 157.44588 -13.382027 29.925877
15210000000 -23.928034 127.20821 -39.53727 134.73622 -39.016357 133.11809 -13.628478 28.982689
15220000000 -23.92819 126.97652 -39.542519 112.44026 -38.766949 109.89679 -13.791944 27.721415
15230000000 -23.725204 128.31067 -39.487511 87.53759 -38.601669 85.626343 -13.869313 26.229181
15240000000 -23.446119 126.81737 -39.537163 65.658875 -38.585426 61.814751 -13.92701 25.134508
15250000000 -23.316565 124.77327 -39.631905 44.157059 -38.658772 40.45369 -13.888163 24.53734
15260000000 -23.166225 122.76343 -39.350994 22.88793 -38.5298 18.059273 -13.827074 24.074415
15270000000 -23.270163 122.58731 -39.082439 -1.0000807 -38.219669 -4.399467 -13.737107 24.313107
15280000000 -22.84185 118.58576 -39.012688 -23.131437 -38.224888 -28.225855 -13.645324 25.17684
15290000000 -23.162369 118.46556 -38.66404 -48.603516 -38.365913 -51.357834 -13.639075 26.603569
15300000000 -22.900145 117.24995 -38.843689 -73.575333 -38.330708 -73.830025 -13.773486 28.056906
15310000000 -23.06325 117.40288 -39.066563 -97.716187 -38.28249 -96.813301 -13.993228 29.25552
15320000000 -22.749378 116.87014 -39.329147 -119.49619 -38.324135 -119.66369 -14.278293 29.630754
15330000000 -22.769808 115.16029 -39.234077 -142.4771 -38.198936 -143.56285 -14.492504 29.713875
15340000000 -22.762075 113.16644 -39.132179 -165.84126 -38.341038 -167.67828 -14.588947 29.381655
15350000000 -22.752899 111.71165 -38.882187 169.85973 -38.41087 169.56433 -14.582536 29.391329
15360000000 -23.062382 105.6186 -39.134022 143.95599 -38.696712 144.061 -14.536078 29.575945
15370000000 -23.50952 106.13539 -39.653633 118.70789 -39.169636 121.89336 -14.476509 29.546879
15380000000 -23.780018 100.50075 -40.280155 97.958298 -39.175285 101.08422 -14.398367 29.184469
15390000000 -24.443348 103.40236 -40.344585 78.702225 -39.156788 77.459175 -14.22387 29.007872
15400000000 -24.381594 100.86293 -40.104645 55.75943 -39.36095 52.764301 -13.968707 29.319044
15410000000 -24.538074 102.15734 -40.161594 31.894543 -39.717735 29.24338 -13.734932 30.541721
15420000000 -24.519724 98.566635 -40.171654 7.0324426 -40.051899 5.8353162 -13.650239 32.462978
15430000000 -24.693186 99.247894 -40.665199 -18.822121 -40.629147 -16.919924 -13.736681 34.080334
15440000000 -24.799604 95.352539 -41.527771 -44.842651 -41.14032 -39.157536 -13.999714 34.880318
15450000000 -25.118961 93.728607 -42.636017 -61.245193 -41.426666 -59.151318 -14.276042 34.326168
15460000000 -25.700071 87.688591 -42.33094 -82.351494 -41.554852 -82.682983 -14.444054 32.688911
15470000000 -26.635353 89.328514 -42.74004 -103.66039 -41.714359 -106.13395 -14.409084 30.936655
15480000000 -27.216408 83.078255 -42.487541 -128.79984 -42.110252 -131.30803 -14.250791 29.90246
15490000000 -28.348206 87.842636 -43.287762 -153.78467 -42.94165 -155.75352 -14.096701 29.662136
15500000000 -28.432917 83.842789 -44.06731 -176.09343 -43.992111 -176.1308 -14.010278 29.944059
15510000000 -29.29178 84.112679 -45.063728 158.73616 -44.806202 162.67551 -13.974627 30.344017
15520000000 -29.557081 82.198746 -45.919704 140.35641 -45.354584 144.39746 -13.98147 31.078728
15530000000 -30.221907 79.395599 -46.300236 118.32299 -46.015717 120.73656 -13.967244 32.257092
15540000000 -31.607885 73.666039 -47.177551 96.012321 -46.96109 100.97966 -13.999415 34.096878
15550000000 -33.375347 77.822952 -48.058334 78.592979 -48.099613 80.196014 -14.047383 35.929264
15560000000 -35.608768 70.179604 -49.010757 61.09193 -49.365871 62.588802 -14.192147 37.346474
15570000000 -38.453064 93.098839 -48.811054 40.086926 -50.283504 49.730843 -14.369823 38.002636
15580000000 -40.323792 85.858841 -49.530861 15.50469 -50.21981 31.971088 -14.573437 37.928017
15590000000 -41.523109 111.03673 -51.618038 -6.7455649 -51.465641 13.758879 -14.669181 37.256477
15600000000 -46.464455 111.83768 -54.36441 -24.291986 -52.82811 -4.2022696 -14.667008 35.941769
15610000000 -46.163898 151.86261 -58.698463 -23.653561 -54.545238 -9.1396666 -14.610638 34.974308
15620000000 -50.727097 175.51016 -56.892265 -9.6792955 -54.371861 -15.437194 -14.41642 34.594166
15630000000 -43.071957 -134.97693 -53.977444 -20.944889 -52.716034 -19.386122 -14.195723 35.006542
15640000000 -39.649029 -132.0428 -53.431049 -47.061443 -51.356842 -43.79454 -13.961975 36.440609
15650000000 -36.925602 -136.49336 -53.248962 -63.116776 -51.535099 -54.988899 -13.798972 38.208267
15660000000 -34.998543 -128.47789 -54.347618 -76.290627 -51.282089 -68.762032 -13.7936 39.964672
15670000000 -32.16518 -139.15337 -52.466381 -82.416603 -49.128677 -85.899727 -13.94692 41.344585
15680000000 -31.478567 -139.73773 -51.617088 -103.16463 -48.899235 -106.49271 -14.149276 41.765842
15690000000 -30.255335 -143.53566 -49.620338 -124.40706 -47.506767 -126.64351 -14.36316 41.370602
15700000000 -29.674377 -143.17819 -49.03447 -151.24579 -47.116409 -145.36877 -14.496855 40.99963
15710000000 -29.000572 -143.47507 -48.791061 -172.88681 -46.30925 -169.72101 -14.507602 40.955391
15720000000 -28.167593 -142.84251 -48.294411 170.87256 -45.895302 169.46677 -14.508821 41.05167
15730000000 -27.67091 -142.41858 -47.170757 149.90834 -45.152531 151.26111 -14.550836 41.202961
15740000000 -26.987387 -140.97676 -46.478199 127.47369 -44.271904 128.53012 -14.52492 41.314243
15750000000 -26.0779 -143.18127 -46.318874 102.50161 -43.85865 103.46712 -14.351812 41.652184
15760000000 -25.654444 -144.29391 -45.947556 81.373512 -43.639896 80.214867 -14.025152 42.586777
15770000000 -24.89846 -147.65068 -45.974236 61.921169 -43.653568 58.863075 -13.595716 44.624035
15780000000 -24.697893 -149.492 -44.736046 41.267624 -43.177635 37.767845 -13.304456 47.188492
15790000000 -24.29257 -152.15956 -44.669739 15.046865 -42.730305 14.338403 -13.167503 49.947666
15800000000 -24.1049 -152.59969 -43.9916 -7.7065339 -42.472969 -7.984972 -13.211147 51.76022
15810000000 -23.62117 -152.51146 -44.424465 -32.571449 -42.463348 -31.023819 -13.36423 52.363899
15820000000 -23.388842 -153.97688 -44.504955 -52.700958 -42.198841 -50.949039 -13.457044 51.49094
15830000000 -23.092506 -151.61624 -44.268089 -75.997757 -41.632954 -75.686516 -13.382703 49.89381
15840000000 -22.437235 -151.96689 -44.369507 -96.716164 -41.652496 -97.602417 -13.135696 48.330605
15850000000 -22.238174 -154.38741 -44.040855 -117.21334 -41.435535 -121.6059 -12.81824 47.019012
15860000000 -22.091908 -153.67329 -43.437077 -139.89848 -41.353325 -144.21225 -12.480482 46.168205
15870000000 -21.929129 -156.10033 -43.505127 -163.0787 -41.57056 -166.29944 -12.144119 45.643181
15880000000 -21.925341 -154.50911 -43.337666 173.56511 -41.117249 171.84026 -11.789043 45.302193
15890000000 -21.60708 -156.56133 -43.467255 152.49698 -41.381218 149.8456 -11.456995 45.125763
15900000000 -21.552048 -156.181 -43.211514 129.26741 -40.956989 128.01656 -11.205473 45.29694
15910000000 -21.106422 -156.99738 -42.972862 104.01044 -41.093204 103.45754 -11.071981 45.44857
15920000000 -20.929094 -158.53024 -43.455849 84.404701 -41.424889 82.094185 -11.032646 45.223907
15930000000 -20.800959 -157.07547 -42.882164 63.166855 -41.31422 61.748024 -11.084841 44.406822
15940000000 -20.307079 -156.6895 -42.443748 43.579102 -41.209595 40.704712 -11.168589 42.878345
15950000000 -20.016659 -156.81116 -42.350304 21.816597 -40.825592 19.715042 -11.222201 40.734543
15960000000 -19.683437 -156.18996 -42.156437 0.017304743 -40.521122 -4.9907207 -11.238352 38.11338
15970000000 -19.519428 -156.35818 -42.293659 -21.988411 -40.56765 -29.365347 -11.190236 35.463699
15980000000 -19.158689 -155.59509 -42.554474 -43.659157 -40.609245 -51.765114 -11.027015 33.037476
15990000000 -19.115604 -156.73383 -42.585468 -66.175125 -40.863117 -75.199905 -10.805031 31.233534
16000000000 -18.875696 -155.72559 -42.996906 -86.265442 -41.285797 -95.587761 -10.598771 30.299908
16010000000 -18.650093 -156.65431 -42.864769 -106.27091 -41.132114 -115.27877 -10.49118 30.170979
16020000000 -18.549446 -156.70499 -42.852928 -126.04578 -40.892803 -137.13972 -10.524679 30.206966
16030000000 -18.229034 -156.11736 -42.835991 -149.39037 -40.844448 -161.27466 -10.71666 29.496059
16040000000 -17.846756 -156.89314 -42.763851 -170.7619 -40.953186 178.24529 -11.015336 28.026556
16050000000 -17.49472 -156.61798 -42.688126 165.70815 -40.826668 154.79198 -11.301188 25.821486
16060000000 -17.035349 -157.34663 -42.630138 144.12979 -40.759769 132.11969 -11.527591 23.31669
16070000000 -16.795469 -157.96416 -42.34119 121.64567 -40.841343 109.12772 -11.670682 21.137594
16080000000 -16.35961 -159.00166 -42.501163 99.769226 -40.794563 85.481766 -11.832267 19.247633
16090000000 -16.394922 -159.31863 -42.475502 78.597374 -41.103367 61.777687 -11.998013 17.293856
16100000000 -16.163403 -158.80997 -42.634205 56.209091 -41.442932 40.742153 -12.137012 15.283066
16110000000 -15.961003 -157.98779 -42.685051 34.287132 -41.60886 18.771854 -12.179988 13.649423
16120000000 -15.513998 -157.9624 -42.652618 11.304379 -41.630074 -1.84208 -12.148171 13.124093
16130000000 -15.13395 -158.69453 -42.385555 -8.1022253 -41.448673 -24.045025 -12.153447 14.092218
16140000000 -14.775487 -160.05794 -42.167393 -35.308826 -41.44228 -48.867271 -12.323618 16.007425
16150000000 -14.421961 -162.02077 -43.156651 -57.914356 -42.120907 -72.644432 -12.699332 17.736591
16160000000 -14.214639 -163.70438 -43.485886 -77.76429 -42.516399 -91.680428 -13.235676 18.248962
16170000000 -14.073468 -164.95303 -43.743645 -97.465759 -42.66663 -113.25117 -13.784059 16.859728
16180000000 -13.927378 -165.1017 -43.358749 -121.64765 -42.892391 -134.99825 -14.182888 14.31424
16190000000 -13.717437 -164.32341 -43.311527 -142.92804 -42.844803 -156.72646 -14.362624 11.963719
16200000000 -13.360922 -163.83774 -43.354309 -167.94196 -43.103371 -179.51314 -14.403628 10.664277
16210000000 -12.887995 -163.68585 -43.648182 173.28735 -43.234386 159.07968 -14.423578 10.101851
16220000000 -12.551433 -165.03259 -43.825108 151.96358 -43.849632 137.78426 -14.470898 9.8606243
16230000000 -12.161963 -166.72594 -43.711681 134.67418 -43.682068 119.13578 -14.464485 9.5112514
16240000000 -12.025527 -169.11581 -43.399548 110.68179 -43.686291 96.37896 -14.447488 9.7533493
16250000000 -11.904744 -171.1425 -43.609421 89.730209 -43.763157 74.785515 -14.382751 11.251628
16260000000 -11.892384 -172.51099 -43.73637 67.59787 -44.033932 51.15308 -14.423814 13.668232
16270000000 -11.775382 -173.26471 -44.210171 48.844769 -44.578892 31.04554 -14.644174 16.268267
16280000000 -11.606656 -173.4342 -43.742729 32.935135 -44.826008 12.57811 -15.068935 17.861416
16290000000 -11.229187 -173.6024 -43.430031 11.559099 -44.772179 -6.160768 -15.568061 17.119438
16300000000 -10.899719 -174.40402 -42.735485 -12.511823 -44.041992 -30.539303 -16.034668 14.349126
16310000000 -10.467856 -175.38321 -42.879082 -38.183613 -44.399403 -54.785923 -16.252645 11.079047
16320000000 -10.224187 -177.09737 -43.07045 -61.385201 -44.472519 -77.953072 -16.27751 8.3834028
16330000000 -9.9705019 -179.00417 -43.58049 -82.560921 -44.692692 -100.02802 -16.242382 6.8541942
16340000000 -9.9631376 179.28142 -43.532272 -103.05467 -45.018501 -124.25528 -16.21806 5.6922216
16350000000 -9.9452782 178.02132 -43.56292 -125.47977 -45.174393 -145.13206 -16.209572 4.9708343
16360000000 -9.9397955 177.6929 -43.694138 -148.09926 -45.251534 -168.34636 -16.220135 4.5731254
16370000000 -9.8111906 177.18874 -44.320824 -171.46815 -46.028751 169.60393 -16.325518 5.3525033
16380000000 -9.5937939 176.86057 -44.859303 167.91997 -46.221489 149.83449 -16.611994 7.1434407
16390000000 -9.2595978 175.81311 -45.060097 145.75702 -46.470467 128.33984 -17.178106 8.8352375
16400000000 -8.9365711 174.29735 -45.057262 123.22562 -46.678085 106.36388 -17.955778 8.9849586
16410000000 -8.6350641 172.08116 -45.459263 98.679756 -47.486343 82.793091 -18.879431 6.9695997
16420000000 -8.5053587 170.12677 -45.571014 77.089012 -47.742165 65.243828 -19.637253 3.4976752
16430000000 -8.3794565 168.56348 -46.209656 52.615437 -48.490097 37.176659 -20.133022 0.41526818
16440000000 -8.4319706 167.46761 -46.946789 36.073772 -49.893017 23.346046 -20.458445 -1.2315087
16450000000 -8.3758154 167.39653 -46.588257 14.74361 -49.860363 5.1510587 -20.893921 -1.0605429
16460000000 -8.2733784 167.38454 -47.206493 -7.0830679 -50.251602 -13.59415 -21.298941 -0.10684586
16470000000 -8.0839911 167.05888 -47.763832 -25.989634 -51.039474 -32.848728 -21.628136 1.305346
16480000000 -7.8657007 166.19853 -47.905792 -44.854759 -51.911968 -49.085136 -21.626514 4.5008488
16490000000 -7.6455574 164.83763 -48.160187 -64.209679 -52.177059 -64.098999 -21.490589 9.81147
16500000000 -7.4491763 163.03464 -48.008286 -84.805923 -52.093056 -76.995773 -21.363407 18.142271
16510000000 -7.2955289 160.96689 -48.435863 -104.33566 -51.826675 -100.095 -21.555292 27.118095
16520000000 -7.2661304 159.54276 -49.183201 -123.33551 -53.036465 -111.69737 -22.154888 35.565632
16530000000 -7.1397195 158.43097 -49.19342 -139.62357 -52.538651 -127.64493 -23.051355 40.385838
16540000000 -7.1117692 157.91649 -49.194283 -156.8858 -53.075432 -138.90494 -23.929119 40.336651
16550000000 -6.9214711 157.71869 -48.33646 -174.09764 -51.2589 -151.89888 -24.303024 35.74258
16560000000 -6.7740974 157.27371 -48.067368 162.48866 -50.534191 -176.09593 -24.024025 32.606583
16570000000 -6.5467854 156.83003 -47.986679 140.76501 -50.157032 163.09877 -23.565134 31.745005
16580000000 -6.3522301 155.58022 -48.097843 123.02418 -49.7342 145.29991 -23.124008 33.18845
16590000000 -6.2048974 154.20265 -47.53577 105.34389 -49.280628 122.06562 -22.885481 34.200493
16600000000 -6.1068978 152.64046 -48.004669 83.939972 -49.934319 103.91094 -22.688942 35.159405
16610000000 -6.0230937 151.20752 -47.651878 70.003105 -48.977322 88.333244 -22.304668 36.386902
16620000000 -5.9528303 150.17603 -47.253319 51.454693 -48.221001 70.433426 -21.938318 40.029858
16630000000 -5.8160868 149.13806 -46.230457 30.641537 -46.986767 45.69558 -21.594326 46.266949
16640000000 -5.6719699 148.53708 -46.248081 9.8973351 -46.911766 21.095287 -21.62895 54.064804
16650000000 -5.4471679 147.59947 -46.004723 -12.403551 -46.872234 -1.6788968 -21.920828 60.26112
16660000000 -5.2411418 146.78777 -45.829098 -30.978237 -46.390961 -19.848822 -22.665983 64.441368
16670000000 -5.015368 145.67047 -45.721832 -55.019661 -46.164356 -44.805462 -23.44739 64.77475
16680000000 -4.8588328 144.32867 -45.995525 -74.987312 -46.050339 -65.283173 -23.746849 61.105515
16690000000 -4.7212043 143.10759 -45.673969 -93.839882 -45.878933 -88.573692 -23.448431 56.723679
16700000000 -4.6313324 141.8358 -45.20269 -115.26221 -45.5103 -108.43536 -22.666164 54.293732
16710000000 -4.5271311 140.72507 -44.907867 -138.43648 -45.138012 -131.98288 -21.707653 54.294231
16720000000 -4.4224381 139.6366 -44.804829 -160.16719 -45.154118 -155.43805 -20.972548 55.498989
16730000000 -4.2807612 138.52284 -44.368713 175.32484 -44.841961 -178.86014 -20.370184 57.511852
16740000000 -4.1145225 137.42549 -44.847488 152.16914 -45.063011 159.06519 -19.978718 59.748585
16750000000 -3.9234047 136.06812 -44.698799 130.71213 -44.845116 137.66563 -19.700602 62.166313
16760000000 -3.744818 134.66533 -44.594452 108.86957 -44.828171 116.04733 -19.591164 63.511204
16770000000 -3.5891724 133.21268 -44.380726 85.367348 -44.7747 92.081223 -19.776995 64.0811
16780000000 -3.453382 131.85426 -44.608349 64.867729 -44.951202 72.302582 -20.124056 63.658833
16790000000 -3.3243783 130.5701 -44.224171 43.269825 -44.742462 50.809254 -20.564081 61.453781
16800000000 -3.2207887 129.24409 -43.838123 20.454054 -44.453171 29.085487 -20.896734 56.733494
16810000000 -3.1055949 127.99335 -43.826221 -3.558975 -44.017189 5.3019533 -21.145527 50.250004
16820000000 -3.0017045 126.63656 -43.713058 -26.257967 -43.940063 -19.665653 -21.055456 44.558422
16830000000 -2.8702486 125.18658 -43.876038 -48.061966 -44.332642 -44.60326 -20.609568 40.241096
16840000000 -2.7462831 123.61921 -44.043682 -68.563644 -44.611954 -64.77388 -20.172665 37.868546
16850000000 -2.6173077 121.991 -43.851616 -90.830734 -44.535664 -85.468292 -19.902756 38.241573
16860000000 -2.4976337 120.41102 -43.996651 -111.57716 -44.49197 -107.4898 -19.843016 40.768829
16870000000 -2.3788185 118.91536 -43.854412 -132.99445 -44.321033 -128.85724 -20.137842 43.744049
16880000000 -2.2590718 117.47836 -43.888092 -155.34329 -44.145729 -153.07503 -20.780224 46.709431
16890000000 -2.1451287 116.08879 -43.840534 -178.74777 -44.201061 -176.71407 -21.857092 47.925171
16900000000 -2.0482345 114.78001 -44.291378 157.12877 -44.410175 158.87492 -23.2946 47.087696
16910000000 -1.9419769 113.43735 -44.907688 136.29547 -44.760017 135.52209 -24.804024 44.516964
16920000000 -1.8562945 112.04758 -44.867691 116.07737 -44.890793 113.61137 -26.11692 39.69865
16930000000 -1.7660545 110.49214 -45.117302 94.699783 -45.053188 90.825729 -26.987059 34.473873
16940000000 -1.6874348 108.92341 -44.934765 72.266182 -45.234913 69.933044 -27.556374 30.746241
16950000000 -1.5965343 107.23038 -45.289661 48.281708 -45.204731 46.396343 -28.080181 30.113962
16960000000 -1.5193105 105.51524 -45.443836 25.170959 -45.384502 23.542032 -28.321976 37.443058
16970000000 -1.4359587 103.87762 -45.738182 3.1211126 -45.582211 1.906106 -27.935783 49.353252
16980000000 -1.3541477 102.25957 -45.87381 -21.302532 -45.657124 -21.995775 -27.425598 63.482792
16990000000 -1.2670783 100.75237 -46.432961 -44.337238 -45.977764 -46.078468 -26.585556 78.565491
17000000000 -1.1810399 99.273788 -46.610786 -67.262878 -46.220142 -67.305344 -25.784685 92.312981
