!Keysight Technologies,P9374A,MY57211807,A.19.30.04
!Date: Friday, May 08, 2026 15:02:57
!Correction: S11(C  2-Port  ) 
!S21(C  2-Port  ) 
!S12(C  2-Port  ) 
!S22(C  2-Port  ) 
!S2P File: Measurements: S11, S21, S12, S22:
# Hz S  dB   R 50
13000000000 -18.551941 57.790272 -41.96133 79.317192 -42.178188 83.000626 -9.2153826 15.04674
13010000000 -18.892513 55.900532 -41.615734 61.237209 -41.549747 64.455276 -9.1637058 10.819883
13020000000 -19.478912 57.279469 -41.29493 39.99559 -41.03793 42.459835 -9.1503248 6.793097
13030000000 -19.894415 60.31773 -41.283016 17.074606 -41.067814 17.94285 -9.150651 2.6946399
13040000000 -20.116547 63.931007 -41.710773 -5.2610874 -41.621605 -4.4602704 -9.1771564 -1.3027687
13050000000 -19.866978 65.864372 -42.304798 -24.10095 -42.085564 -21.998314 -9.2868214 -5.2922573
13060000000 -19.590158 66.68885 -42.000629 -41.546177 -41.724056 -38.807583 -9.4685421 -9.2872133
13070000000 -19.310524 63.21159 -41.967884 -61.15847 -41.229473 -60.060463 -9.7195883 -13.15948
13080000000 -19.498451 61.958096 -41.63345 -81.54406 -41.007675 -82.370323 -9.9855642 -17.149673
13090000000 -19.305511 58.885822 -41.626831 -104.63763 -41.079315 -106.24619 -10.22017 -21.111101
13100000000 -19.813057 58.669651 -42.017166 -124.72656 -41.528324 -126.22868 -10.455119 -24.755384
13110000000 -19.65362 59.646896 -41.654438 -143.38998 -41.207088 -146.2039 -10.767248 -28.216259
13120000000 -19.956457 60.299828 -41.940014 -162.51146 -41.51144 -166.15018 -11.177178 -31.617195
13130000000 -19.62574 62.264545 -41.381104 179.16667 -41.245064 174.71202 -11.666073 -34.970402
13140000000 -19.455025 62.6422 -40.933624 156.08412 -40.897083 151.51857 -12.15498 -38.523067
13150000000 -19.394722 61.69326 -41.019878 133.78679 -41.003826 130.73331 -12.589278 -42.040466
13160000000 -19.350107 63.329254 -41.03476 113.38123 -41.212608 110.40653 -13.000257 -45.220688
13170000000 -19.089661 60.771069 -41.022007 93.805679 -40.952621 89.014206 -13.500247 -47.981506
13180000000 -19.191975 59.188869 -40.619972 73.125671 -41.002998 67.951653 -14.156981 -50.487476
13190000000 -19.003872 56.752628 -40.149071 50.863209 -40.635952 47.209 -14.989537 -53.286816
13200000000 -19.242222 53.085712 -40.060745 26.931156 -40.624092 25.894829 -15.86269 -56.667686
13210000000 -19.423372 52.869053 -40.28484 4.2031903 -40.609322 4.2403116 -16.695463 -60.665535
13220000000 -19.730471 50.562992 -40.545227 -15.425445 -40.752647 -16.876986 -17.449854 -63.774837
13230000000 -19.846479 54.674831 -40.291798 -35.91103 -40.663177 -37.36153 -18.23678 -65.461143
13240000000 -19.47019 54.697918 -40.164692 -56.710896 -40.811783 -56.99836 -19.208904 -66.591248
13250000000 -19.263588 54.912766 -39.810528 -79.74144 -40.169823 -76.908096 -20.787962 -67.983856
13260000000 -18.897268 54.092136 -39.853455 -102.07074 -39.867264 -100.25782 -22.923473 -70.279816
13270000000 -18.64242 49.66563 -40.009277 -123.83307 -40.012997 -122.43094 -25.391668 -74.212357
13280000000 -18.913893 45.900238 -39.836258 -145.5919 -39.920376 -144.13292 -27.913946 -80.382355
13290000000 -19.370495 42.798931 -40.042374 -169.20055 -40.030666 -166.64218 -30.633472 -84.746681
13300000000 -19.90629 40.666245 -40.309376 172.23866 -40.1208 174.14333 -35.315231 -80.578644
13310000000 -20.387722 42.27314 -39.842415 151.92802 -39.571018 153.03764 -43.717236 -13.714272
13320000000 -20.284519 41.774139 -39.842636 129.07587 -39.373146 129.63396 -34.535583 60.677689
13330000000 -20.367842 43.774509 -39.7416 106.61734 -39.474747 106.19289 -28.761827 73.041016
13340000000 -19.703485 42.469788 -39.892147 83.069183 -39.615685 83.718163 -25.486809 76.639915
13350000000 -19.829382 39.935852 -40.0924 61.332108 -39.625763 62.175549 -23.743927 76.205574
13360000000 -19.422642 38.413567 -40.141674 41.153854 -39.414349 41.247143 -22.524374 72.272545
13370000000 -19.686911 33.024918 -40.172611 19.769432 -39.37709 17.673649 -21.3148 66.041664
13380000000 -20.008331 31.054012 -40.233917 -2.1552684 -39.769444 -6.2391744 -19.914459 60.383293
13390000000 -20.708185 28.842218 -40.381069 -22.221733 -40.157719 -26.007265 -18.471426 56.44054
13400000000 -21.096605 29.181177 -40.306252 -43.485413 -39.91114 -46.874035 -17.225601 53.982841
13410000000 -21.620224 27.874405 -40.330353 -66.000381 -40.047428 -69.435249 -16.36577 51.9123
13420000000 -21.884796 29.447639 -40.321041 -89.414101 -39.981209 -93.061554 -15.838315 49.19788
13430000000 -21.702257 29.08812 -40.973328 -108.35567 -41.003216 -109.99897 -15.639313 44.909142
13440000000 -21.527822 28.53919 -40.807587 -127.27075 -40.8797 -129.40044 -15.247609 40.505924
13450000000 -21.29455 25.445599 -40.415844 -150.31929 -40.543072 -151.47951 -14.773249 35.523991
13460000000 -21.082918 21.897284 -40.684235 -171.55746 -40.685734 -172.89409 -14.296252 31.129646
13470000000 -21.757828 15.73346 -40.512199 166.58672 -40.729202 165.1481 -13.941525 27.573494
13480000000 -22.259794 16.452679 -41.025043 146.20016 -41.184475 146.57793 -13.747238 24.357332
13490000000 -23.097542 11.778965 -40.723015 129.33467 -40.63361 128.59369 -13.670753 21.498228
13500000000 -23.938871 15.386734 -40.104507 106.75144 -40.174957 106.64827 -13.66314 18.164766
13510000000 -24.590113 19.790472 -40.089291 81.695869 -40.00185 81.971321 -13.677995 14.499227
13520000000 -24.091743 22.488794 -40.259575 60.139645 -40.243996 59.900364 -13.734178 11.124276
13530000000 -23.854752 19.753338 -40.360275 38.632175 -40.283066 38.927223 -13.855398 8.3740549
13540000000 -23.651464 16.858452 -39.962646 18.220156 -39.826054 18.002382 -14.007454 6.3283844
13550000000 -23.818407 11.271947 -40.033611 -3.8313892 -39.880226 -5.0541263 -14.226955 4.4013562
13560000000 -23.743589 6.8759842 -40.184765 -26.891922 -40.088352 -28.398609 -14.54769 2.3706796
13570000000 -25.789255 0.77316189 -39.934956 -48.321846 -39.85339 -49.093945 -14.858714 0.62970459
13580000000 -26.109636 7.410377 -39.968021 -72.93676 -39.758362 -73.280067 -15.096246 -0.52811581
13590000000 -27.411747 10.169716 -40.221001 -97.22776 -39.685104 -98.060593 -15.281182 -1.2900133
13600000000 -26.901043 18.19923 -40.511906 -122.2735 -40.118469 -123.91177 -15.415874 -1.2261611
13610000000 -27.125435 24.478554 -41.275055 -142.52837 -40.907604 -145.14693 -15.55224 -0.52018631
13620000000 -25.743837 21.533861 -40.962959 -166.49304 -40.835686 -168.55083 -15.70785 0.54463983
13630000000 -26.463324 15.373489 -41.655365 170.44017 -41.345661 168.72992 -15.804517 1.4644558
13640000000 -26.635677 9.964448 -42.211975 152.11667 -41.905281 149.9715 -15.887445 1.9957036
13650000000 -28.197571 7.5687504 -41.953232 130.99765 -41.708923 129.70569 -15.858704 2.4541638
13660000000 -28.166317 7.3989801 -42.674988 106.02766 -42.344402 105.25368 -15.663939 2.6713142
13670000000 -30.34594 9.4549818 -43.007233 84.637657 -42.91573 83.981972 -15.35089 2.7485754
13680000000 -29.468321 20.837595 -43.969635 61.633907 -44.083927 62.974609 -15.026168 2.2673707
13690000000 -29.127928 26.103117 -45.333717 46.841515 -45.083286 46.487686 -14.712615 1.977114
13700000000 -27.915449 26.344975 -44.95406 33.963341 -45.012306 32.881695 -14.415455 1.272845
13710000000 -27.52705 27.178913 -44.56892 13.451513 -44.91367 13.64342 -14.179963 -0.35474455
13720000000 -27.086737 22.867481 -45.156971 -6.725481 -44.971432 -6.7996402 -13.956019 -2.6943166
13730000000 -27.562399 19.39238 -45.413738 -25.993145 -45.176113 -26.64719 -13.727687 -5.4418378
13740000000 -27.963158 16.079329 -45.550968 -40.837208 -45.208904 -42.682003 -13.479646 -8.3863249
13750000000 -29.34956 16.937744 -45.87431 -57.155979 -45.418514 -60.112679 -13.285442 -11.343356
13760000000 -29.48098 15.086983 -45.139256 -71.499496 -45.241344 -74.292168 -13.234468 -14.311642
13770000000 -31.454573 18.46534 -44.11903 -91.23719 -44.299679 -92.679947 -13.313102 -17.503387
13780000000 -30.096556 32.278187 -43.295937 -114.27789 -43.567074 -115.70616 -13.488431 -21.228544
13790000000 -28.440197 29.209202 -43.029942 -140.08806 -43.356384 -139.83472 -13.620427 -25.464233
13800000000 -27.502811 23.489595 -43.559826 -161.3483 -43.680687 -161.61588 -13.665969 -30.226784
13810000000 -26.715919 15.843008 -43.319683 178.19394 -43.368652 178.72894 -13.768524 -34.603302
13820000000 -26.381966 5.8353972 -43.55162 157.61224 -43.589249 158.61105 -13.985777 -37.982578
13830000000 -27.130838 1.6248221 -43.393127 139.55719 -43.078396 139.15384 -14.356335 -40.830746
13840000000 -28.041121 -8.3039961 -42.875221 118.54052 -42.651028 116.87159 -14.829109 -43.570381
13850000000 -30.839499 -2.9531398 -42.749115 96.663765 -42.857128 97.083595 -15.362368 -46.966801
13860000000 -30.200401 8.3413897 -42.495621 74.580551 -42.012764 74.956146 -15.883368 -50.890137
13870000000 -29.869375 13.814275 -42.450409 53.061649 -42.079773 51.60128 -16.430742 -54.538536
13880000000 -28.344904 12.105732 -42.178608 29.560396 -41.790859 27.597616 -17.078453 -56.957493
13890000000 -27.165663 4.2479548 -42.531322 4.1645741 -42.269966 2.0060344 -17.859983 -58.410595
13900000000 -26.720905 -9.6594381 -43.223103 -14.806121 -42.877804 -16.589384 -18.757854 -59.973808
13910000000 -27.440086 -16.198303 -42.804684 -31.62307 -42.78981 -32.861439 -19.755873 -61.756126
13920000000 -27.764206 -24.957678 -42.463196 -54.343506 -42.239178 -54.671474 -20.609394 -63.263424
13930000000 -29.208363 -30.928354 -42.245625 -75.368805 -41.924572 -78.669197 -21.362766 -63.773827
13940000000 -30.476131 -33.04538 -42.242661 -100.55875 -42.252075 -103.06264 -22.018499 -61.763542
13950000000 -31.686152 -26.175272 -42.244099 -122.14467 -42.401886 -124.65716 -22.669142 -57.706245
13960000000 -30.952095 -29.447985 -42.680176 -144.38281 -42.844814 -145.30974 -23.575399 -51.313004
13970000000 -31.308054 -30.919027 -42.711861 -165.36588 -42.727032 -166.33234 -24.369352 -43.422928
13980000000 -30.78121 -36.189903 -42.754841 175.44788 -42.81879 173.04163 -24.985855 -36.468739
13990000000 -29.573908 -39.999454 -42.71236 153.19611 -42.852871 152.60648 -25.407894 -31.269699
14000000000 -28.49749 -52.723942 -42.109772 133.50343 -42.22385 134.17888 -25.735069 -28.730085
14010000000 -28.09849 -62.890244 -42.178448 106.37347 -42.234596 106.74669 -25.894835 -26.044275
14020000000 -27.782001 -69.834946 -42.423859 84.009895 -42.386372 83.007431 -25.693985 -24.864759
14030000000 -28.033028 -79.698608 -43.127106 61.608418 -42.940659 57.993668 -25.642918 -24.114147
14040000000 -28.914015 -90.813217 -43.396317 41.871174 -43.64547 39.650814 -25.572336 -24.167652
14050000000 -31.543686 -90.766426 -43.599731 21.656166 -43.682087 19.458849 -25.63796 -23.307381
14060000000 -32.771526 -83.180206 -43.269196 0.85488713 -43.196896 -1.1287801 -25.619076 -22.793135
14070000000 -32.970394 -72.774239 -43.611664 -24.057861 -43.591282 -25.137106 -25.490639 -22.983503
14080000000 -31.371973 -75.921547 -43.792328 -45.618824 -43.563606 -46.854893 -25.572304 -24.37817
14090000000 -30.127029 -77.762932 -43.994968 -68.456711 -43.840897 -72.342148 -25.764917 -23.84403
14100000000 -27.718649 -98.651985 -44.627384 -92.733528 -44.93187 -96.508698 -25.791121 -22.286253
14110000000 -27.801701 -117.14038 -45.46043 -115.22999 -45.738586 -113.49675 -25.625496 -20.173962
14120000000 -27.69179 -130.07106 -46.339428 -134.79462 -46.288525 -133.06213 -25.587811 -19.526594
14130000000 -28.572165 -138.60738 -47.394913 -150.71365 -46.937408 -150.81639 -25.947289 -19.792341
14140000000 -29.114063 -145.69296 -47.366051 -167.19351 -47.246601 -167.34384 -26.526911 -21.011627
14150000000 -31.40432 -143.35936 -47.698414 176.69696 -47.451992 173.06709 -26.848171 -24.1619
14160000000 -30.530682 -130.85867 -47.566551 156.83565 -47.552174 155.9597 -27.006895 -28.798372
14170000000 -29.940807 -127.68737 -47.939152 138.25339 -48.081806 137.26756 -27.068172 -31.192129
14180000000 -28.547508 -135.71336 -48.950203 120.8495 -48.550888 122.44592 -27.396662 -32.950855
14190000000 -28.591473 -138.74297 -49.452763 109.1181 -48.894848 105.64896 -28.599037 -32.876842
14200000000 -27.081312 -147.79787 -48.771828 105.21181 -48.741959 99.481956 -30.809973 -29.66164
14210000000 -27.31315 -158.08386 -46.872723 82.62851 -46.817688 79.911201 -33.78487 -29.880972
14220000000 -27.207678 -162.0423 -46.399059 61.584328 -46.692074 56.370071 -38.795769 -42.955688
14230000000 -27.532778 -169.31659 -45.552563 41.671684 -45.754974 40.147827 -46.029564 -94.644127
14240000000 -27.61569 -171.82863 -45.441082 18.225773 -45.404663 15.425378 -42.813213 176.84645
14250000000 -28.183495 -172.69911 -45.294262 1.1072091 -45.391193 -1.9312695 -37.313927 143.57684
14260000000 -28.8526 -172.22267 -44.25349 -21.391609 -44.550877 -22.89637 -33.248524 131.59099
14270000000 -29.133871 -162.80493 -44.231068 -43.828785 -44.226109 -44.751427 -30.049492 126.14362
14280000000 -27.911896 -165.51265 -44.013382 -64.906464 -44.062588 -67.62571 -27.943287 122.68908
14290000000 -27.560835 -163.64877 -43.677166 -82.765472 -43.957733 -85.005737 -26.410824 119.23798
14300000000 -26.52537 -172.27271 -42.842594 -105.43555 -42.953598 -107.16531 -25.13435 113.99752
14310000000 -26.511179 179.55917 -42.380432 -132.0072 -42.711685 -132.88519 -23.965971 107.05795
14320000000 -26.896236 170.21198 -42.755798 -156.90759 -42.928574 -156.50623 -22.596409 101.12732
14330000000 -27.797794 168.76926 -43.001682 -177.17528 -42.932308 -176.8568 -21.319366 96.568054
14340000000 -28.794428 164.93819 -42.989029 162.18301 -42.878124 161.42786 -20.200546 94.025833
14350000000 -29.254486 177.60938 -42.919453 140.19505 -43.015903 140.10861 -19.316311 92.150047
14360000000 -29.042601 179.77592 -42.885735 122.6217 -42.873928 121.94131 -18.684643 89.825111
14370000000 -27.599562 -172.76292 -42.326843 99.757675 -42.290279 99.263641 -18.303696 87.052116
14380000000 -26.74464 176.2596 -41.907688 77.567894 -41.80024 78.014236 -17.975328 83.848679
14390000000 -27.102465 173.78853 -41.860943 52.509506 -41.775017 53.505604 -17.56288 80.131531
14400000000 -27.496269 168.37799 -42.186817 28.737734 -41.75589 28.107941 -17.071659 76.04657
14410000000 -27.830032 166.76445 -42.677227 9.4954128 -42.299793 7.3733616 -16.575581 72.130814
14420000000 -29.097317 163.49701 -42.64003 -7.0089645 -42.504196 -9.7270908 -16.117908 68.737915
14430000000 -28.761118 173.03505 -41.637005 -29.054859 -41.787266 -31.533327 -15.783049 65.712341
14440000000 -28.725918 169.89717 -41.730026 -53.398083 -41.696533 -53.419994 -15.557565 63.096443
14450000000 -27.803022 176.45203 -41.605988 -73.380005 -41.310459 -74.55587 -15.42248 60.83466
14460000000 -27.860811 172.08336 -41.701118 -94.670982 -41.246864 -97.188065 -15.265948 58.536129
14470000000 -27.315639 178.65218 -41.128746 -116.58601 -41.120941 -120.96336 -15.09707 56.169163
14480000000 -26.816574 178.04936 -41.127342 -141.54762 -41.394539 -144.57156 -14.947508 53.731071
14490000000 -26.470154 174.32681 -41.199638 -163.00987 -41.259266 -164.05598 -14.964473 51.094112
14500000000 -26.839798 175.45677 -41.08007 176.16396 -41.06366 173.7618 -15.115642 48.991737
14510000000 -26.469669 171.39001 -40.862011 153.3539 -40.854557 150.35898 -15.267626 46.823303
14520000000 -27.881321 172.64816 -40.520496 131.07988 -40.684624 127.85793 -15.361966 44.455463
14530000000 -27.621849 174.87994 -40.356495 107.09891 -40.568111 105.29968 -15.271915 42.253441
14540000000 -27.904484 -175.82826 -40.500824 82.530685 -40.480679 81.914948 -15.101919 40.688366
14550000000 -25.791544 -175.11978 -40.45805 60.514809 -40.447308 58.340561 -14.964735 39.764301
14560000000 -25.092123 -177.60344 -40.345985 34.679829 -40.307491 32.274395 -14.973598 39.668385
14570000000 -23.855488 176.09735 -40.618725 8.7471666 -40.778721 6.335382 -15.029296 39.733509
14580000000 -24.084433 170.95967 -41.21994 -15.170177 -41.302856 -17.67329 -15.172678 39.170433
14590000000 -24.254951 164.96501 -41.893791 -35.951553 -42.082214 -37.869385 -15.263002 38.398232
14600000000 -25.573103 170.77811 -41.510918 -57.704845 -41.70752 -59.116592 -15.237496 37.309601
14610000000 -25.006004 173.53271 -41.838593 -81.816795 -41.987976 -83.278587 -15.198747 36.490154
14620000000 -25.013575 -178.70938 -42.076004 -104.73227 -42.218197 -106.27548 -15.136132 36.358509
14630000000 -23.396835 -178.672 -42.215561 -131.43976 -42.332233 -132.70976 -15.055816 36.05999
14640000000 -22.61965 177.16931 -43.066391 -157.03072 -43.415714 -158.57153 -15.004028 35.068039
14650000000 -22.048651 170.61256 -44.064228 179.03476 -44.397327 178.61653 -14.891572 33.321159
14660000000 -22.085957 165.06099 -45.434162 161.04364 -45.369324 162.41498 -14.778336 31.414434
14670000000 -22.57048 161.40063 -45.949368 142.1124 -45.949238 141.30138 -14.596701 30.232952
14680000000 -22.666546 162.90083 -46.32465 126.46049 -46.375278 125.7298 -14.443089 29.476868
14690000000 -22.918331 162.92398 -45.758793 104.08515 -45.988728 103.81769 -14.301822 29.25477
14700000000 -22.425274 167.86606 -46.711617 77.101875 -46.993603 79.238663 -14.199732 28.522434
14710000000 -21.629955 166.47285 -48.128925 52.207111 -48.125534 53.036194 -14.173748 27.052868
14720000000 -21.321562 163.903 -50.680401 37.670219 -50.494541 40.289558 -14.220695 24.981016
14730000000 -21.046751 160.67465 -50.991859 25.648533 -50.892941 28.27878 -14.36175 22.718651
14740000000 -20.970648 157.07257 -51.609913 14.832439 -50.80698 18.007307 -14.51096 20.698029
14750000000 -20.860422 154.01102 -51.773586 -3.5278726 -50.79792 -6.5167508 -14.610778 18.850401
14760000000 -20.842129 150.84604 -52.719158 -6.4542689 -52.570831 -8.7418461 -14.614278 16.817005
14770000000 -21.134855 148.29065 -50.634811 -27.209646 -50.005558 -27.24575 -14.587657 14.605173
14780000000 -20.976824 148.07747 -50.299152 -47.757469 -49.549206 -49.625538 -14.649002 12.935307
14790000000 -21.078642 146.33887 -51.403267 -64.075874 -50.424797 -71.239555 -14.717283 12.148799
14800000000 -20.884594 148.38135 -51.558098 -70.635498 -50.967697 -78.61647 -14.902263 10.961576
14810000000 -20.537561 147.81567 -49.178066 -82.24575 -49.519924 -87.196609 -15.220967 9.5789919
14820000000 -20.049513 147.09557 -47.723938 -109.8959 -48.134624 -114.75803 -15.582222 8.5727386
14830000000 -19.867378 143.36765 -47.661015 -133.64577 -47.667339 -136.22816 -15.835751 7.7251043
14840000000 -19.873981 139.26945 -47.683689 -156.85442 -47.963573 -159.08521 -15.995907 6.9431186
14850000000 -20.250366 134.78635 -47.75145 -174.88986 -47.994308 -178.5023 -16.204363 6.5586395
14860000000 -20.674433 132.58839 -47.571304 167.37177 -48.085773 163.80446 -16.484154 6.0135703
14870000000 -21.44614 130.89301 -46.519154 148.85951 -46.949673 147.02107 -16.924511 5.058485
14880000000 -21.492178 132.48178 -46.800236 122.6909 -46.938 121.66718 -17.328739 3.6819489
14890000000 -21.332756 134.21065 -46.609253 106.56399 -47.352184 105.72697 -17.607513 2.1082001
14900000000 -20.559446 131.73541 -45.302979 85.80648 -45.701321 85.894661 -17.672588 1.6663852
14910000000 -20.347147 128.74664 -45.371571 56.435349 -45.687683 57.549072 -17.659445 3.0862362
14920000000 -20.09256 123.94602 -46.586021 39.220135 -46.705135 39.253929 -17.747965 5.2737451
14930000000 -20.494846 121.20436 -45.756409 21.779631 -45.794346 20.529461 -18.073635 7.3181739
14940000000 -20.93364 118.7907 -45.773834 -0.71155 -45.800293 1.7749445 -18.606079 8.6798553
14950000000 -21.392382 120.65447 -45.704094 -20.758686 -45.694157 -18.992283 -19.19833 8.5423737
14960000000 -21.843176 118.05626 -45.217934 -36.675594 -44.944763 -35.343578 -19.615011 8.7601032
14970000000 -22.258146 124.98251 -44.840263 -58.637093 -44.318119 -57.885212 -19.854786 9.2474375
14980000000 -21.901079 121.30897 -44.024338 -81.03006 -43.633415 -81.806915 -20.06179 12.304181
14990000000 -21.987724 121.40611 -44.045773 -102.62872 -43.762157 -102.72585 -20.180744 15.669593
15000000000 -22.27733 115.39597 -43.646835 -125.10413 -43.280773 -127.02774 -20.389616 18.572401
15010000000 -22.475769 117.25284 -43.855209 -149.67308 -43.389145 -150.65312 -20.610514 19.153749
15020000000 -22.701124 111.32912 -43.839767 -168.68372 -43.359573 -170.72684 -20.669958 18.995819
15030000000 -22.979445 113.48687 -43.744377 172.06329 -43.441811 167.33383 -20.373165 19.449823
15040000000 -23.499268 110.42639 -42.85437 152.10527 -42.765789 148.187 -19.941835 22.986771
15050000000 -23.540161 115.38748 -42.335045 127.19553 -42.088875 122.73852 -19.448601 27.805157
15060000000 -24.028069 114.14278 -42.618793 101.34112 -42.631859 97.008202 -19.111341 32.612019
15070000000 -23.842064 119.58318 -42.577282 81.552834 -42.592297 76.784187 -18.981157 35.128403
15080000000 -24.257114 120.47221 -42.359882 59.696716 -42.506683 54.90472 -19.11109 35.142788
15090000000 -23.410187 122.86213 -42.100094 34.529938 -42.451767 30.702888 -19.195127 34.028633
15100000000 -23.980488 117.10509 -42.382072 12.525798 -42.683853 9.6016798 -19.131504 33.190022
15110000000 -24.223581 118.61398 -42.377865 -11.354818 -42.774693 -15.053665 -18.793119 33.245907
15120000000 -24.988693 118.50068 -42.69006 -33.126949 -43.207836 -37.00526 -18.371469 33.920303
15130000000 -24.794289 117.58865 -43.254086 -55.976234 -43.944344 -57.909615 -18.06105 33.806149
15140000000 -26.000299 122.15324 -43.147202 -73.515938 -43.753723 -73.565018 -17.853109 32.323387
15150000000 -24.672661 128.88094 -42.840023 -96.840706 -43.227913 -95.954086 -17.682835 30.463072
15160000000 -24.370773 127.85774 -43.267097 -121.7389 -43.592842 -121.64935 -17.502705 29.144308
15170000000 -23.586926 126.56645 -43.810844 -138.94847 -44.129784 -138.63481 -17.309393 29.246229
15180000000 -23.612549 124.61719 -43.640804 -161.25369 -44.122562 -160.44757 -17.223248 30.222166
15190000000 -23.241163 123.48582 -43.753899 177.13638 -44.198593 -179.76245 -17.212267 31.278357
15200000000 -24.03582 122.83091 -44.637985 155.01682 -44.916782 159.34227 -17.274523 30.449425
15210000000 -23.778597 124.94218 -44.745754 143.2108 -44.353947 146.90935 -17.497612 28.678413
15220000000 -24.241835 127.7303 -44.819447 124.69988 -44.441425 127.23921 -17.711218 26.209869
15230000000 -23.481754 128.38211 -43.757221 106.7793 -43.178707 108.78505 -17.919422 24.494482
15240000000 -23.612976 128.4724 -43.46394 80.582603 -42.927879 81.915459 -17.976337 23.917122
15250000000 -23.030167 126.62914 -43.685776 57.611752 -42.949585 58.902164 -17.961718 23.529484
15260000000 -23.066158 124.82822 -44.623371 37.238323 -43.668644 38.062679 -17.892939 22.817448
15270000000 -22.655207 122.58302 -43.910011 26.026093 -43.026299 24.248953 -17.890509 23.293833
15280000000 -22.693588 119.31332 -43.087997 2.3339317 -42.346802 -1.0021744 -17.819181 24.194021
15290000000 -22.517296 117.47038 -43.025032 -19.10313 -42.326118 -22.560286 -17.874237 25.796631
15300000000 -22.858299 114.51004 -42.511147 -40.050728 -42.064762 -45.86784 -18.054022 28.073057
15310000000 -23.13258 115.36147 -42.18314 -63.084892 -41.878162 -67.951965 -18.318951 29.489567
15320000000 -23.026606 116.20419 -42.118938 -87.02285 -41.972591 -91.995209 -18.57575 30.369623
15330000000 -23.004564 116.00159 -42.027771 -111.53656 -41.89465 -115.84325 -18.75322 30.376379
15340000000 -22.972466 115.01096 -42.923798 -135.49658 -42.712788 -139.88905 -18.696827 29.939827
15350000000 -22.659706 116.5098 -42.769047 -150.78191 -42.82761 -155.1786 -18.644348 30.145918
15360000000 -22.374084 109.11033 -41.885189 -173.58492 -42.157463 -176.29755 -18.577673 30.692057
15370000000 -23.018032 106.48503 -41.540104 161.41911 -41.884769 157.98688 -18.539278 31.445969
15380000000 -23.143703 102.53383 -41.950768 135.00847 -42.432182 131.67766 -18.444965 30.981951
15390000000 -23.659389 100.67958 -42.590302 112.89909 -42.924892 110.31393 -18.202105 30.536898
15400000000 -24.448521 97.537483 -43.25457 92.565834 -43.855335 90.058914 -17.851707 30.01792
15410000000 -24.69124 102.27448 -43.363873 73.913269 -43.809685 73.264931 -17.585243 31.036364
15420000000 -24.723166 100.45 -43.500923 56.449825 -43.596844 56.65176 -17.412767 32.792484
15430000000 -24.438717 101.28825 -42.980656 35.230587 -43.326969 34.954674 -17.480967 34.707718
15440000000 -24.680761 95.277428 -42.888084 8.0761967 -43.344982 9.2760715 -17.721056 35.052834
15450000000 -25.043941 95.785339 -43.545628 -14.61821 -44.087833 -12.077192 -18.063272 33.204819
15460000000 -25.326616 89.484474 -44.422291 -36.081528 -44.577545 -31.324699 -18.264076 30.607922
15470000000 -25.940962 88.153587 -44.762028 -53.060421 -44.823582 -48.481098 -18.19977 28.117018
15480000000 -27.21979 82.621864 -44.806274 -65.477379 -44.140713 -62.98325 -17.973927 27.06164
15490000000 -27.628046 88.453865 -44.032173 -88.649971 -43.696049 -87.736816 -17.87694 26.909714
15500000000 -28.058912 79.744232 -44.515224 -112.22722 -44.070122 -110.40777 -17.917084 27.652189
15510000000 -29.297031 84.000717 -44.681545 -130.15486 -44.076714 -129.526 -17.970392 28.508274
15520000000 -29.908077 80.184792 -44.602825 -146.56125 -44.075264 -147.51787 -18.005238 29.277794
15530000000 -30.253881 86.526161 -44.094788 -166.21481 -43.506512 -167.26942 -18.057587 30.08585
15540000000 -31.223227 76.479874 -44.022121 169.36771 -43.30246 167.81949 -18.137564 31.507704
15550000000 -32.426186 86.077431 -44.633598 148.49576 -44.012234 147.3672 -18.348969 33.388939
15560000000 -32.905636 76.481598 -43.926281 133.42807 -43.580566 129.00522 -18.636358 35.020428
15570000000 -34.827106 78.566772 -43.615921 110.12707 -43.366798 107.71753 -18.901964 36.144875
15580000000 -37.915195 62.182453 -43.485023 90.876175 -43.050995 87.163673 -19.201746 36.889927
15590000000 -40.742901 83.067886 -42.852798 64.328354 -42.495846 59.604603 -19.256266 36.10569
15600000000 -46.789433 24.60676 -43.632069 40.688049 -43.75172 34.422314 -19.203182 35.334179
15610000000 -45.785969 -160.90393 -44.064201 25.087481 -44.169739 21.480419 -19.051065 34.846252
15620000000 -45.494411 -149.71277 -43.689926 3.0303979 -43.82711 -0.87091786 -18.795763 35.336372
15630000000 -39.736858 -163.83603 -43.709911 -15.580352 -43.961037 -19.99507 -18.529123 36.240433
15640000000 -41.718559 -149.1624 -43.530998 -37.262787 -43.964489 -39.385319 -18.3444 37.989616
15650000000 -37.409885 -154.82932 -43.672005 -57.249813 -43.890293 -60.033627 -18.285397 40.618732
15660000000 -38.824486 -141.47978 -43.297478 -77.975006 -43.677368 -79.518898 -18.380896 43.184536
15670000000 -35.788319 -135.26985 -43.259769 -104.13931 -43.647072 -105.52063 -18.479067 44.783691
15680000000 -32.161087 -123.13776 -44.012909 -125.61953 -44.250431 -125.39317 -18.729593 44.621777
15690000000 -30.16235 -137.93877 -44.196793 -142.257 -44.178917 -141.87126 -18.923353 44.041878
15700000000 -29.14546 -135.0787 -44.673275 -161.18047 -44.893017 -161.81979 -19.034431 43.740391
15710000000 -27.748764 -144.94081 -44.19754 -175.08708 -44.191227 -175.01106 -19.047489 45.07375
15720000000 -27.308573 -148.05623 -42.820824 164.09297 -42.970028 165.6347 -18.902916 47.326759
15730000000 -28.118877 -153.7455 -42.952782 138.83513 -42.763752 139.87567 -18.732452 48.915413
15740000000 -27.834467 -144.72385 -43.18119 117.50266 -43.016315 116.80952 -18.535734 49.224419
15750000000 -27.433231 -147.0377 -43.068062 97.989853 -43.032795 97.825188 -18.368776 49.396004
15760000000 -26.699856 -142.35167 -42.942638 79.385971 -42.947437 79.666573 -18.04668 50.517483
15770000000 -25.812271 -142.63895 -42.484447 60.370094 -42.269405 61.376953 -17.573483 53.168724
15780000000 -24.563087 -143.74271 -41.730804 38.578953 -41.278191 38.197189 -17.089598 56.866478
15790000000 -23.991325 -150.59657 -41.510773 13.397346 -41.119625 11.417953 -16.750874 60.097244
15800000000 -23.820091 -152.84142 -41.332092 -8.6492891 -41.127533 -10.425113 -16.622009 61.784142
15810000000 -23.652124 -155.66846 -41.311844 -32.444111 -41.163986 -34.900433 -16.702887 61.8904
15820000000 -23.480213 -154.498 -41.398605 -53.394714 -41.22459 -55.141556 -16.69157 60.972225
15830000000 -23.324593 -155.05992 -41.362717 -74.516823 -41.091728 -76.870338 -16.373253 59.084751
15840000000 -23.263693 -151.24901 -40.746029 -95.601883 -40.61499 -98.89315 -15.925905 57.194672
15850000000 -22.769102 -152.70302 -40.490974 -122.02979 -40.555527 -125.12485 -15.402164 55.901779
15860000000 -22.440634 -150.95308 -40.714695 -144.91252 -40.810299 -147.10403 -14.913648 55.061516
15870000000 -22.115559 -152.49898 -40.863022 -168.13123 -40.7234 -169.61328 -14.54954 54.072895
15880000000 -21.704159 -152.39674 -41.259457 170.4875 -41.170101 166.74269 -14.226542 53.230682
15890000000 -21.578236 -155.15431 -41.330196 149.23196 -41.247066 145.98087 -13.88631 52.337887
15900000000 -21.330347 -155.75322 -41.121288 124.72293 -41.33363 122.04089 -13.58633 51.291363
15910000000 -21.146622 -157.60194 -41.689873 104.05844 -41.847336 101.4469 -13.368531 50.363167
15920000000 -20.756201 -158.17332 -41.606995 83.26268 -41.763805 81.978073 -13.241838 49.204666
15930000000 -21.085897 -159.96844 -41.865925 58.740086 -41.955063 57.659336 -13.202748 47.919971
15940000000 -20.734653 -154.52382 -42.221409 37.916248 -42.296299 36.428726 -13.151048 46.054688
15950000000 -20.218473 -155.61891 -42.394875 14.85213 -42.363823 14.334597 -13.092648 43.641495
15960000000 -19.916342 -154.35046 -43.489052 -2.9614317 -43.240974 -4.7497754 -12.98488 40.787231
15970000000 -19.437088 -153.33875 -42.635696 -18.688362 -42.491592 -21.30394 -12.889574 37.580307
15980000000 -18.913397 -155.02571 -42.740974 -44.265659 -42.983376 -47.350727 -12.760702 34.91106
15990000000 -18.92878 -156.82162 -42.891945 -61.568844 -42.993889 -62.934963 -12.60405 32.802982
16000000000 -18.917854 -157.70428 -42.647289 -85.365219 -42.845871 -86.534561 -12.457555 31.213285
16010000000 -18.987127 -156.2874 -43.383869 -106.84156 -43.307369 -106.62614 -12.405182 29.972435
16020000000 -18.584345 -156.17538 -43.057701 -121.46275 -42.84584 -124.57887 -12.467947 28.654631
16030000000 -18.461363 -155.30853 -42.879936 -145.4321 -42.974354 -147.97313 -12.652674 26.66415
16040000000 -17.790285 -154.03929 -43.174244 -164.54158 -43.252686 -165.58598 -12.87331 24.349361
16050000000 -17.330526 -156.42361 -43.046535 173.74736 -43.132492 173.46715 -12.988483 21.588043
16060000000 -16.994696 -157.00833 -42.909561 156.1767 -42.609268 154.25607 -13.108191 18.572332
16070000000 -16.79162 -157.55624 -42.5256 135.22711 -42.488804 132.19005 -13.267248 16.200142
16080000000 -16.401823 -157.7926 -41.950031 111.65657 -42.166843 109.13572 -13.488705 14.371457
16090000000 -16.265614 -158.13252 -42.240578 87.077118 -42.429367 86.709084 -13.738829 12.364953
16100000000 -15.936016 -157.82654 -42.214268 66.179436 -42.028709 64.864388 -13.981577 10.020458
16110000000 -15.831876 -158.65746 -42.761848 43.268703 -42.541389 41.342724 -14.113552 7.901886
16120000000 -15.41678 -158.12766 -42.710884 26.273552 -42.704849 23.317204 -14.1648 6.4091206
16130000000 -15.251058 -159.75542 -42.255619 3.9043944 -42.47205 2.0898154 -14.284073 6.217885
16140000000 -14.917067 -158.75307 -42.472549 -18.589096 -42.381874 -19.434547 -14.584109 7.0858073
16150000000 -14.456789 -160.98959 -42.293648 -40.255444 -42.190594 -41.596054 -15.043889 7.7513514
16160000000 -14.216047 -161.66248 -42.532066 -61.006561 -42.229351 -63.301723 -15.61991 7.5670848
16170000000 -13.774087 -162.84328 -42.243622 -84.965271 -42.231873 -87.559288 -16.113676 5.9243889
16180000000 -13.456859 -164.54395 -42.764263 -110.28493 -42.981087 -112.83875 -16.403572 3.6276727
16190000000 -13.363245 -166.00143 -43.480389 -127.89766 -43.743122 -129.42488 -16.571604 1.9703079
16200000000 -13.212903 -165.47087 -42.996197 -146.60397 -42.815296 -147.40041 -16.723431 1.7218865
16210000000 -12.996661 -165.75253 -43.116161 -170.60429 -42.982533 -172.17462 -16.918562 2.0511732
16220000000 -12.6644 -165.48137 -43.442871 169.64101 -43.251278 167.74431 -17.165628 1.9088866
16230000000 -12.403974 -166.96002 -43.256374 149.80806 -43.464123 147.01172 -17.279495 1.2675332
16240000000 -12.08873 -166.91982 -43.454128 127.74305 -43.358559 127.04354 -17.336481 0.82288474
16250000000 -11.776122 -169.81198 -43.419044 107.2048 -43.313114 104.32761 -17.303623 1.6718576
16260000000 -11.607697 -171.41899 -43.651459 85.976631 -43.758125 83.926826 -17.362455 3.680824
16270000000 -11.476826 -173.51817 -43.624725 67.297226 -43.849461 64.843994 -17.594652 5.8027525
16280000000 -11.303288 -174.64621 -43.818459 45.718365 -43.917603 44.535271 -18.012785 6.9676533
16290000000 -11.150445 -175.48929 -43.908718 28.456734 -44.017441 28.346901 -18.474962 5.9375582
16300000000 -10.885689 -175.84282 -43.220108 6.6210999 -43.158382 5.9708471 -18.830011 3.2824616
16310000000 -10.674511 -176.89699 -43.305912 -16.622486 -43.170639 -17.397919 -18.904507 0.42115682
16320000000 -10.387815 -176.96454 -43.208466 -38.446125 -43.114887 -40.884933 -18.9191 -1.4614605
16330000000 -10.139509 -178.23361 -43.352772 -57.87608 -43.495285 -58.823948 -18.964485 -2.5772979
16340000000 -9.863863 -179.02176 -43.05814 -80.664665 -43.157696 -82.254074 -19.115259 -3.890317
16350000000 -9.6937933 178.88361 -43.286972 -103.96192 -43.24604 -104.19886 -19.251482 -5.4127479
16360000000 -9.6044712 177.3188 -43.499477 -123.97729 -43.495724 -124.27798 -19.342672 -7.0418115
16370000000 -9.5567455 175.80701 -43.140484 -144.77501 -42.933788 -145.66866 -19.560129 -7.5567727
16380000000 -9.4151268 174.37686 -43.008297 -165.33553 -42.7882 -167.60344 -19.963856 -6.8475533
16390000000 -9.417388 173.22807 -42.609825 170.2316 -42.650864 167.66876 -20.695454 -6.2719011
16400000000 -9.200202 173.41444 -42.975166 145.9221 -43.151939 144.49315 -21.680765 -7.1519179
16410000000 -8.9243946 172.32182 -43.739143 122.59203 -43.637074 123.81377 -22.783604 -10.785179
16420000000 -8.6156654 171.6295 -43.989998 103.87641 -43.599575 103.61681 -23.713673 -15.722915
16430000000 -8.3433456 169.80101 -43.723377 84.231369 -43.4436 81.04567 -24.512447 -19.044918
16440000000 -8.1767359 168.49312 -43.992836 60.660011 -44.013714 56.901581 -25.41258 -18.792953
16450000000 -8.0909729 166.59489 -44.446659 40.013866 -44.479893 38.794491 -26.519924 -16.209047
16460000000 -8.1016912 165.78566 -44.100304 18.039743 -44.090828 16.912596 -27.935299 -13.474787
16470000000 -8.0870266 165.14955 -44.8442 -4.6140704 -44.665485 -5.354394 -29.323706 -9.5582037
16480000000 -7.9705391 164.92517 -44.984222 -23.099693 -44.687355 -25.668955 -30.034069 -1.2694489
16490000000 -7.8164153 164.10457 -45.246796 -44.381256 -45.00008 -47.048176 -30.082273 13.33963
16500000000 -7.5920687 163.44821 -45.65551 -64.435089 -45.698288 -66.842461 -29.100578 33.310974
16510000000 -7.3555984 161.52347 -45.933731 -81.833076 -45.958244 -83.796135 -27.842566 50.096466
16520000000 -7.1939135 160.4339 -45.73922 -101.33627 -45.704845 -102.98812 -27.215652 63.054192
16530000000 -7.0102911 158.49403 -45.610435 -122.49049 -45.541157 -123.66519 -27.224382 72.139526
16540000000 -6.9669247 157.50995 -45.79784 -141.35693 -45.6782 -143.2068 -27.42894 74.542542
16550000000 -6.8454046 156.61868 -45.540981 -161.1118 -45.479538 -161.84741 -27.219965 71.432465
16560000000 -6.7747941 156.23553 -45.61739 176.96349 -45.305157 175.19769 -26.340117 65.798187
16570000000 -6.6266046 155.6628 -45.63998 157.15526 -45.383125 155.31342 -25.389437 64.786018
16580000000 -6.4798965 155.15051 -45.722317 138.33728 -45.613697 135.64153 -24.50489 65.723015
16590000000 -6.3198442 154.15895 -44.947876 118.01753 -45.200478 116.00336 -24.102158 66.670135
16600000000 -6.1419163 153.28178 -44.788193 94.457985 -44.650349 93.588272 -23.85952 66.202232
16610000000 -5.9602175 151.59279 -44.858303 73.479027 -44.684032 71.287369 -23.506208 65.396637
16620000000 -5.8427629 150.14128 -44.89521 50.523254 -44.645515 48.916725 -22.84778 65.769966
16630000000 -5.7097301 148.60884 -44.913433 31.495581 -44.822834 27.452934 -22.028538 68.794182
16640000000 -5.6126637 147.55969 -44.563454 9.3248672 -44.687115 6.2184711 -21.406189 72.813034
16650000000 -5.4639606 146.64317 -44.99963 -14.502433 -44.933334 -16.597729 -21.257946 77.100853
16660000000 -5.3450313 145.98962 -45.000607 -33.244118 -45.093552 -35.215446 -21.427792 79.818512
16670000000 -5.1379237 145.48761 -44.690178 -56.691795 -44.925755 -59.310173 -21.620333 79.232391
16680000000 -4.9344501 144.54385 -44.956238 -79.849648 -45.161346 -81.439758 -21.531525 75.152
16690000000 -4.7362003 143.37344 -44.993664 -102.06908 -45.080109 -103.0186 -21.145176 71.191811
16700000000 -4.5904603 142.08115 -45.419678 -122.29827 -45.371624 -124.2149 -20.321249 69.37101
16710000000 -4.4515924 140.53029 -45.493111 -143.00591 -45.738895 -145.4337 -19.49156 68.842468
16720000000 -4.3754048 139.15984 -45.498737 -163.77444 -45.689724 -164.2814 -18.827618 68.524345
16730000000 -4.2524309 137.89037 -45.65807 175.30859 -45.569408 175.55417 -18.466778 68.04171
16740000000 -4.1466956 136.80421 -45.68264 152.96616 -45.382256 153.09529 -18.20442 67.453575
16750000000 -3.9703953 135.70335 -46.065681 134.05261 -45.818375 130.97942 -17.985706 66.531784
16760000000 -3.8012168 134.56104 -45.453579 116.89705 -45.512779 114.2168 -17.794346 65.606331
16770000000 -3.596863 133.10963 -45.318893 91.42852 -45.530521 90.814911 -17.719297 63.848385
16780000000 -3.4643698 131.74347 -45.388016 68.234695 -45.280441 67.897758 -17.832161 61.78574
16790000000 -3.3246899 130.34111 -46.049347 48.512478 -45.690147 46.507149 -17.998844 58.649891
16800000000 -3.2226515 129.09071 -45.614853 27.746424 -45.464565 24.561106 -18.159142 54.512749
16810000000 -3.0953898 127.67417 -45.350605 7.4099503 -45.288006 3.3288572 -18.13681 49.825123
16820000000 -3.0051651 126.29042 -45.183609 -17.012121 -45.483353 -19.094145 -18.011866 45.413719
16830000000 -2.8706944 124.80436 -45.487751 -38.897068 -45.388363 -41.397457 -17.72591 42.056385
16840000000 -2.7670908 123.34881 -45.153992 -61.899635 -45.10149 -63.589432 -17.487049 40.099625
16850000000 -2.6211846 121.76401 -45.37347 -86.753433 -45.291359 -89.069427 -17.353041 39.367031
16860000000 -2.5168986 120.23203 -45.613564 -108.27689 -45.747742 -112.07717 -17.460453 39.239315
16870000000 -2.3788404 118.76758 -45.797703 -131.92638 -46.153572 -134.34952 -17.798695 39.441662
16880000000 -2.2653549 117.36601 -46.2584 -153.61293 -46.678875 -155.19069 -18.433769 39.199215
16890000000 -2.1337583 115.91344 -46.60006 -174.95552 -46.639828 -175.25731 -19.150677 37.678978
16900000000 -2.0371966 114.58206 -46.608959 163.08351 -46.655056 160.49014 -19.926258 34.693665
16910000000 -1.9334949 113.10117 -47.09687 138.03552 -47.225445 135.67009 -20.565691 30.72493
16920000000 -1.8685275 111.68873 -47.71167 116.64053 -48.080124 115.28352 -21.089735 26.386259
16930000000 -1.7797613 110.18178 -47.79369 97.220139 -48.151653 96.179756 -21.53887 23.942305
16940000000 -1.7105793 108.67418 -48.274124 74.336525 -48.47596 75.252144 -21.954613 24.019178
16950000000 -1.6096412 107.05921 -48.643456 53.752316 -48.731419 53.880085 -22.2558 26.191086
16960000000 -1.5233017 105.41721 -49.194424 32.698666 -49.173256 32.686668 -22.669924 28.979134
16970000000 -1.4239167 103.72942 -49.709507 13.988146 -49.761539 13.554763 -23.228193 34.731758
16980000000 -1.3426129 102.07725 -49.615799 -3.6897967 -49.46571 -4.7727451 -23.726505 42.7206
16990000000 -1.2560261 100.48876 -49.528282 -27.45035 -49.463593 -26.249659 -23.945808 51.44558
17000000000 -1.1777802 99.004768 -50.225929 -48.273979 -49.909504 -48.303146 -24.263792 58.615681
