!Keysight Technologies,P9374A,MY57211807,A.19.30.04
!Date: Friday, May 08, 2026 14:32:04
!Correction: S11(C  2-Port  ) 
!S21(C  2-Port  ) 
!S12(C  2-Port  ) 
!S22(C  2-Port  ) 
!S2P File: Measurements: S11, S21, S12, S22:
# Hz S  dB   R 50
13000000000 -16.854837 57.819828 -45.154167 82.358719 -45.70509 78.791092 -8.6116562 23.965879
13010000000 -17.563599 51.468513 -44.906082 69.837929 -45.287308 66.237991 -8.6497154 20.1709
13020000000 -18.804125 46.195957 -45.541843 51.867867 -45.500767 41.533051 -8.7812757 16.4137
13030000000 -20.732584 47.105026 -44.388535 33.587414 -45.726868 19.045189 -8.9705639 12.926986
13040000000 -22.485865 59.586353 -44.327335 8.1126823 -47.162182 3.257242 -9.166667 9.9622993
13050000000 -21.748653 75.187149 -46.278793 -16.177582 -47.68108 -11.003119 -9.3974571 7.0841088
13060000000 -20.074049 79.841255 -46.505299 -19.985411 -47.64687 -23.096985 -9.7348051 4.0521455
13070000000 -18.56572 75.643234 -45.133858 -32.998554 -47.230892 -30.610918 -10.171899 1.1309999
13080000000 -17.750956 68.145523 -43.14835 -57.739059 -44.658417 -49.272381 -10.682818 -1.856743
13090000000 -17.512211 57.614136 -42.954243 -87.971306 -43.549892 -78.758667 -11.165524 -4.6192074
13100000000 -18.325481 49.100075 -43.808083 -111.19614 -43.965878 -105.02766 -11.557315 -6.9440351
13110000000 -19.621384 45.034504 -44.411758 -125.41947 -44.947269 -120.37703 -11.919786 -9.1595154
13120000000 -21.485151 47.622135 -43.55267 -144.26134 -43.730862 -136.00153 -12.415291 -11.145679
13130000000 -22.472609 60.778084 -43.301579 -166.28804 -42.3829 -159.09662 -13.030693 -12.528882
13140000000 -21.362118 77.507118 -42.675877 171.435 -41.898075 171.55701 -13.709067 -13.711342
13150000000 -19.166189 78.164673 -42.305744 146.18341 -42.468719 144.92816 -14.33373 -14.562518
13160000000 -17.923889 72.727364 -43.139809 123.57001 -43.479454 130.92516 -14.887006 -14.835019
13170000000 -17.224293 64.374626 -43.21233 104.80837 -42.042561 112.88692 -15.387682 -14.524651
13180000000 -17.363203 53.402679 -42.662926 89.588684 -41.063332 89.612679 -16.016737 -13.833808
13190000000 -18.159996 45.181099 -41.562038 65.030495 -40.752319 60.499588 -16.903173 -12.268883
13200000000 -19.608751 39.11668 -40.888718 39.987701 -40.758251 38.027214 -17.913889 -10.348233
13210000000 -21.674671 43.440304 -41.443195 9.2912159 -41.097603 11.36745 -18.878241 -8.6779833
13220000000 -22.223253 55.66021 -42.181919 -9.8192663 -41.242386 -8.5978403 -19.508619 -6.4907961
13230000000 -21.175417 68.732384 -42.49501 -27.658825 -41.483768 -31.196913 -19.769487 -3.8702772
13240000000 -19.032404 71.140709 -41.650688 -44.708511 -41.257408 -51.10537 -19.958336 0.065275177
13250000000 -17.524 63.622734 -41.02282 -68.904129 -40.999126 -72.45372 -20.318876 7.4066606
13260000000 -16.947424 53.955692 -40.593239 -94.613861 -40.240131 -95.913147 -20.656828 17.395607
13270000000 -17.168274 43.904839 -40.697403 -120.49502 -39.934486 -123.1918 -20.73584 27.232115
13280000000 -18.054993 33.827248 -41.030128 -144.69861 -40.494751 -151.41504 -20.651363 33.87796
13290000000 -20.051075 28.109592 -40.855885 -167.44182 -40.988705 -172.40074 -20.534372 37.42614
13300000000 -22.250082 32.294567 -41.254345 171.42445 -41.209873 167.27255 -20.209085 40.64209
13310000000 -23.372677 48.530182 -41.17997 149.53358 -41.194279 145.48155 -19.418278 44.656704
13320000000 -21.259268 59.842999 -40.489147 127.68906 -40.559338 123.32438 -18.435278 48.133785
13330000000 -19.551912 58.835552 -39.96154 99.86483 -40.366688 97.083946 -17.671562 50.419067
13340000000 -17.891817 52.398766 -40.13353 72.103645 -40.312332 72.975967 -17.139103 52.340939
13350000000 -17.37043 39.994583 -40.973087 44.637123 -40.314346 43.591328 -16.750292 53.008072
13360000000 -17.679667 29.23772 -41.229385 25.502422 -40.883636 20.383158 -16.292963 52.109577
13370000000 -18.931988 18.748514 -41.073566 -0.15497135 -41.026901 -6.8972545 -15.639169 49.882351
13380000000 -20.899734 13.881866 -41.114849 -24.299515 -41.584793 -29.412708 -14.841249 47.853142
13390000000 -23.963491 19.851959 -41.610565 -51.649174 -41.820305 -54.439453 -14.084647 46.289307
13400000000 -24.117384 41.184505 -41.847858 -73.687195 -42.010071 -78.141792 -13.452733 45.761852
13410000000 -22.681572 49.630325 -41.632038 -98.211128 -42.102657 -102.85522 -12.998745 45.395412
13420000000 -20.297125 50.035061 -41.336945 -129.9908 -41.79509 -132.45871 -12.758069 44.145813
13430000000 -19.023273 37.00304 -42.629627 -163.38051 -42.374905 -165.09012 -12.576013 42.224751
13440000000 -18.760166 24.978512 -43.910351 175.87537 -43.874046 166.36438 -12.374533 39.442093
13450000000 -19.374426 13.059047 -44.222717 151.56207 -45.074623 140.56493 -12.079262 35.95179
13460000000 -20.642237 3.4949892 -44.291649 124.69102 -45.783115 116.9291 -11.796983 32.449043
13470000000 -23.367605 -4.2708082 -43.845242 94.43573 -45.124771 93.460663 -11.613286 29.71693
13480000000 -26.294197 9.548521 -44.943851 56.383423 -45.322475 53.699352 -11.468728 27.804377
13490000000 -27.149662 32.19149 -46.668812 28.024506 -46.530125 17.003916 -11.345424 25.848362
13500000000 -23.643711 44.028549 -46.522121 2.2516706 -48.345379 -14.467427 -11.341317 23.288637
13510000000 -22.05835 36.683578 -45.780186 -35.794353 -48.006954 -45.58007 -11.457169 20.728537
13520000000 -21.086109 27.17971 -46.339352 -81.005341 -47.688248 -87.58522 -11.630069 18.763313
13530000000 -20.998158 14.101247 -47.615517 -118.99191 -48.25103 -127.80312 -11.7312 17.408989
13540000000 -21.366596 0.5441165 -48.244965 -147.96579 -48.288834 -167.86595 -11.833353 15.458139
13550000000 -23.51441 -13.622165 -47.842751 -178.52293 -49.592213 159.09625 -12.078537 13.686527
13560000000 -26.503901 -16.849642 -45.931076 148.02254 -48.095058 135.57526 -12.364347 12.390479
13570000000 -31.42692 1.396552 -46.386707 109.91872 -47.564892 102.33553 -12.567009 11.090634
13580000000 -28.896561 33.636185 -45.835617 86.255493 -46.366451 75.943054 -12.721931 9.9086828
13590000000 -26.812304 42.728191 -44.718914 62.093933 -45.935711 50.821472 -12.847912 9.0793304
13600000000 -23.696419 37.112823 -42.924889 33.614902 -44.37249 24.251171 -12.960189 9.1536274
13610000000 -22.757565 24.327763 -41.354416 -0.94966376 -42.803841 -5.3387408 -12.978729 10.021426
13620000000 -22.863775 7.9470243 -41.103203 -36.95332 -41.829208 -39.857208 -13.039847 10.525688
13630000000 -24.718641 -6.7869439 -41.648026 -68.01162 -42.049541 -73.550911 -13.196492 10.946213
13640000000 -26.815115 -15.922338 -41.999294 -92.195808 -42.851803 -99.452492 -13.331414 11.640091
13650000000 -31.019989 -26.339842 -41.780075 -114.02178 -43.000259 -116.60666 -13.333883 11.733191
13660000000 -37.358887 13.261924 -41.380753 -139.52318 -42.045071 -140.24561 -13.24476 11.369759
13670000000 -32.138145 57.905506 -40.802738 -161.04286 -41.325558 -163.10864 -13.062261 10.628762
13680000000 -27.058777 53.039852 -39.929741 173.31023 -40.641937 170.0397 -12.899444 10.143825
13690000000 -24.824318 37.912354 -39.183014 146.78322 -39.942478 145.6931 -12.656317 9.6843414
13700000000 -23.982727 25.733482 -38.845654 115.25053 -39.229874 114.46679 -12.482358 8.9888687
13710000000 -23.915785 11.150183 -39.438889 86.880905 -39.770313 84.701897 -12.307446 7.9505348
13720000000 -24.987274 -4.6315732 -39.808346 64.694092 -40.324829 61.567135 -12.201644 6.021378
13730000000 -28.463964 -19.331108 -39.900105 41.580257 -40.614845 40.240223 -12.093773 4.1894093
13740000000 -34.631889 -15.075063 -39.717842 20.627663 -40.305283 20.811785 -11.998102 2.0004799
13750000000 -38.782215 47.930408 -39.103481 -4.14536 -39.409233 -3.5232642 -11.896511 -0.060174081
13760000000 -30.458145 70.792419 -38.872326 -31.702238 -39.119957 -31.630865 -11.929539 -2.4909935
13770000000 -26.83848 55.668659 -39.25132 -59.239311 -39.4063 -59.828423 -12.08373 -4.7625461
13780000000 -24.864048 41.187782 -39.663567 -82.349487 -39.989773 -83.923187 -12.277757 -7.6947608
13790000000 -23.403032 21.287447 -39.760365 -106.02031 -40.008156 -107.43938 -12.537247 -10.939358
13800000000 -23.946537 1.0373205 -40.160183 -130.64378 -40.480232 -132.92952 -12.748022 -14.564054
13810000000 -24.875607 -14.397151 -40.393803 -151.14742 -40.950829 -153.0441 -12.969836 -17.455742
13820000000 -27.272352 -32.756748 -40.646317 -175.21317 -41.218372 -174.94446 -13.183509 -19.736361
13830000000 -33.677387 -36.905651 -40.876732 163.93428 -41.24472 164.83821 -13.519561 -21.379332
13840000000 -38.501846 11.82911 -40.981377 142.01514 -41.308887 142.2007 -13.965797 -22.808405
13850000000 -31.375189 62.17384 -41.049534 122.19654 -41.695992 121.48167 -14.546234 -24.350128
13860000000 -26.23658 45.813046 -40.266884 97.723648 -40.887863 100.42249 -15.159711 -26.03245
13870000000 -23.884996 26.198502 -40.519985 71.099922 -40.823677 72.905319 -15.737439 -27.288042
13880000000 -23.091658 4.2840281 -41.050556 44.911438 -41.314194 46.577805 -16.312798 -27.72975
13890000000 -23.144072 -15.757354 -42.174385 22.512058 -42.5453 23.338411 -16.930395 -27.535053
13900000000 -23.956518 -40.014168 -42.751808 2.3172314 -43.265343 3.661886 -17.638456 -25.865255
13910000000 -27.261513 -60.823841 -43.468815 -12.79782 -44.037189 -8.3888617 -18.357582 -24.228067
13920000000 -31.43849 -75.024841 -42.894676 -31.382565 -42.80793 -25.940592 -18.999302 -22.450993
13930000000 -49.256031 -126.08931 -42.354763 -52.072292 -42.043831 -49.407597 -19.450348 -20.773039
13940000000 -32.58511 50.5065 -42.497723 -75.32 -42.265507 -75.012688 -19.714321 -18.044899
13950000000 -27.497139 25.081041 -42.271297 -99.395493 -42.55801 -98.515991 -19.702555 -14.410316
13960000000 -25.057159 1.2526048 -42.632233 -123.0302 -42.991478 -119.52267 -19.70083 -10.04099
13970000000 -23.811348 -23.257706 -43.146179 -145.02145 -43.375156 -139.89407 -19.607298 -5.1935892
13980000000 -23.551443 -49.18861 -44.125385 -165.6615 -43.587147 -160.91901 -19.61655 -0.54096711
13990000000 -24.126133 -75.599304 -43.983917 178.63309 -43.449703 -178.00098 -19.526384 2.4544611
14000000000 -25.690893 -99.120972 -43.849777 156.63887 -43.570328 160.77393 -19.585964 3.7509594
14010000000 -28.999407 -121.29289 -44.306305 137.31404 -43.264713 141.71428 -19.667244 3.7677979
14020000000 -36.109562 -134.84792 -44.050129 118.56069 -43.23938 118.46593 -19.794739 4.0082283
14030000000 -43.575302 -5.9825792 -44.070278 99.616478 -43.765717 102.12574 -19.787325 5.0235529
14040000000 -30.694056 -10.572647 -43.294979 78.059204 -42.391167 82.688705 -19.757366 5.1112452
14050000000 -25.942114 -34.470425 -43.365837 56.310055 -42.078232 58.519634 -19.706377 5.1256361
14060000000 -24.709625 -59.284389 -43.375767 33.032551 -42.057144 31.329309 -19.850733 4.5100327
14070000000 -24.254709 -79.506767 -43.616863 13.04759 -42.768398 10.088502 -20.053425 4.1194854
14080000000 -24.336645 -106.33675 -43.603836 -8.7542095 -42.963436 -8.961978 -20.289368 3.4824581
14090000000 -26.086432 -129.91267 -44.217075 -24.436131 -42.740665 -26.120489 -20.352444 4.7693324
14100000000 -27.168036 -152.14931 -43.18679 -40.643559 -42.117863 -46.707249 -20.213699 5.049562
14110000000 -31.513769 -179.20078 -42.277897 -63.882454 -41.421028 -69.881233 -20.061838 5.5358014
14120000000 -40.188023 -173.38176 -42.190483 -89.099655 -41.417805 -95.127205 -20.21105 5.6231947
14130000000 -37.347801 -64.815704 -41.80106 -111.13085 -41.177971 -117.24178 -20.587734 8.0423822
14140000000 -29.173876 -85.982674 -41.822411 -134.71205 -41.402126 -140.12738 -20.910089 9.7110491
14150000000 -26.773407 -98.214287 -42.000633 -160.50093 -41.30584 -165.86903 -21.225758 10.322832
14160000000 -24.174145 -117.07055 -42.320923 -178.93159 -41.833458 174.03702 -21.480816 8.6448202
14170000000 -23.988762 -138.40782 -41.891777 160.42126 -41.485722 151.24884 -21.830107 7.9016819
14180000000 -24.23488 -156.71938 -41.712891 139.03989 -41.578876 130.78516 -22.166264 9.507453
14190000000 -25.686554 -178.98497 -41.154129 115.88512 -41.352543 107.18009 -22.642784 13.279426
14200000000 -28.570776 169.88754 -40.946899 88.622307 -41.206627 82.168854 -22.958027 19.1448
14210000000 -33.021011 162.03185 -41.579163 63.713943 -41.648579 57.220127 -23.521648 24.370623
14220000000 -35.992462 -145.90445 -42.0597 42.740753 -42.149734 36.125996 -24.217175 29.806219
14230000000 -31.284353 -129.34976 -41.919621 23.776279 -42.334084 16.794559 -24.812279 37.134995
14240000000 -26.707899 -129.6644 -41.542633 0.71057719 -41.965485 -5.8827205 -24.739012 46.005482
14250000000 -24.610014 -147.00833 -41.890373 -23.994198 -42.371941 -30.939507 -24.135471 54.032986
14260000000 -23.636637 -160.58614 -42.247021 -45.518497 -42.983116 -52.628036 -23.19906 60.838902
14270000000 -23.733078 -177.75415 -42.435112 -67.360832 -43.335846 -73.546295 -22.536177 65.841766
14280000000 -24.85771 166.69759 -42.703602 -87.252197 -43.841885 -91.90863 -21.81601 70.721893
14290000000 -27.01428 154.69202 -42.067364 -109.47047 -43.068829 -112.32668 -21.09584 73.188965
14300000000 -30.865547 145.7224 -42.466373 -133.58835 -43.387764 -136.70013 -20.23983 73.548225
14310000000 -35.855343 177.0253 -42.595913 -155.50407 -43.719009 -157.00897 -19.360222 72.105843
14320000000 -32.766521 -151.08041 -42.735641 -176.9248 -43.71452 -178.43317 -18.464354 71.32312
14330000000 -27.575275 -145.7529 -43.019894 160.67683 -44.12561 160.31403 -17.558292 70.78614
14340000000 -25.330032 -160.7244 -43.622707 139.11491 -44.550056 139.70703 -16.797495 71.33107
14350000000 -23.81176 -171.85599 -44.270664 121.75318 -45.352066 122.56407 -16.109476 71.016304
14360000000 -23.553013 169.99789 -43.541187 105.13602 -44.46516 109.63226 -15.655817 70.544083
14370000000 -24.316536 155.95453 -43.194408 81.167389 -43.704094 86.606186 -15.319848 69.53215
14380000000 -26.276653 137.44766 -42.949715 57.770771 -43.370781 61.265629 -14.99266 68.136284
14390000000 -31.312557 131.85979 -43.032986 33.52317 -43.310589 36.96167 -14.638917 66.045456
14400000000 -37.731571 155.08768 -44.079395 9.1937456 -44.358986 12.640041 -14.286557 63.546047
14410000000 -33.040913 -139.18082 -44.734455 -5.6443939 -44.85704 -0.80167568 -13.947351 61.034809
14420000000 -27.360388 -147.26691 -43.90667 -21.017826 -43.798462 -17.566116 -13.603851 59.148865
14430000000 -24.495911 -163.05643 -43.411663 -43.820564 -43.368961 -39.487492 -13.300697 57.187569
14440000000 -23.372141 -179.84082 -43.192959 -67.112045 -42.888634 -63.791317 -13.079638 55.418392
14450000000 -22.973587 164.15302 -43.100746 -88.407364 -42.768871 -84.946266 -12.926253 53.986263
14460000000 -24.081608 145.35945 -42.937668 -110.64867 -42.314804 -108.12489 -12.745889 52.523983
14470000000 -26.925285 132.26213 -42.731533 -134.49989 -42.140919 -134.32495 -12.571377 50.796082
14480000000 -33.274357 132.02745 -42.700504 -155.39299 -42.442253 -155.14008 -12.490883 49.281059
14490000000 -36.885857 -157.70648 -42.600353 -178.94438 -42.475563 -177.5665 -12.532849 48.015919
14500000000 -28.228502 -135.33722 -42.60577 158.65262 -42.200218 160.18013 -12.663877 47.266853
14510000000 -24.567579 -153.1916 -42.284786 133.31384 -41.841213 135.29764 -12.699946 46.02047
14520000000 -22.934809 -164.01059 -42.560616 109.33611 -41.850735 109.87309 -12.765304 44.163376
14530000000 -21.956631 175.13698 -43.190254 87.276421 -42.338329 86.458191 -12.723326 42.236359
14540000000 -22.738813 160.7054 -43.209679 66.774643 -42.602898 63.564625 -12.62581 41.047455
14550000000 -23.851078 144.1633 -43.114628 44.841759 -42.811153 42.699928 -12.469596 40.484966
14560000000 -28.094872 136.99718 -42.801979 18.770641 -42.342602 17.281506 -12.432565 40.478886
14570000000 -32.237114 158.2204 -43.296761 -8.0483179 -42.758728 -9.5253334 -12.400764 41.051495
14580000000 -29.326065 -150.07373 -44.594624 -33.72411 -44.051086 -35.879658 -12.41417 40.96439
14590000000 -24.606995 -154.63168 -45.728943 -51.250778 -45.537983 -54.229713 -12.401439 40.742802
14600000000 -21.912766 -161.38597 -46.200256 -62.077103 -45.885464 -63.299877 -12.398772 39.792023
14610000000 -20.544195 -179.11716 -45.514027 -82.524239 -44.90205 -84.236031 -12.378844 39.602875
14620000000 -20.620932 169.17761 -45.88689 -107.94018 -45.089291 -111.69321 -12.362082 39.562462
14630000000 -21.221308 153.96762 -46.526234 -125.48322 -45.796158 -131.30608 -12.289296 39.374481
14640000000 -23.379957 146.02518 -46.30645 -142.65773 -46.311958 -149.34901 -12.230356 38.267723
14650000000 -26.288235 147.81541 -46.035492 -160.73349 -46.077557 -164.68539 -12.157681 36.877117
14660000000 -27.340427 172.82741 -46.139751 179.6749 -46.234699 176.08461 -12.027717 35.312698
14670000000 -25.069363 -170.3788 -46.002682 161.08714 -45.922279 157.66313 -11.856012 34.320835
14680000000 -21.663521 -173.09563 -45.73917 143.33974 -45.859867 139.75789 -11.669209 33.775585
14690000000 -20.362806 178.02736 -44.780014 124.54861 -44.764355 121.10906 -11.532117 33.577526
14700000000 -19.249722 168.23164 -44.70256 99.702789 -44.965034 96.526215 -11.446913 33.224781
14710000000 -19.453512 155.74469 -44.367653 82.077629 -44.485252 79.488235 -11.473382 32.493
14720000000 -20.23316 146.94885 -44.083359 60.131977 -44.189743 58.263172 -11.528375 31.61587
14730000000 -22.02869 142.36102 -43.408802 43.710861 -43.353622 41.338146 -11.616523 30.168228
14740000000 -23.202801 146.28346 -42.183674 17.373798 -42.046383 15.482955 -11.779424 28.439632
14750000000 -24.207607 157.64716 -41.859093 -7.3529019 -41.867912 -10.065557 -11.937099 26.953007
14760000000 -22.344193 165.66092 -41.600925 -32.367302 -41.663452 -34.180592 -11.990556 25.556034
14770000000 -21.272879 165.40276 -41.539902 -50.197239 -41.624115 -53.119919 -11.941599 23.932745
14780000000 -19.43433 160.16177 -40.430782 -75.350266 -40.488308 -78.189278 -11.903375 22.557159
14790000000 -19.058165 151.23561 -40.146553 -100.96439 -40.161018 -103.07813 -11.936046 21.996477
14800000000 -18.691484 144.04517 -39.802364 -126.03658 -39.80167 -128.8757 -12.051889 21.700119
14810000000 -19.421209 135.89293 -39.665749 -152.54106 -39.705791 -154.66806 -12.26146 21.716604
14820000000 -20.024277 132.32523 -39.472214 -176.81378 -39.531155 -178.6181 -12.434242 21.839413
14830000000 -21.70385 130.63824 -39.189686 159.93369 -39.204647 157.71141 -12.538471 21.577194
14840000000 -22.243467 137.02275 -38.81559 132.71342 -38.809036 130.93752 -12.666859 20.905039
14850000000 -22.812204 145.37178 -39.073456 107.11862 -39.061691 105.25304 -12.888196 20.836054
14860000000 -21.164011 149.68341 -39.067177 83.777428 -39.10651 82.009193 -13.134562 21.060987
14870000000 -20.293282 146.27847 -38.496738 59.611336 -38.372421 57.308929 -13.383136 21.130829
14880000000 -19.209326 139.50713 -38.221043 32.459305 -38.205982 29.642056 -13.548496 19.96847
14890000000 -19.000946 130.20522 -38.270473 4.1939244 -38.348122 1.7630656 -13.664195 18.780815
14900000000 -18.976419 120.79054 -38.979015 -21.721815 -38.991325 -24.000742 -13.601241 18.283604
14910000000 -20.022207 113.15321 -38.796139 -43.592575 -38.910625 -44.719589 -13.490908 19.100033
14920000000 -21.313927 108.48761 -38.702126 -70.120132 -38.618484 -71.808136 -13.435936 20.757462
14930000000 -23.611313 115.59148 -38.496998 -95.943832 -38.53978 -97.565453 -13.560639 22.82226
14940000000 -23.51605 128.04254 -38.92347 -124.65436 -38.890549 -126.78614 -13.759371 24.536865
14950000000 -22.581717 139.62675 -39.694862 -148.57925 -39.627583 -150.78499 -14.005311 24.950474
14960000000 -20.693745 137.25963 -39.64661 -171.29851 -39.702435 -173.24904 -14.244881 24.66877
14970000000 -19.791306 132.27368 -39.630314 163.14934 -39.522701 161.57474 -14.445107 24.880342
14980000000 -19.237808 118.85432 -39.782852 137.42305 -39.738827 134.30606 -14.549986 26.346067
14990000000 -20.057259 109.1694 -40.312469 109.95289 -40.330185 107.25337 -14.524278 27.938858
15000000000 -21.029852 95.493576 -40.855373 88.467537 -40.795429 86.4403 -14.517028 28.462234
15010000000 -24.351698 90.936356 -40.807156 62.047379 -40.734123 59.436428 -14.583612 27.919054
15020000000 -26.873812 98.801392 -41.194035 37.046085 -41.202557 34.666019 -14.544518 27.556034
15030000000 -27.72571 133.70569 -41.850872 11.546851 -41.801853 8.9694996 -14.34137 27.759054
15040000000 -24.011492 140.38579 -42.318115 -8.5740833 -42.363663 -10.966046 -14.02044 29.50346
15050000000 -21.600927 137.92462 -42.525311 -33.684261 -42.384686 -37.574623 -13.727819 31.696903
15060000000 -20.269821 124.65282 -42.792603 -56.946793 -42.837467 -60.694904 -13.585437 34.204197
15070000000 -20.243792 112.57247 -43.431431 -83.992104 -43.56324 -86.394363 -13.561309 35.30513
15080000000 -21.270287 98.18956 -45.111084 -102.55805 -45.020481 -105.39525 -13.696988 35.485603
15090000000 -23.816507 87.628685 -44.436882 -115.80765 -44.414272 -119.05141 -13.754292 34.577271
15100000000 -28.386295 86.22718 -43.793797 -140.55638 -43.725159 -144.62025 -13.764719 33.80518
15110000000 -32.555347 134.84999 -43.360844 -167.81821 -43.489361 -172.64372 -13.588991 33.394337
15120000000 -26.76395 159.23329 -44.155746 163.71008 -44.538658 160.87427 -13.386671 32.786785
15130000000 -23.077904 151.34016 -44.782215 142.81271 -44.983852 137.38258 -13.24813 32.109886
15140000000 -21.343458 138.53706 -45.926357 122.79508 -46.411213 119.4702 -13.149415 31.259943
15150000000 -20.57123 124.13796 -45.812511 108.20018 -46.251453 104.4706 -13.008981 30.960018
15160000000 -21.073153 108.76562 -44.963379 87.377701 -45.358921 84.944984 -12.828992 30.754721
15170000000 -22.703169 97.316933 -44.743572 62.290051 -45.159649 58.46394 -12.681485 30.858606
15180000000 -26.219347 91.788551 -44.681068 41.269093 -45.327602 37.764297 -12.668289 31.047903
15190000000 -29.975233 118.30177 -44.153057 16.290565 -44.647057 12.992796 -12.801899 31.305244
15200000000 -27.806351 154.02208 -43.882496 -9.405901 -44.613815 -12.786774 -12.980974 31.230225
15210000000 -23.505985 155.14694 -44.549683 -37.685638 -45.128952 -39.983089 -13.125636 30.400681
15220000000 -21.469545 147.05028 -45.612309 -60.642647 -46.243149 -62.497223 -13.265579 28.830847
15230000000 -20.068354 133.30313 -45.326874 -74.588799 -46.352505 -76.730553 -13.357054 27.53451
15240000000 -20.313936 119.36817 -44.826305 -97.582123 -45.472019 -98.480713 -13.382927 26.673624
15250000000 -20.960005 106.84686 -44.802288 -120.21021 -45.428375 -122.37646 -13.34654 25.881903
15260000000 -23.202028 96.634193 -44.3022 -145.41086 -45.10368 -146.4631 -13.395522 25.363619
15270000000 -26.084497 101.47247 -44.739807 -169.11034 -45.828369 -169.39978 -13.380121 26.149305
15280000000 -27.609598 121.77371 -44.098186 167.09766 -45.328037 168.67876 -13.343492 27.508455
15290000000 -25.340153 140.9511 -44.414318 142.39211 -45.478802 147.02492 -13.281969 28.897442
15300000000 -22.641148 140.61581 -44.612965 114.90581 -45.695061 119.43816 -13.41546 29.763475
15310000000 -20.905443 133.30847 -45.761513 95.538559 -46.020382 99.265839 -13.660918 30.476046
15320000000 -19.906738 121.38357 -45.795708 74.231682 -46.613682 78.183411 -13.926141 31.141523
15330000000 -20.059443 108.80862 -46.048592 56.04747 -46.95454 64.446808 -14.039775 31.4776
15340000000 -20.94018 96.136581 -44.94524 36.505123 -45.221302 44.399052 -14.010296 31.131983
15350000000 -23.247025 90.058907 -44.489941 10.172359 -44.804325 14.192564 -13.986485 30.709494
15360000000 -25.35594 88.824692 -44.884441 -19.006048 -45.552486 -12.654263 -13.994536 30.911722
15370000000 -28.389025 109.26431 -46.378365 -40.881958 -46.855679 -32.817631 -13.940871 31.467646
15380000000 -25.787636 124.58031 -46.721394 -55.999538 -46.60474 -41.362366 -13.820002 31.321175
15390000000 -23.96047 128.87709 -46.286514 -72.03389 -45.822559 -64.209343 -13.681644 30.882565
15400000000 -21.835537 119.40495 -45.333214 -94.219513 -44.915878 -85.148254 -13.519543 31.177195
15410000000 -21.161793 108.3371 -45.557365 -117.79108 -44.664558 -108.79723 -13.32268 32.499882
15420000000 -20.948723 93.261948 -45.4758 -137.25296 -44.139294 -129.7728 -13.227889 33.701313
15430000000 -22.273937 80.06102 -45.068027 -161.50391 -43.935696 -156.68054 -13.310968 35.044971
15440000000 -24.130377 67.556068 -45.580093 175.91785 -44.725864 -178.29959 -13.526517 35.623806
15450000000 -28.438702 62.338852 -45.71957 160.52164 -44.001518 167.17809 -13.713365 35.009594
15460000000 -32.417431 86.670914 -44.716038 143.78078 -42.780598 145.20248 -13.805318 33.208401
15470000000 -30.719851 125.58362 -43.288994 118.82146 -41.987251 116.26006 -13.772796 31.15292
15480000000 -26.367725 123.35854 -43.395432 92.988945 -42.327717 92.928963 -13.754187 30.21969
15490000000 -24.61447 113.2318 -43.636997 69.913612 -42.34198 70.383423 -13.631842 30.50647
15500000000 -23.305922 95.355721 -43.421413 52.227116 -41.904484 51.319275 -13.535665 31.140167
15510000000 -23.683241 76.244743 -42.860699 31.725735 -41.121826 27.459127 -13.449469 31.948467
15520000000 -25.011444 53.978027 -41.581429 8.7921104 -40.599525 2.2482889 -13.408908 32.228561
15530000000 -28.07453 35.177998 -41.25481 -18.714243 -40.466766 -21.497402 -13.447744 33.108059
15540000000 -32.529671 2.9151537 -41.267769 -41.648281 -40.059395 -44.220352 -13.468578 34.31815
15550000000 -43.826656 -108.86056 -40.713833 -65.43158 -39.308575 -71.004501 -13.535581 35.434376
15560000000 -35.585003 177.17142 -40.505253 -91.363678 -39.403297 -99.066467 -13.678066 36.568432
15570000000 -29.568172 150.44278 -40.285046 -115.87563 -39.664631 -123.50803 -13.799801 37.069614
15580000000 -28.750999 118.07631 -40.679962 -137.38739 -39.976166 -143.14156 -13.93175 36.939415
15590000000 -28.401289 96.357086 -39.793037 -159.11006 -39.126144 -166.42838 -14.004509 36.20789
15600000000 -29.304764 57.024948 -39.581081 174.17546 -38.88372 166.95676 -14.022511 35.134605
15610000000 -31.608753 19.396429 -39.151825 150.48282 -38.644054 142.11446 -13.916924 34.477093
15620000000 -30.416998 -31.987833 -39.129265 125.07045 -38.628235 117.3322 -13.739621 34.330151
15630000000 -29.720076 -87.111557 -38.817104 100.03906 -38.395027 91.876396 -13.447725 34.654194
15640000000 -28.73225 -115.47256 -38.901913 75.283279 -38.49926 66.377945 -13.260151 35.138271
15650000000 -27.119745 -147.58113 -38.992664 49.373669 -38.807301 40.734631 -13.220921 36.427628
15660000000 -28.087809 -173.98512 -38.989204 25.862873 -38.783657 16.803843 -13.250884 37.935745
15670000000 -28.500626 161.94763 -39.072323 0.35893288 -39.03973 -7.919281 -13.361359 39.016865
15680000000 -34.116707 126.50923 -39.223209 -21.660143 -39.095806 -30.196983 -13.501155 39.13718
15690000000 -56.590431 77.539742 -38.839508 -45.940758 -38.920361 -54.880726 -13.614791 38.556767
15700000000 -33.974606 -72.515053 -39.019722 -71.278702 -39.106274 -80.412239 -13.701896 37.821667
15710000000 -27.579815 -96.751854 -38.839813 -96.178215 -38.966999 -105.14472 -13.772019 37.409847
15720000000 -24.448988 -115.32131 -38.922005 -122.53727 -39.12196 -131.79768 -13.818327 37.775333
15730000000 -22.793478 -134.74268 -39.107395 -148.48608 -39.444553 -158.87701 -13.791689 37.956512
15740000000 -22.504179 -152.3969 -39.612473 -174.97095 -40.311863 175.48317 -13.698294 37.786785
15750000000 -23.203526 -169.37239 -40.265293 162.33072 -40.914227 153.27444 -13.519056 37.391903
15760000000 -25.428711 177.0593 -40.667202 140.37842 -41.589386 130.74599 -13.285639 37.743301
15770000000 -29.563276 177.10475 -40.812 119.4604 -41.78495 111.44369 -13.014949 39.284683
15780000000 -33.042137 -146.84186 -40.914684 97.83905 -41.801544 88.455956 -12.856837 41.660767
15790000000 -27.960588 -116.69574 -40.509365 71.253029 -41.471706 63.915485 -12.796438 44.239964
15800000000 -23.788647 -120.18446 -40.937706 45.740524 -42.142204 33.938717 -12.86467 45.861866
15810000000 -21.103046 -132.27435 -41.269157 18.188759 -43.330448 9.0700855 -12.979347 45.954697
15820000000 -19.910324 -147.13611 -42.375309 -5.8146996 -44.461811 -11.027457 -13.092367 44.553967
15830000000 -19.773504 -160.92206 -42.971901 -29.014214 -45.307323 -31.221706 -13.05042 43.106503
15840000000 -20.765593 -172.75844 -43.916454 -46.280685 -45.440174 -47.811138 -12.876114 41.600956
15850000000 -22.673223 178.37643 -43.842239 -67.524506 -45.924351 -71.519386 -12.627238 41.054138
15860000000 -26.39407 -175.01996 -43.892357 -88.288773 -45.999462 -88.302208 -12.272796 40.633289
15870000000 -27.400085 -145.18156 -44.226391 -111.40622 -46.440662 -111.88036 -11.984642 40.050571
15880000000 -23.943947 -125.55367 -43.903221 -134.97934 -46.614384 -132.96069 -11.726833 39.744251
15890000000 -20.697718 -131.11237 -45.041538 -162.94373 -47.755615 -157.71568 -11.477999 39.789387
15900000000 -19.170967 -140.66393 -45.409351 176.75865 -48.417065 -172.86417 -11.29134 40.006145
15910000000 -18.048367 -153.3313 -46.497139 153.36319 -48.928066 166.80627 -11.180575 40.370712
15920000000 -18.160631 -166.58797 -47.234406 133.60371 -49.231754 155.52675 -11.152672 40.465565
15930000000 -19.363842 -178.43669 -48.681892 116.44104 -49.31662 138.12578 -11.153102 39.887295
15940000000 -21.833332 -179.57828 -48.311024 104.37679 -48.499168 118.53755 -11.241635 38.321228
15950000000 -23.819252 -167.45061 -47.884277 83.801987 -48.428894 98.657463 -11.314995 36.259991
15960000000 -23.548887 -141.21719 -47.425865 57.891693 -48.099773 75.338898 -11.327588 34.009834
15970000000 -20.312527 -133.86079 -48.551617 32.876942 -48.804405 57.136456 -11.20491 31.692776
15980000000 -18.150532 -137.31242 -49.884651 9.9240818 -48.65657 38.060921 -11.011197 29.320772
15990000000 -16.578987 -146.51324 -50.140461 -6.2579846 -48.085732 18.583487 -10.828101 27.722136
16000000000 -16.376282 -158.67169 -50.714546 -20.089304 -47.775833 -1.0904511 -10.674479 27.193552
16010000000 -16.877892 -167.99304 -51.297077 -35.369362 -47.951786 -22.586163 -10.574924 27.165319
16020000000 -18.378389 -174.78304 -50.177803 -44.496754 -46.663788 -40.821091 -10.615821 27.123301
16030000000 -20.219202 -170.44914 -48.873978 -74.881325 -46.783516 -69.124207 -10.747348 26.421398
16040000000 -21.054928 -156.4939 -49.683941 -101.64801 -47.442745 -93.010513 -10.974793 24.919683
16050000000 -19.322206 -141.99306 -50.98283 -124.5767 -47.493385 -112.07224 -11.184239 22.962057
16060000000 -17.159399 -140.54813 -51.882149 -132.31999 -46.970428 -132.69411 -11.37072 20.543661
16070000000 -15.331249 -145.7618 -50.880405 -148.31146 -47.110199 -158.04918 -11.530325 18.515575
16080000000 -14.585891 -154.64986 -50.031048 -168.84521 -47.41465 -178.73181 -11.686639 16.766754
16090000000 -14.47464 -162.39819 -49.335995 164.55811 -46.860146 157.40042 -11.799427 14.855048
16100000000 -15.082723 -169.22577 -50.455505 139.33678 -47.526909 133.11211 -11.880377 12.809592
16110000000 -16.253778 -170.75584 -51.160908 128.40259 -47.962692 115.16373 -11.904724 11.129412
16120000000 -17.25806 -165.30695 -49.773865 111.44753 -47.71151 96.158905 -11.905333 10.387525
16130000000 -17.082787 -155.15508 -49.438091 85.690498 -47.313717 70.785927 -11.955233 11.35223
16140000000 -15.762804 -149.01437 -49.216194 59.306225 -47.427803 47.134598 -12.081252 12.759904
16150000000 -14.187357 -150.44606 -49.601383 38.835617 -47.797703 21.567783 -12.416114 13.962522
16160000000 -13.141585 -155.64012 -51.538124 13.252801 -48.710159 -2.5396843 -12.837404 13.975327
16170000000 -12.501287 -162.16406 -51.661781 9.1484203 -49.409111 -18.133488 -13.336191 12.513134
16180000000 -12.529421 -168.76617 -51.160072 -9.0129337 -49.645443 -44.330357 -13.7027 10.203335
16190000000 -12.913734 -172.63364 -48.802364 -28.534027 -50.109573 -60.352215 -13.870128 7.9662356
16200000000 -13.691579 -173.31639 -49.01889 -57.683846 -51.058353 -79.600601 -13.929539 6.5907631
16210000000 -14.114875 -168.89552 -49.209682 -80.083008 -50.604145 -91.396736 -13.940216 5.7759676
16220000000 -13.891954 -162.44136 -50.341892 -98.94957 -49.431934 -117.61187 -13.991446 5.03649
16230000000 -12.849603 -159.8951 -49.733517 -111.67776 -50.219097 -146.8325 -14.055445 4.758687
16240000000 -11.94089 -160.42996 -48.556732 -133.25487 -51.916546 -161.72044 -14.055796 5.2173057
16250000000 -11.056301 -165.07545 -48.598629 -160.31653 -52.105293 -177.29227 -14.024829 6.3366857
16260000000 -10.722034 -170.48831 -48.673923 -178.62183 -52.40733 169.53236 -14.097281 8.183794
16270000000 -10.600348 -176.62898 -48.534687 159.60583 -51.429829 149.67114 -14.311032 9.5618153
16280000000 -11.094231 179.48367 -48.094215 142.9312 -51.937939 138.73618 -14.754686 10.228729
16290000000 -11.46411 179.15338 -47.412498 118.91541 -50.782494 121.1036 -15.272454 9.2977076
16300000000 -11.839538 -178.67574 -46.851864 95.08802 -48.739563 101.41028 -15.62996 6.9685149
16310000000 -11.537397 -174.32289 -47.491772 70.860184 -48.730068 73.463257 -15.800584 4.0319963
16320000000 -10.885139 -171.40097 -46.796818 48.326138 -48.6404 44.899864 -15.785337 1.780159
16330000000 -9.8851805 -172.16415 -46.806866 26.605469 -50.080254 27.691977 -15.723907 -0.030984307
16340000000 -9.2902317 -175.7128 -46.501141 4.288888 -48.947834 13.589541 -15.750635 -1.3705547
16350000000 -8.9003801 179.56958 -46.450321 -20.246552 -48.183243 -8.9826689 -15.823808 -2.163038
16360000000 -8.9956808 174.25197 -46.206406 -42.348114 -47.345055 -32.592258 -15.906707 -1.8234147
16370000000 -9.3278532 171.01503 -46.082439 -66.084236 -46.703171 -56.574844 -15.961557 -1.1326821
16380000000 -9.8721523 169.60085 -45.983269 -84.760963 -46.411327 -80.787773 -16.285418 -0.30402458
16390000000 -10.183708 172.06232 -45.311707 -110.40139 -46.187233 -109.15148 -16.856079 0.14978567
16400000000 -9.9685545 175.67244 -45.09248 -134.93553 -46.500309 -129.70271 -17.643097 -0.49995971
16410000000 -9.2187767 177.61949 -44.964386 -166.74767 -46.155491 -157.06073 -18.3617 -2.9520006
16420000000 -8.4084311 176.31985 -45.948963 167.35219 -46.396336 178.41052 -18.940716 -6.8976641
16430000000 -7.7578177 172.87617 -46.833229 149.95755 -46.90321 154.60948 -19.317585 -10.203417
16440000000 -7.5048828 168.27989 -46.241425 131.60582 -47.480503 135.9664 -19.703987 -11.525077
16450000000 -7.570271 164.05095 -45.294411 104.7146 -46.169258 116.39939 -20.069752 -11.057502
16460000000 -8.00735 161.08479 -45.436253 73.177498 -45.393108 88.531288 -20.517462 -10.980934
16470000000 -8.5347672 161.4213 -46.454861 48.081596 -45.216084 56.198967 -20.953829 -10.348549
16480000000 -8.7620363 164.19412 -47.178043 27.552561 -46.815819 24.935154 -21.226557 -8.5091448
16490000000 -8.4192991 167.39583 -46.417961 4.5180759 -48.095352 5.844275 -21.444105 -3.6558452
16500000000 -7.7621522 168.20653 -46.311527 -24.092953 -47.87294 -9.4642706 -21.713318 3.4245715
16510000000 -7.0372658 166.05659 -46.819782 -54.129982 -47.254494 -34.504475 -22.335752 10.929975
16520000000 -6.5739627 162.21565 -48.329468 -78.7061 -47.401962 -61.254402 -23.418373 17.624546
16530000000 -6.3845081 157.63739 -49.074871 -101.71114 -47.506073 -91.064476 -24.738705 20.952133
16540000000 -6.606946 154.10193 -49.340157 -121.24615 -48.396576 -116.49674 -25.668169 19.586956
16550000000 -6.9528456 152.54747 -49.28635 -148.79745 -49.337112 -142.59294 -25.69828 15.216286
16560000000 -7.3455091 153.80196 -49.852627 -179.17632 -49.61768 -161.16162 -25.106535 12.517591
16570000000 -7.2990823 156.87695 -49.829182 152.64624 -49.007866 166.37555 -24.792522 13.59377
16580000000 -6.8792248 159.02722 -51.303947 120.04287 -50.252934 137.36118 -24.716623 17.244923
16590000000 -6.1910977 158.55383 -52.47897 86.880386 -51.549995 105.64889 -24.833658 20.58717
16600000000 -5.7201242 155.74779 -53.934082 50.762493 -53.018002 76.225311 -24.885935 24.179146
16610000000 -5.4315934 151.91945 -57.666019 16.416866 -56.405697 52.456085 -24.591774 27.518347
16620000000 -5.4617887 148.26733 -59.787125 9.5867157 -56.301777 44.640305 -24.215799 32.187218
16630000000 -5.5968547 145.68556 -59.942993 -33.599583 -56.084 5.7523975 -24.249613 39.817997
16640000000 -5.9067149 144.85034 -62.195656 -72.976097 -56.128628 -34.709972 -24.521793 50.131416
16650000000 -5.960115 146.25392 -61.884304 -111.31754 -58.022663 -90.145988 -25.183617 60.251034
16660000000 -5.7541494 148.17223 -61.388557 -155.09549 -65.016647 -146.53648 -26.080458 68.279282
16670000000 -5.1981125 148.57475 -58.941254 166.0027 -63.472691 -166.13232 -26.832493 69.286613
16680000000 -4.7486415 146.95622 -56.80566 120.36987 -64.75782 139.02998 -27.088148 64.756233
16690000000 -4.4072466 144.5889 -56.783112 70.678207 -62.418354 105.71054 -26.520037 60.852028
16700000000 -4.2786531 141.66785 -56.889286 41.539082 -59.919186 70.415962 -25.170008 62.065262
16710000000 -4.253902 139.06654 -57.3685 21.846226 -58.565815 36.75819 -23.786224 64.232574
16720000000 -4.4309797 137.22961 -55.511581 1.061239 -56.684967 0.46628329 -22.812622 66.972115
16730000000 -4.5021782 136.99373 -54.023079 -27.566742 -56.421158 -21.404402 -22.053011 69.584106
16740000000 -4.4340982 137.24406 -53.957783 -61.473118 -55.373993 -54.253708 -21.476128 71.632652
16750000000 -4.1414318 137.32446 -53.639366 -81.04113 -53.833035 -81.528076 -20.960314 73.624779
16760000000 -3.8183837 136.36922 -53.613659 -109.14526 -56.005718 -110.92643 -20.497328 75.262299
16770000000 -3.4625077 134.7233 -52.49622 -133.66074 -54.888695 -128.41019 -20.328014 75.639275
16780000000 -3.2503748 132.40619 -52.708092 -161.32607 -54.783596 -152.17848 -20.472639 75.560089
16790000000 -3.1371384 130.10283 -53.203861 178.69234 -54.337353 -174.09694 -20.804153 73.701988
16800000000 -3.1389227 128.19922 -52.571796 156.35097 -54.055531 163.4689 -21.13452 70.078934
16810000000 -3.1384854 126.87312 -52.221329 130.6929 -52.835426 143.93642 -21.184071 65.023094
16820000000 -3.1486189 125.81344 -51.401573 104.93635 -51.657837 112.69429 -20.926575 59.286343
16830000000 -3.0605845 125.21182 -52.746464 79.706192 -52.519264 83.043152 -20.489983 54.628326
16840000000 -2.8873813 124.54739 -51.827724 57.717175 -53.15654 59.782845 -19.973997 51.997437
16850000000 -2.6132085 123.14689 -52.582638 37.047977 -53.488003 44.700882 -19.553551 51.184814
16860000000 -2.4139302 121.24074 -51.858974 14.063105 -52.659309 26.753397 -19.377583 52.194775
16870000000 -2.2431459 119.22554 -52.556232 -5.6709514 -52.103687 4.1450911 -19.466299 54.634434
16880000000 -2.1412811 117.27546 -51.943043 -30.371229 -51.267479 -22.329746 -19.897072 57.260109
16890000000 -2.0747674 115.43438 -52.052292 -52.062607 -50.973068 -48.771816 -20.631153 58.872589
16900000000 -2.0773346 114.07789 -51.610596 -79.459953 -51.646626 -77.027023 -21.581705 58.246208
16910000000 -2.0443702 113.05473 -52.145084 -105.72073 -51.619102 -97.538422 -22.721617 55.197926
16920000000 -1.9764873 112.25532 -52.58831 -128.60692 -51.637421 -122.37038 -23.724575 51.889305
16930000000 -1.8383958 111.10753 -53.099232 -146.10339 -52.3381 -144.61491 -24.246344 47.824684
16940000000 -1.701728 109.69288 -52.743355 -166.57924 -52.488647 -162.91991 -24.700111 46.068954
16950000000 -1.5415295 107.82349 -52.542587 169.86662 -51.68716 174.88644 -24.866751 48.222549
16960000000 -1.4329456 105.77074 -52.875034 143.48393 -51.285458 148.54291 -24.742155 52.734241
16970000000 -1.3522166 103.66821 -52.868065 122.38572 -51.565891 121.66799 -24.478689 59.365196
16980000000 -1.3247193 101.86552 -53.029545 99.9533 -51.97757 99.456772 -24.037579 67.397766
16990000000 -1.2841833 100.31883 -52.979263 75.755722 -52.019356 74.614944 -23.581751 76.124054
17000000000 -1.246546 99.107307 -53.581554 51.914234 -52.452763 49.580242 -23.101854 85.350288
