!Keysight Technologies,P9374A,MY57211807,A.19.30.04
!Date: Friday, May 08, 2026 14:14:31
!Correction: S11(C  2-Port  ) 
!S21(C  2-Port  ) 
!S12(C  2-Port  ) 
!S22(C  2-Port  ) 
!S2P File: Measurements: S11, S21, S12, S22:
# Hz S  dB   R 50
13000000000 -18.988586 58.493809 -45.963329 -169.19438 -45.066837 -170.74632 -9.1302137 20.844208
13010000000 -19.01716 60.235397 -45.269455 172.77231 -44.543068 168.80554 -9.1401777 16.573345
13020000000 -19.230448 61.17067 -44.146549 153.83122 -43.748219 150.2507 -9.2122612 12.358071
13030000000 -19.065666 61.710171 -43.726631 126.99823 -43.398003 123.46526 -9.3163815 8.1839867
13040000000 -19.499924 60.42971 -43.500454 104.49158 -43.251736 102.82288 -9.4663696 4.267396
13050000000 -19.655003 61.167747 -43.947025 80.931366 -43.385799 76.669037 -9.7064409 0.44908282
13060000000 -20.140261 61.327236 -44.027252 61.802967 -43.785488 57.341438 -10.014688 -3.2350926
13070000000 -20.144312 62.977467 -43.755424 47.148533 -43.584801 40.914856 -10.367164 -7.088511
13080000000 -20.227348 64.137146 -42.405132 24.989973 -42.367588 20.196379 -10.776082 -11.358212
13090000000 -19.691875 65.043144 -41.95438 -1.4781438 -42.093121 -6.9421115 -11.171945 -15.690085
13100000000 -19.412073 64.401833 -41.80703 -26.050158 -42.122757 -30.70142 -11.570857 -19.364361
13110000000 -18.931204 61.612141 -42.277016 -51.295803 -42.456284 -55.164505 -11.998693 -22.655886
13120000000 -19.20676 58.431156 -42.69429 -70.443748 -43.088062 -74.16909 -12.529108 -25.69187
13130000000 -19.361221 57.984268 -42.142895 -89.591957 -42.441006 -93.286278 -13.141904 -28.72143
13140000000 -19.826452 59.278515 -41.832348 -113.26553 -42.439526 -116.60991 -13.804164 -32.211559
13150000000 -19.837933 61.165382 -41.539055 -135.76738 -42.106049 -137.82011 -14.457907 -35.820869
13160000000 -19.672045 64.059448 -41.579357 -160.90027 -42.212711 -163.08774 -15.15293 -38.834187
13170000000 -19.338324 62.376198 -41.781219 177.49271 -42.556686 175.76056 -15.895588 -40.791744
13180000000 -19.250189 60.930416 -41.9674 156.27132 -42.69194 157.23041 -16.818174 -42.415222
13190000000 -19.073473 58.302456 -41.547398 134.58278 -42.083393 135.24004 -17.99225 -44.073902
13200000000 -19.171186 55.558224 -41.534039 111.32338 -42.106346 111.87321 -19.272129 -47.04245
13210000000 -19.332457 54.244278 -41.540874 87.974136 -42.220013 90.397408 -20.601776 -51.515514
13220000000 -19.274416 54.312359 -42.104439 64.45327 -42.493336 68.184822 -21.951336 -55.230953
13230000000 -19.26483 52.379673 -42.18317 45.934341 -42.630707 47.923138 -23.444811 -56.102783
13240000000 -19.270746 52.739586 -42.194321 26.105589 -42.637047 29.944168 -25.292568 -52.463638
13250000000 -19.290501 50.841255 -41.975521 5.2370543 -42.143322 10.751954 -28.03186 -44.837582
13260000000 -19.401436 50.755531 -41.512272 -16.302694 -41.218555 -10.993247 -32.567757 -27.713982
13270000000 -19.692959 49.700897 -41.71664 -40.753136 -41.265217 -37.676437 -37.561413 20.316286
13280000000 -19.397892 51.913994 -41.596558 -63.632263 -41.21439 -60.915493 -34.698669 75.036118
13290000000 -19.404871 47.779053 -42.060192 -84.552399 -41.700665 -82.171875 -30.577507 87.039871
13300000000 -19.284515 47.475449 -41.832272 -105.10027 -41.519047 -102.63111 -27.682261 85.689224
13310000000 -19.379395 42.854355 -42.076286 -125.83421 -41.328026 -122.73434 -25.133574 82.636978
13320000000 -19.263468 40.164787 -41.743591 -143.62042 -40.909847 -143.99757 -22.785921 80.714859
13330000000 -19.882769 35.19553 -40.883949 -168.13811 -40.497498 -167.38957 -21.026567 80.037888
13340000000 -20.155779 38.038597 -41.042625 167.54266 -40.225716 168.60919 -19.689966 80.050011
13350000000 -20.618269 35.635773 -41.129921 143.79681 -40.25605 143.786 -18.823879 79.051208
13360000000 -20.489937 40.972733 -41.144878 123.93864 -40.287071 121.17373 -18.062922 76.131798
13370000000 -20.281614 38.703907 -41.195313 100.87138 -40.492134 98.732407 -17.324144 70.831215
13380000000 -19.76082 38.836613 -41.214996 80.328949 -40.525703 76.737968 -16.487627 65.698128
13390000000 -20.024952 31.935131 -41.037094 57.824329 -40.3298 54.351448 -15.611753 61.89967
13400000000 -20.184771 31.668083 -40.93383 33.883549 -40.338036 29.068712 -14.760735 59.529709
13410000000 -20.698256 23.755569 -40.874454 13.593694 -40.558346 8.708724 -14.15019 57.444283
13420000000 -21.496874 26.077969 -40.597668 -9.2013502 -40.302807 -13.80617 -13.799378 55.02626
13430000000 -21.919844 22.077293 -40.586235 -31.639618 -40.215813 -36.929005 -13.577574 51.544136
13440000000 -22.145786 25.994812 -40.380184 -55.907082 -40.232445 -61.514732 -13.41558 47.31311
13450000000 -22.277193 24.481766 -40.791035 -79.61245 -40.638271 -84.430954 -13.187596 42.778378
13460000000 -21.770004 27.548214 -40.678696 -99.070648 -40.644947 -104.1619 -12.899948 38.887901
13470000000 -21.892767 21.020193 -40.165459 -122.6767 -40.014565 -127.13525 -12.629964 35.666157
13480000000 -21.856031 22.362713 -40.133217 -147.62477 -40.061478 -154.12131 -12.487436 32.547909
13490000000 -22.501898 15.187654 -40.444736 -173.82266 -40.582726 -178.96298 -12.521249 29.595329
13500000000 -22.769226 18.246643 -40.769386 165.74336 -40.973885 159.84668 -12.681147 26.850298
13510000000 -23.287663 13.689061 -40.712498 143.96718 -40.898479 139.39546 -12.779488 24.282652
13520000000 -23.795992 14.031989 -40.327156 120.77414 -40.597019 114.3494 -12.846208 21.337049
13530000000 -24.696037 10.014426 -40.531281 94.740234 -41.022301 88.897324 -13.032132 18.713348
13540000000 -24.688086 14.540571 -40.767746 70.982521 -41.442837 65.732712 -13.253672 17.227768
13550000000 -25.538357 10.877749 -40.690666 49.206947 -41.478447 44.007099 -13.481401 16.166933
13560000000 -24.905136 19.388355 -40.910961 21.74353 -41.760048 17.779604 -13.753658 15.082446
13570000000 -25.309658 14.479566 -41.39576 -0.58414626 -42.547878 -4.6865153 -13.990756 13.78286
13580000000 -24.290779 17.213215 -41.941631 -25.2579 -43.000027 -26.841845 -14.224497 12.648371
13590000000 -24.96159 8.1528673 -42.417801 -45.161255 -43.356705 -46.392063 -14.393771 12.192105
13600000000 -25.161816 8.0379887 -42.199627 -69.547417 -43.668762 -71.22683 -14.457398 12.457842
13610000000 -27.029503 3.2487566 -42.703102 -95.259613 -44.0424 -91.543732 -14.45661 13.137666
13620000000 -28.293541 9.9479208 -43.311615 -118.93271 -44.419018 -114.64536 -14.525388 14.128276
13630000000 -29.480751 18.397667 -44.320518 -141.89606 -45.501091 -134.0466 -14.523472 15.054104
13640000000 -28.053919 25.94665 -44.784138 -160.77467 -45.444687 -151.82199 -14.500813 15.416968
13650000000 -27.705385 24.541531 -45.196663 -179.0959 -45.346256 -170.49559 -14.461943 14.90398
13660000000 -26.418129 20.443842 -44.862583 155.8709 -45.16103 165.61064 -14.312073 14.203964
13670000000 -26.959656 8.8797331 -46.30735 128.48486 -45.946854 140.88622 -14.075146 13.469422
13680000000 -27.753063 8.514946 -47.300713 116.78498 -46.895752 125.54845 -13.790278 12.722021
13690000000 -28.472057 6.3237743 -47.356384 95.772354 -46.452183 105.44527 -13.477959 11.908444
13700000000 -30.097248 17.21307 -48.417774 77.789619 -46.719917 86.965614 -13.273524 10.572679
13710000000 -29.090343 26.434498 -48.525436 64.543404 -46.45982 67.141052 -13.127019 9.0543137
13720000000 -28.274445 28.112629 -47.621986 45.69511 -46.300327 47.17009 -12.983304 6.7907805
13730000000 -28.384226 27.298761 -48.114258 26.85552 -46.09837 26.759811 -12.843063 3.8050783
13740000000 -27.513088 27.208342 -47.551048 5.6019559 -45.769203 1.4316421 -12.749021 0.73023456
13750000000 -28.248495 22.337679 -48.117439 -15.710094 -46.335068 -20.303005 -12.642714 -1.7437965
13760000000 -28.321386 19.65546 -48.370171 -30.487305 -46.812035 -38.187187 -12.612967 -4.2483063
13770000000 -28.811474 17.092897 -47.403431 -45.271622 -46.135548 -54.247414 -12.716988 -7.1900363
13780000000 -28.860237 14.453772 -46.471504 -67.549919 -45.581528 -77.425499 -12.944533 -10.737082
13790000000 -28.861763 13.12847 -45.558147 -91.446762 -44.90049 -102.33405 -13.226378 -14.610396
13800000000 -29.296036 10.701125 -45.400398 -118.21148 -44.960777 -129.80859 -13.45433 -18.66798
13810000000 -29.008612 14.629427 -45.614418 -142.18816 -45.676807 -151.38011 -13.620743 -21.988028
13820000000 -28.976759 12.569827 -45.700588 -162.0016 -45.765686 -169.98169 -13.81072 -24.868559
13830000000 -28.033489 21.630011 -45.585617 175.99039 -45.280869 164.37234 -14.170285 -27.327936
13840000000 -26.921663 10.798109 -44.983971 153.12213 -45.563519 140.92979 -14.695138 -29.531017
13850000000 -27.000154 8.7508574 -45.090462 127.96858 -45.792843 118.57195 -15.343024 -31.623615
13860000000 -26.622908 -2.1713955 -45.093163 105.88085 -45.630539 97.867012 -15.954428 -34.038784
13870000000 -27.828548 -9.229064 -44.745552 84.178139 -45.855762 72.968056 -16.547417 -36.327671
13880000000 -29.049408 -16.72184 -44.4814 58.397053 -46.017544 52.350143 -17.147133 -37.735432
13890000000 -30.49626 -9.1639376 -44.827679 32.850067 -45.928291 28.640007 -17.805834 -38.154453
13900000000 -30.572056 -9.6421595 -44.713741 13.289068 -46.025921 7.8670564 -18.580406 -37.669556
13910000000 -29.966328 1.6066717 -44.711224 -12.894743 -45.949181 -18.113251 -19.412331 -37.062801
13920000000 -28.022217 -3.4014935 -44.742752 -37.770409 -46.691036 -41.970619 -20.18174 -36.418739
13930000000 -27.655348 -10.448034 -44.887581 -60.822502 -46.683544 -59.168823 -20.792805 -35.444603
13940000000 -27.015005 -24.162779 -44.971649 -83.461113 -46.374374 -82.915283 -21.237053 -32.647411
13950000000 -28.124697 -34.535641 -44.764488 -103.94995 -46.07188 -100.43191 -21.366724 -28.339952
13960000000 -28.832386 -47.641056 -44.848587 -131.36543 -46.223011 -129.22656 -21.450912 -23.495974
13970000000 -30.625643 -52.056412 -44.736019 -154.7807 -46.255455 -148.86787 -21.587723 -18.279055
13980000000 -31.628567 -59.492111 -45.214161 177.85373 -46.084244 -174.28423 -21.787695 -13.353739
13990000000 -32.615738 -51.228455 -45.327084 156.9519 -46.150925 163.3497 -21.97168 -9.6506233
14000000000 -30.917355 -53.144367 -45.647099 131.43408 -46.398972 140.17108 -22.169518 -7.4840474
14010000000 -29.785423 -53.398643 -45.852337 110.36288 -46.295052 118.74689 -22.227198 -6.8424811
14020000000 -28.834641 -62.511223 -45.718227 87.906479 -45.640747 97.647446 -22.227438 -7.080801
14030000000 -28.745958 -63.792137 -45.375023 61.420567 -45.114223 69.498489 -22.156731 -7.6318111
14040000000 -27.892647 -72.831421 -45.95895 38.157787 -45.574062 45.77013 -22.185341 -8.3378859
14050000000 -28.27327 -77.441597 -46.19257 14.891187 -45.429504 21.926104 -22.301411 -8.6495981
14060000000 -28.569796 -89.337654 -45.739086 -8.4285507 -45.123772 -4.0998755 -22.495142 -8.4121046
14070000000 -30.271456 -94.658669 -46.003147 -35.748676 -45.349594 -29.717457 -22.639978 -8.4277
14080000000 -30.028282 -107.09205 -46.023865 -59.921177 -45.091518 -52.867039 -22.699398 -9.4454823
14090000000 -32.76474 -109.91977 -46.561558 -83.96212 -45.106709 -78.167694 -22.735144 -10.348037
14100000000 -31.872715 -114.79269 -46.432598 -105.88288 -45.058292 -103.20276 -22.712927 -10.855341
14110000000 -33.032433 -105.83958 -46.085815 -129.09912 -44.696758 -128.2972 -22.747604 -9.5559349
14120000000 -30.257015 -107.27782 -45.800632 -154.65199 -44.59708 -156.59773 -22.878819 -8.3298597
14130000000 -28.700594 -112.00024 -46.016685 176.41833 -44.578514 175.70125 -23.303226 -7.256947
14140000000 -27.027666 -122.8195 -46.415321 151.88919 -45.099762 150.50592 -23.857883 -7.7471642
14150000000 -27.338404 -132.68758 -46.43269 128.49065 -44.844513 125.73545 -24.435837 -9.9425097
14160000000 -26.703342 -142.35814 -45.976387 106.89526 -44.376469 100.7355 -24.749758 -13.135408
14170000000 -28.281345 -153.99245 -45.856991 77.828423 -44.638531 69.357368 -24.878376 -16.672991
14180000000 -29.300606 -155.76004 -45.934631 52.42823 -45.127605 44.671104 -25.30732 -17.462372
14190000000 -30.5026 -158.463 -45.840939 27.686998 -44.992237 22.401098 -26.192051 -15.836968
14200000000 -30.640705 -148.14049 -45.330479 -1.8974915 -44.443066 -8.3953676 -27.675819 -12.053556
14210000000 -29.448362 -146.68201 -45.639095 -29.145691 -44.53075 -39.445923 -30.12615 -8.3099937
14220000000 -27.836945 -146.84938 -45.86689 -58.243469 -45.191742 -68.275131 -33.61673 -0.81820285
14230000000 -26.605017 -157.5528 -46.164104 -83.473175 -45.742157 -93.672256 -37.375095 16.293583
14240000000 -26.661753 -161.84851 -46.087662 -108.8362 -45.561649 -118.56143 -39.486588 48.651573
14250000000 -26.108892 -168.87201 -45.894817 -136.04997 -45.840656 -146.16559 -37.128353 84.366554
14260000000 -27.081404 -174.92099 -46.629585 -160.46129 -46.520729 -171.71791 -32.635086 100.95888
14270000000 -27.351791 -175.84149 -46.014198 174.27272 -46.205841 163.62349 -29.426624 107.09821
14280000000 -28.419048 178.41716 -46.075512 143.93314 -46.212791 133.88333 -27.137461 109.73926
14290000000 -28.689787 -175.44821 -46.105618 117.81497 -46.471462 106.53119 -25.441996 109.58983
14300000000 -29.503376 -177.18718 -46.733223 92.711029 -47.340191 84.120232 -24.230064 106.27975
14310000000 -28.393438 -170.13786 -46.099617 66.907677 -46.585011 57.794651 -23.115147 101.83083
14320000000 -28.30036 -176.03651 -46.378654 35.921314 -46.988117 28.709873 -21.822384 97.817627
14330000000 -26.799229 -173.6048 -46.674881 10.50778 -47.347126 1.7752912 -20.496265 94.298279
14340000000 -26.837883 175.90865 -46.962151 -17.676924 -47.765247 -26.023668 -19.371632 91.812477
14350000000 -26.189707 176.17113 -47.770443 -37.502022 -48.714733 -44.498959 -18.49185 90.272484
14360000000 -26.847443 165.02069 -47.396778 -65.522346 -48.245266 -71.814682 -17.848768 89.656433
14370000000 -27.637537 165.67548 -47.362278 -90.734375 -48.354355 -95.529503 -17.243383 88.049156
14380000000 -29.509153 158.94568 -47.122318 -119.10178 -48.401115 -124.15221 -16.846479 85.193558
14390000000 -29.961336 178.70308 -47.823341 -140.98386 -48.823242 -144.58846 -16.471264 81.689812
14400000000 -29.674633 179.10034 -47.290604 -168.38805 -48.28521 -172.51958 -16.115026 77.68882
14410000000 -27.92367 -172.3132 -47.354084 163.67316 -48.432182 161.7506 -15.750644 74.317505
14420000000 -27.104263 178.28419 -47.453213 134.38026 -48.598118 130.78638 -15.355419 71.575928
14430000000 -25.891159 174.06508 -48.493992 112.56519 -50.097984 112.71783 -14.979295 69.365532
14440000000 -26.661789 161.52205 -48.495968 84.945045 -49.324295 85.66304 -14.636062 66.84491
14450000000 -27.069424 162.24263 -47.896503 64.070137 -48.763641 64.34584 -14.449677 64.077682
14460000000 -29.115732 158.19836 -47.609058 32.777229 -48.639751 37.556625 -14.310066 61.66251
14470000000 -29.225069 175.86655 -48.015347 5.9187918 -48.550106 7.9810891 -14.177361 59.592014
14480000000 -28.699692 -175.15851 -47.876671 -24.231703 -48.648899 -22.594357 -14.102757 57.802853
14490000000 -26.734604 -174.38863 -47.932487 -51.853153 -48.801247 -49.325954 -14.081952 56.511658
14500000000 -26.410492 -177.01825 -48.168388 -82.848938 -48.826744 -79.593925 -14.149619 54.692032
14510000000 -25.435108 177.12883 -48.803448 -108.10246 -49.441055 -105.64711 -14.349975 52.782089
14520000000 -26.650881 173.16797 -48.7178 -139.89519 -49.463276 -134.85344 -14.464385 51.079678
14530000000 -26.012747 170.09314 -49.16312 -166.33522 -49.63195 -161.67929 -14.392099 49.189907
14540000000 -27.648752 171.4494 -49.461933 163.52528 -49.855419 170.32736 -14.215725 47.581223
14550000000 -26.402573 176.22206 -49.573032 136.20021 -49.379593 142.77115 -14.073696 46.49028
14560000000 -26.567726 178.26233 -49.054714 105.37281 -49.311443 109.39003 -14.029984 46.473625
14570000000 -25.087381 178.11333 -49.14743 76.016991 -49.146568 80.754608 -14.024848 46.908226
14580000000 -25.260599 179.09167 -48.572479 45.306534 -48.679565 50.584896 -14.042835 47.070824
14590000000 -24.145878 176.85367 -47.90033 8.1976862 -48.044552 12.690711 -14.060581 46.511299
14600000000 -24.043808 177.92592 -48.040192 -26.028324 -47.900124 -21.818474 -14.026497 45.929913
14610000000 -23.265942 173.2317 -48.809551 -63.355217 -48.91703 -60.042145 -13.964786 45.294369
14620000000 -23.82338 170.44536 -49.589169 -92.902496 -49.632816 -87.538849 -13.831045 44.890564
14630000000 -23.593571 168.92888 -49.47049 -120.91016 -49.431709 -117.2081 -13.753928 43.945724
14640000000 -24.08576 168.96843 -49.321938 -143.03444 -49.259556 -140.26289 -13.731284 43.057907
14650000000 -23.816513 171.7594 -48.954212 -174.07309 -49.063644 -168.58842 -13.655983 41.835182
14660000000 -23.288107 172.54344 -48.080048 164.3511 -47.456547 166.58412 -13.515387 40.520897
14670000000 -22.677629 172.79082 -46.508919 130.65619 -46.003979 131.96968 -13.272543 39.229919
14680000000 -21.654173 170.35399 -45.93758 93.583412 -45.55051 93.763206 -13.033105 37.972099
14690000000 -21.313929 165.93689 -46.299133 60.226074 -46.007393 61.362053 -12.901713 36.7262
14700000000 -21.08765 160.83635 -47.166405 29.475317 -46.973618 30.911514 -12.880873 35.991764
14710000000 -21.55842 157.45755 -47.384125 4.9596643 -47.155643 5.2089376 -12.879557 35.2421
14720000000 -22.022524 155.73502 -46.762127 -13.973666 -46.445782 -13.704276 -12.94414 33.889931
14730000000 -22.471087 159.31235 -46.252552 -45.776276 -45.978561 -45.669231 -13.042668 32.286942
14740000000 -21.769436 160.25618 -46.570148 -70.467628 -46.24258 -69.661224 -13.159274 30.288713
14750000000 -21.575731 160.57143 -46.422363 -95.110641 -46.132118 -96.04493 -13.262852 28.048948
14760000000 -20.584629 157.95035 -46.028553 -117.22256 -45.479675 -118.06123 -13.361998 25.815924
14770000000 -20.384804 153.42697 -45.180023 -146.07907 -45.031658 -148.57004 -13.419415 24.300556
14780000000 -19.80167 147.86456 -44.884232 -172.39404 -44.457344 -173.54768 -13.387003 23.271626
14790000000 -20.394018 142.48096 -44.775768 157.42688 -44.427624 156.43684 -13.461484 22.164526
14800000000 -20.647787 142.39166 -45.628033 128.162 -45.329582 125.64525 -13.684866 21.749115
14810000000 -21.151043 142.94684 -46.311993 107.84713 -46.021301 106.03421 -13.911062 21.321939
14820000000 -20.795601 145.33089 -46.628315 90.30471 -46.203545 86.93647 -14.199112 20.846951
14830000000 -20.798759 145.55785 -45.308846 67.322105 -44.936008 63.747753 -14.397468 20.508493
14840000000 -20.105911 143.87753 -44.787189 42.886593 -44.701813 38.014977 -14.549896 19.947458
14850000000 -20.399683 139.64406 -44.571495 16.054752 -44.551132 12.756167 -14.779753 19.701141
14860000000 -20.032431 137.21274 -44.146286 -11.07943 -44.016068 -14.215493 -15.052585 19.909683
14870000000 -20.581966 131.07446 -44.256626 -41.161915 -44.052612 -44.617138 -15.444591 19.815536
14880000000 -20.714739 130.06984 -45.050404 -65.828201 -45.007545 -69.620895 -15.736058 19.508476
14890000000 -21.013891 128.22461 -45.309814 -86.499016 -45.191071 -92.682701 -15.792957 18.428505
14900000000 -20.786173 127.10735 -45.482204 -110.75992 -45.781494 -115.79652 -15.768588 17.650038
14910000000 -21.018223 125.55251 -45.729931 -130.65967 -46.064423 -135.07121 -15.711177 18.599314
14920000000 -20.920179 124.29841 -44.814121 -151.00476 -45.193283 -155.1532 -15.708799 20.86447
14930000000 -21.318092 125.06873 -44.6777 178.77357 -44.972485 177.61537 -15.858156 23.164993
14940000000 -20.92515 125.61108 -44.935265 155.90356 -45.376106 152.55083 -16.23428 25.087326
14950000000 -21.054541 124.32516 -44.760731 129.05766 -45.038265 126.72095 -16.603464 26.680595
14960000000 -20.81193 121.90302 -45.528809 101.71109 -46.044987 98.997101 -16.790359 26.993572
14970000000 -21.38735 119.10962 -46.16375 82.787956 -46.58704 82.485809 -16.896805 27.50548
14980000000 -21.612186 114.84039 -46.147957 57.857193 -46.584126 58.999817 -16.90843 28.899815
14990000000 -22.645926 113.54278 -46.555733 38.952358 -46.81741 39.026264 -16.916075 30.83354
15000000000 -23.209955 113.26932 -46.449688 16.43107 -46.665375 16.076553 -16.997427 32.596294
15010000000 -23.797817 117.69514 -46.415779 -9.3529062 -46.672779 -9.5987082 -17.044481 33.619541
15020000000 -23.196335 121.22816 -47.178257 -30.15852 -47.210426 -28.766714 -16.907393 33.567776
15030000000 -22.696796 119.29704 -46.851696 -50.056416 -46.857151 -49.549995 -16.591629 33.736687
15040000000 -22.299435 116.06819 -46.813801 -71.507347 -46.526104 -72.689941 -16.128704 34.609692
15050000000 -22.659876 111.79362 -46.107346 -98.497887 -46.188286 -99.326248 -15.74197 37.105816
15060000000 -23.219389 110.84722 -47.084824 -125.96577 -47.275204 -126.38445 -15.496729 39.609802
15070000000 -24.155411 109.57512 -48.090717 -141.20413 -47.900429 -140.14101 -15.417629 41.404472
15080000000 -25.214888 117.31036 -47.226402 -162.7446 -47.015877 -163.15976 -15.435467 41.67318
15090000000 -24.865831 122.79472 -47.043613 171.87286 -46.854595 169.20151 -15.500555 40.871586
15100000000 -24.550751 127.43678 -47.030144 145.77832 -47.16106 143.9449 -15.366302 39.81554
15110000000 -23.891428 123.4539 -48.299179 121.31159 -48.418877 120.99216 -15.168052 38.635353
15120000000 -24.200668 122.10006 -47.898918 106.94402 -47.805267 105.51594 -14.935794 38.249374
15130000000 -24.335819 117.33923 -47.727566 77.751175 -47.749748 77.17366 -14.709245 37.449596
15140000000 -24.884632 121.45551 -48.088428 53.485756 -48.003323 52.411873 -14.561465 36.20784
15150000000 -24.699892 120.92439 -48.734295 30.594795 -48.643555 29.385632 -14.446439 35.228741
15160000000 -24.944065 124.94214 -48.979626 5.7577248 -48.786743 4.2940249 -14.297075 34.6502
15170000000 -24.519922 125.79158 -50.005386 -9.1569538 -49.910336 -11.168461 -14.098999 34.299492
15180000000 -24.059059 128.18985 -48.379261 -34.253063 -48.554066 -35.089043 -14.018157 34.327118
15190000000 -23.73247 126.08091 -49.813225 -64.835999 -49.432205 -65.094719 -14.014793 34.143616
15200000000 -23.82892 127.63987 -49.896206 -86.710602 -49.813892 -88.291542 -14.188935 33.378391
15210000000 -23.569284 126.78075 -51.035637 -104.10552 -50.934063 -105.60259 -14.426751 32.684338
15220000000 -23.593266 129.62552 -51.110596 -131.38721 -50.75108 -134.38478 -14.55196 31.673777
15230000000 -22.961864 126.27782 -52.051411 -144.08687 -51.658024 -148.26782 -14.638694 30.153391
15240000000 -23.173056 124.38839 -51.102482 -166.19626 -50.864548 -168.59607 -14.685846 28.734276
15250000000 -23.295221 120.78299 -50.667629 163.32681 -50.887062 159.55272 -14.712914 27.295128
15260000000 -23.713066 122.83262 -53.0135 138.21695 -52.79509 136.85728 -14.797242 26.776226
15270000000 -23.563772 122.87315 -51.389042 118.94492 -51.517757 115.87057 -14.691026 27.615202
15280000000 -23.161791 124.07831 -51.908955 91.92923 -52.073235 91.405693 -14.517527 28.533838
15290000000 -22.881899 121.94623 -51.503479 61.258976 -51.47551 58.379097 -14.526839 29.293028
15300000000 -22.3279 121.72605 -52.931339 26.67664 -53.185448 24.97998 -14.690647 30.72496
15310000000 -22.177349 117.37801 -56.30344 1.4432998 -56.830078 -2.5053611 -14.924385 31.743664
15320000000 -22.070162 112.90305 -59.501972 -2.260071 -59.535606 1.7338386 -15.145831 32.348869
15330000000 -22.969305 109.27613 -54.258831 -8.5224924 -53.829842 -8.2915821 -15.298808 31.737185
15340000000 -23.271727 109.72375 -53.167862 -57.614647 -52.98909 -57.751984 -15.336644 31.598372
15350000000 -23.990643 114.15818 -52.951771 -101.18713 -52.903881 -99.875206 -15.256338 31.78821
15360000000 -23.267479 112.32344 -56.382317 -141.29773 -56.557919 -135.35083 -15.157946 31.742588
15370000000 -23.604004 112.92622 -59.041393 -172.34499 -57.631603 -174.02237 -15.152545 31.380253
15380000000 -22.852863 109.40713 -60.35191 165.0397 -59.956951 164.82295 -15.161037 31.016016
15390000000 -23.084927 105.7031 -61.106514 135.9371 -60.916183 136.83536 -14.993188 30.63732
15400000000 -22.998657 98.697235 -59.480179 113.41718 -59.25008 114.10379 -14.765222 30.591434
15410000000 -24.115211 95.479668 -57.549835 74.128273 -57.35778 81.157158 -14.482048 31.579319
15420000000 -24.797407 93.430382 -58.202744 41.025982 -58.328552 47.748489 -14.323946 32.730751
15430000000 -25.275988 100.57407 -56.979935 6.4845796 -56.862072 15.622207 -14.407429 33.595387
15440000000 -24.948452 96.401443 -56.564228 -17.634653 -55.925869 -12.608394 -14.706067 34.038139
15450000000 -25.35821 96.992783 -54.338509 -43.117363 -53.213631 -40.776489 -14.928267 33.327545
15460000000 -25.704613 90.204224 -52.302219 -77.253517 -51.815533 -78.840927 -15.05354 31.500912
15470000000 -26.571669 94.646965 -51.575661 -115.9925 -51.094769 -115.17251 -15.009788 29.518433
15480000000 -26.446552 87.731438 -52.172344 -152.92676 -51.880783 -150.88295 -14.874668 28.372402
15490000000 -27.504675 89.420273 -55.654156 -173.10208 -54.989273 -174.49823 -14.825965 28.301779
15500000000 -27.777266 82.747269 -54.036831 -168.879 -52.975273 -171.31262 -14.824662 28.851597
15510000000 -28.496683 87.494026 -50.402496 173.00208 -49.833851 169.71783 -14.774323 29.53787
15520000000 -28.4049 74.775642 -47.554386 138.92023 -47.159019 136.57816 -14.724918 29.630594
15530000000 -30.186903 76.988342 -46.278843 103.15783 -45.855297 101.55428 -14.725593 30.035156
15540000000 -31.785156 61.387604 -46.477665 67.645103 -46.067947 65.840103 -14.708886 31.047291
15550000000 -35.461739 89.060631 -47.240986 39.602402 -47.158058 38.104668 -14.801365 32.354122
15560000000 -35.561852 86.297089 -47.300739 23.409121 -46.974083 19.445898 -14.963178 33.745262
15570000000 -34.259178 109.08793 -46.633312 -1.4415015 -46.838001 -5.4403954 -15.08561 34.405113
15580000000 -35.245541 80.579529 -46.317497 -21.112829 -46.70927 -23.392708 -15.267607 33.7635
15590000000 -37.125244 98.98204 -45.399708 -45.678421 -45.23806 -45.403816 -15.40777 32.899624
15600000000 -38.766838 58.292927 -44.224331 -71.500534 -44.284664 -73.577309 -15.365046 31.860073
15610000000 -51.874557 38.536213 -43.760796 -99.783005 -43.750656 -101.71072 -15.223567 30.838257
15620000000 -42.962704 -53.211521 -43.448578 -129.53065 -43.418232 -131.40155 -14.987971 30.39521
15630000000 -36.252384 -128.46123 -44.433212 -156.07364 -44.456734 -158.09883 -14.803776 30.365744
15640000000 -37.133102 -142.66571 -44.76865 -174.4507 -44.956566 -175.91483 -14.68947 31.55965
15650000000 -35.17598 -156.60455 -43.943233 164.75447 -43.968803 163.72368 -14.547957 32.962418
15660000000 -37.759888 -146.40825 -42.987541 138.59984 -42.987545 136.36522 -14.599036 33.595276
15670000000 -33.639511 -146.37363 -43.090923 109.22244 -43.207413 106.79366 -14.82203 33.734921
15680000000 -34.127171 -139.41965 -43.91634 84.425056 -44.162746 83.077034 -15.064553 33.838333
15690000000 -31.440323 -142.03949 -44.270916 65.259109 -44.356209 65.012047 -15.230593 33.371212
15700000000 -30.864269 -135.18971 -43.5583 47.32597 -43.657726 45.613441 -15.287503 33.070518
15710000000 -28.680277 -139.14825 -42.87133 19.806963 -42.839298 19.007753 -15.230306 32.636337
15720000000 -28.09354 -141.83234 -42.734364 -8.0752363 -42.945408 -9.0729446 -15.318113 32.20277
15730000000 -27.320805 -142.99179 -43.248165 -34.535088 -43.460739 -35.351521 -15.424477 32.565571
15740000000 -26.866318 -141.91127 -44.075424 -56.8941 -44.225269 -57.974434 -15.415491 32.821472
15750000000 -25.595402 -146.51466 -44.619633 -74.299995 -44.55365 -74.249352 -15.265948 32.841267
15760000000 -25.769445 -150.97847 -43.860371 -93.213249 -44.008038 -94.82222 -15.018849 33.510857
15770000000 -25.684389 -154.07378 -43.381405 -116.97467 -43.529938 -117.10425 -14.73983 35.254612
15780000000 -26.210875 -151.49747 -43.687218 -143.04648 -43.717865 -143.83789 -14.589611 37.883873
15790000000 -25.507843 -147.84407 -43.878189 -164.82053 -43.886101 -165.04387 -14.569011 40.675598
15800000000 -24.614904 -145.31877 -44.23531 173.2093 -44.114601 172.89345 -14.708405 42.161278
15810000000 -23.411322 -147.72394 -44.30019 152.64676 -44.150448 151.55121 -14.962057 42.327961
15820000000 -22.9256 -150.3311 -44.114887 130.287 -44.076168 129.48885 -15.020925 41.576374
15830000000 -22.321421 -153.95512 -44.414593 110.54005 -44.316109 109.78089 -14.842319 39.728485
15840000000 -22.450911 -156.97243 -44.225952 89.407181 -44.148365 88.986336 -14.574412 38.238674
15850000000 -22.621151 -159.34749 -44.280666 69.164291 -44.188133 66.887695 -14.207662 37.660931
15860000000 -23.240799 -154.53397 -43.504398 49.381828 -43.487068 48.169125 -13.869652 37.295132
15870000000 -22.592722 -152.46857 -43.344448 23.247259 -43.24828 21.874786 -13.625542 37.28339
15880000000 -22.269539 -150.01135 -43.592735 1.7914603 -43.465221 0.94827902 -13.357844 37.537216
15890000000 -21.479694 -152.21461 -43.757996 -19.529428 -43.493744 -20.565756 -13.067045 37.428303
15900000000 -21.306581 -155.03568 -43.192978 -39.359982 -43.043049 -40.457241 -12.866494 37.245415
15910000000 -21.036249 -156.29678 -43.03096 -63.881298 -42.730499 -65.841713 -12.761714 37.03582
15920000000 -20.866302 -157.50989 -43.000896 -86.002258 -42.838936 -86.940674 -12.735852 36.68922
15930000000 -20.705044 -157.60928 -42.87561 -106.43042 -42.60088 -108.18068 -12.714795 36.114494
15940000000 -20.517435 -157.36513 -42.447468 -128.48608 -42.151642 -131.00026 -12.719855 34.532341
15950000000 -20.21998 -156.18651 -42.185436 -153.64316 -41.893623 -156.38737 -12.734792 32.198101
15960000000 -19.885994 -156.54135 -42.156662 -176.25308 -41.880623 -179.44933 -12.707713 29.688723
15970000000 -19.686562 -155.6712 -41.977886 159.64037 -41.884804 156.7795 -12.61061 27.163692
15980000000 -19.624287 -156.0757 -41.721828 138.40456 -41.610855 135.21104 -12.401665 24.893894
15990000000 -19.301285 -152.82707 -41.628368 112.76823 -41.583088 110.028 -12.187958 23.442316
16000000000 -18.912514 -154.14165 -41.755123 88.611137 -41.524639 85.462074 -11.97791 22.437057
16010000000 -18.469007 -153.46709 -41.72147 67.232704 -41.76857 64.347298 -11.940137 21.872246
16020000000 -18.159554 -156.62558 -41.849232 43.771404 -41.739674 40.061867 -12.032205 21.375647
16030000000 -18.102411 -156.79462 -41.764271 22.447227 -41.749908 18.398525 -12.201865 20.271759
16040000000 -17.823158 -157.93674 -41.446236 -1.769789 -41.449474 -4.3679991 -12.385683 17.922831
16050000000 -17.682697 -157.60402 -41.243488 -26.389656 -41.405952 -29.546148 -12.606097 15.030267
16060000000 -17.388288 -157.23645 -41.324696 -52.499798 -41.341469 -55.181396 -12.755288 12.619563
16070000000 -17.075386 -155.27191 -41.627823 -78.625641 -41.76466 -80.662125 -12.825016 10.378522
16080000000 -16.489347 -155.83458 -42.143871 -100.71826 -42.146793 -103.3476 -12.930079 8.3371792
16090000000 -16.107466 -155.6848 -42.076813 -121.35709 -42.192539 -124.3515 -13.067088 5.9487233
16100000000 -15.71491 -157.9127 -41.841923 -144.91882 -42.08691 -147.34712 -13.204911 3.4882307
16110000000 -15.656014 -158.34151 -41.785892 -168.42889 -41.979881 -170.4155 -13.340688 1.4069587
16120000000 -15.342739 -159.37239 -41.612476 166.16254 -41.804848 164.00642 -13.417036 0.86120123
16130000000 -15.209301 -159.83951 -41.961121 139.57277 -42.235176 137.71614 -13.506557 1.3054938
16140000000 -14.948496 -160.45189 -42.481709 115.2085 -42.638355 113.96606 -13.768782 2.4008224
16150000000 -14.680516 -160.81474 -42.813152 94.609009 -42.938862 93.061241 -14.155799 2.6658967
16160000000 -14.278635 -161.59485 -42.572842 70.115189 -42.792034 69.195358 -14.705345 1.4100105
16170000000 -13.94873 -162.26947 -42.669109 43.831573 -42.726501 43.710377 -15.227011 -1.3112105
16180000000 -13.596539 -163.30904 -43.25087 16.645073 -43.272854 16.98811 -15.627649 -4.278316
16190000000 -13.312617 -163.93971 -43.573814 -5.8296547 -43.382439 -7.0277967 -15.821342 -6.010076
16200000000 -13.025509 -164.46808 -43.855095 -32.554825 -43.93351 -33.789009 -15.888303 -6.5621758
16210000000 -12.695848 -165.76395 -44.537468 -53.850128 -44.713444 -54.423664 -15.974756 -6.8419271
16220000000 -12.566409 -166.7327 -44.486198 -78.896561 -44.342564 -77.72184 -16.107014 -7.7255478
16230000000 -12.342427 -168.08055 -44.548309 -104.42072 -44.540642 -105.08733 -16.317558 -8.5338144
16240000000 -12.292096 -168.61853 -45.433521 -133.22096 -45.321888 -134.18309 -16.489693 -8.6867294
16250000000 -12.08462 -169.78381 -45.613995 -154.26678 -45.633556 -156.34785 -16.601866 -7.3308787
16260000000 -11.905457 -170.16313 -45.710262 176.88522 -45.868652 175.96188 -16.73765 -5.1244321
16270000000 -11.540451 -171.16574 -46.781212 149.88272 -46.740799 151.86128 -17.041037 -3.605485
16280000000 -11.179202 -172.57985 -46.959106 123.31214 -46.555878 122.85643 -17.519173 -2.9707775
16290000000 -10.847165 -174.48863 -48.774593 98.329422 -48.177197 95.204071 -18.061737 -4.7257652
16300000000 -10.640209 -176.4108 -48.680843 73.909508 -48.630493 72.770584 -18.498865 -7.4754133
16310000000 -10.509865 -178.15727 -49.33672 40.300888 -49.082687 39.6376 -18.653091 -10.350277
16320000000 -10.462699 -178.6937 -50.401733 17.818258 -50.499123 16.026739 -18.575628 -12.523154
16330000000 -10.350192 -178.96487 -50.696522 -13.951583 -50.690384 -13.304261 -18.528872 -14.587123
16340000000 -10.159302 -178.93707 -52.396923 -41.02256 -51.795326 -43.012421 -18.619123 -15.952356
16350000000 -9.919055 -179.59727 -52.712212 -63.029785 -52.455051 -65.914268 -18.695181 -16.876902
16360000000 -9.6131468 179.35629 -52.1357 -95.881325 -51.993008 -100.43004 -18.807693 -17.043684
16370000000 -9.3746023 177.29225 -51.56131 -133.82924 -52.071903 -135.2043 -18.985434 -16.964756
16380000000 -9.2096224 174.95538 -51.651226 -170.90175 -51.73291 -169.01337 -19.400656 -16.355228
16390000000 -9.1847982 172.95424 -51.951874 149.46344 -51.691349 151.03404 -20.069664 -17.42646
16400000000 -9.1022758 172.06467 -53.260921 114.33853 -53.288681 112.21017 -20.991882 -20.723312
16410000000 -8.9817867 171.24547 -53.696907 83.953064 -53.56723 81.962143 -21.925137 -26.58135
16420000000 -8.7770824 170.92258 -54.145451 64.887222 -54.615616 65.72171 -22.657703 -31.549852
16430000000 -8.5766811 170.01994 -52.012966 42.960239 -52.036259 45.493156 -22.926794 -35.060757
16440000000 -8.3389225 169.62575 -50.972038 10.992363 -50.907253 13.074599 -23.307299 -38.269314
16450000000 -8.1442766 168.22385 -49.084679 -18.728945 -48.76926 -19.545067 -24.117571 -41.079723
16460000000 -7.9935794 167.2802 -48.66827 -51.440964 -48.71307 -52.791832 -25.105211 -44.443069
16470000000 -7.8847036 165.73669 -48.058254 -82.333427 -47.913105 -84.023521 -26.185053 -46.627712
16480000000 -7.7991796 164.87614 -48.2607 -112.60181 -48.498001 -113.97857 -27.123734 -43.97937
16490000000 -7.6568823 163.13734 -48.342621 -136.92737 -48.439583 -136.03935 -28.104065 -36.316257
16500000000 -7.6135821 162.13646 -47.867794 -162.04074 -47.868057 -160.93362 -30.016832 -26.397133
16510000000 -7.5127788 160.72639 -48.256718 172.83603 -47.58358 171.19943 -33.238842 -5.4626088
16520000000 -7.4291382 160.57463 -47.571072 155.4922 -47.436733 154.21402 -37.179028 24.098272
16530000000 -7.1865897 159.71393 -46.499393 129.04213 -46.500957 127.06984 -40.730431 57.268768
16540000000 -6.9806347 159.31693 -45.181183 103.81516 -45.24577 104.28682 -45.261059 91.862923
16550000000 -6.7173758 157.98334 -45.038242 69.801102 -44.800156 70.040909 -46.542255 89.475937
16560000000 -6.5527186 156.82213 -45.102215 44.479053 -44.955265 43.316525 -42.808903 70.257011
16570000000 -6.4317517 155.09453 -45.339989 12.203593 -45.063995 11.604117 -37.986103 64.183144
16580000000 -6.4239235 154.09898 -46.15313 -8.4671001 -46.038368 -9.9032927 -35.808891 68.346245
16590000000 -6.3988042 153.11351 -46.364941 -31.121614 -46.115143 -31.749109 -34.59668 76.847229
16600000000 -6.3356495 152.9554 -45.77491 -51.004959 -45.514854 -51.88023 -33.617085 81.202538
16610000000 -6.1272478 152.29521 -45.805138 -77.114136 -45.278103 -78.660454 -32.220074 80.710121
16620000000 -5.8974323 151.37256 -45.7542 -101.82157 -45.526192 -105.16187 -30.44766 80.927872
16630000000 -5.6539369 149.72031 -45.731186 -123.31606 -45.63863 -125.64789 -28.748728 86.95237
16640000000 -5.4936471 148.18462 -45.560047 -148.62276 -45.427387 -150.55063 -27.102615 96.796906
16650000000 -5.3416924 146.68532 -45.675838 -173.46613 -45.451256 -176.13675 -25.946724 104.99937
16660000000 -5.2682285 145.63361 -46.061005 160.49936 -45.963768 156.95624 -25.632133 111.73586
16670000000 -5.1395202 144.96463 -46.499859 136.2581 -46.21241 131.75919 -25.837326 115.33505
16680000000 -5.0009475 144.3466 -46.960567 113.78491 -47.109314 111.07314 -26.161324 114.06973
16690000000 -4.8046541 143.6132 -47.160847 96.230377 -47.321056 93.335564 -25.871685 108.48055
16700000000 -4.6390758 142.35545 -47.150188 73.066811 -47.016304 70.137886 -25.053656 101.64189
16710000000 -4.4785285 141.11452 -46.981274 52.593971 -46.952869 48.340797 -23.876949 97.58799
16720000000 -4.3640957 139.66373 -46.531731 27.41411 -46.933872 23.183414 -22.782316 95.814827
16730000000 -4.2070861 138.38091 -46.995571 0.50572032 -47.224136 -1.6370497 -21.862272 95.583549
16740000000 -4.0916128 136.97029 -47.419853 -19.916872 -47.627586 -23.745272 -21.138878 94.934006
16750000000 -3.9326856 135.76741 -48.025631 -44.002865 -48.227673 -46.265034 -20.641808 94.299263
16760000000 -3.780036 134.45015 -48.235268 -60.938969 -48.601578 -63.853138 -20.361088 93.545952
16770000000 -3.6177707 133.155 -48.031799 -83.251511 -48.657932 -84.796371 -20.3272 93.158127
16780000000 -3.4934161 131.84108 -47.710114 -102.78766 -48.203514 -102.91541 -20.432165 92.565559
16790000000 -3.3535953 130.63545 -47.470005 -131.53665 -47.845142 -131.2327 -20.663919 90.976059
16800000000 -3.2431617 129.37923 -47.958729 -155.62361 -48.177814 -154.41667 -20.935575 87.003426
16810000000 -3.1019685 128.12872 -48.795506 -178.01009 -48.952415 -178.06848 -21.14517 81.320572
16820000000 -2.9887748 126.59734 -48.997356 166.06519 -49.145714 167.79504 -21.245964 75.231171
16830000000 -2.8462193 125.10655 -48.701214 141.05046 -48.785416 142.12994 -21.073713 69.796593
16840000000 -2.7386658 123.45174 -49.278164 119.4858 -48.922112 121.58286 -20.7726 65.913315
16850000000 -2.6100416 121.86167 -48.574116 100.81284 -48.442268 99.589745 -20.454271 64.638939
16860000000 -2.5132253 120.28273 -48.487835 73.18708 -48.424686 73.221191 -20.243799 64.913223
16870000000 -2.3862824 118.90102 -48.544205 49.134136 -48.405312 49.084888 -20.303217 66.90863
16880000000 -2.2798331 117.49812 -49.588856 23.752296 -49.305515 25.366631 -20.72385 69.240311
16890000000 -2.1445229 116.19321 -50.0611 5.2249136 -49.961632 5.0144572 -21.663162 71.07576
16900000000 -2.0482228 114.85449 -49.619934 -17.574093 -49.307491 -17.617474 -22.806747 72.178978
16910000000 -1.9324236 113.44634 -49.585022 -41.76458 -49.561306 -43.750912 -24.174707 70.931717
16920000000 -1.8561858 111.96992 -50.257061 -68.950424 -49.851421 -71.606369 -25.380844 68.639427
16930000000 -1.7587137 110.447 -50.890533 -89.923042 -50.709297 -94.253334 -26.270502 67.563652
16940000000 -1.6960329 108.78696 -52.191616 -115.51192 -51.554493 -117.00568 -26.670309 69.266769
16950000000 -1.6050402 107.18612 -51.977589 -133.26994 -51.59203 -137.29898 -26.744825 73.683342
16960000000 -1.5298499 105.51504 -51.837318 -159.15042 -51.463169 -160.74292 -26.38106 79.964149
16970000000 -1.4328347 103.91875 -52.761875 170.81267 -52.411221 168.61766 -26.012371 87.374619
16980000000 -1.3543437 102.27492 -54.189438 148.02542 -53.832035 143.47061 -25.254158 96.852219
16990000000 -1.2595665 100.78121 -55.734264 129.32387 -55.35651 125.29121 -24.094368 105.27483
17000000000 -1.177974 99.271111 -55.352234 113.45428 -55.668896 108.66466 -22.954182 111.19859
