!Keysight Technologies,P9374A,MY57211807,A.19.30.04
!Date: Friday, May 08, 2026 14:12:48
!Correction: S11(C  2-Port  ) 
!S21(C  2-Port  ) 
!S12(C  2-Port  ) 
!S22(C  2-Port  ) 
!S2P File: Measurements: S11, S21, S12, S22:
# Hz S  dB   R 50
13000000000 -18.799356 60.292568 -45.192856 -129.43442 -44.983402 -130.72552 -9.1244135 22.888111
13010000000 -18.72703 60.380424 -43.903709 -147.91208 -43.825645 -148.99643 -9.1352119 18.789896
13020000000 -19.040733 59.528152 -42.511021 -170.57404 -42.446857 -171.32668 -9.2218466 14.514603
13030000000 -19.248369 60.392117 -41.92865 160.8642 -41.896698 159.84415 -9.3908548 10.533797
13040000000 -19.661247 60.706284 -42.360394 138.38416 -42.204327 139.22531 -9.5701637 7.2274704
13050000000 -19.701601 62.691929 -42.676273 116.4905 -42.482922 115.34689 -9.7897158 3.8635337
13060000000 -19.899885 62.080425 -42.428993 100.77706 -42.100933 99.789978 -10.117508 0.34012976
13070000000 -19.926594 62.425346 -41.514233 81.465195 -41.412075 80.343529 -10.539282 -3.2837958
13080000000 -20.134756 62.285465 -40.471367 57.088596 -40.300575 55.532536 -11.008877 -7.1018
13090000000 -19.890224 63.50729 -40.012741 30.906845 -39.904881 29.763544 -11.420003 -11.002828
13100000000 -19.690399 63.964428 -40.261845 3.879463 -40.104179 4.4084392 -11.850552 -14.604692
13110000000 -19.237019 63.355682 -40.34156 -18.412497 -40.003635 -19.463026 -12.325075 -17.443235
13120000000 -19.149578 61.375717 -40.618511 -38.553787 -40.424408 -41.53149 -12.879388 -19.878174
13130000000 -18.888229 59.075336 -40.058228 -59.816257 -40.019089 -62.100048 -13.505883 -22.174603
13140000000 -19.486521 57.543415 -39.837757 -82.383759 -39.819004 -84.013031 -14.213542 -25.030748
13150000000 -19.57863 58.622593 -39.434212 -106.3531 -39.347633 -107.57037 -14.940183 -27.824577
13160000000 -20.10836 60.649254 -39.511269 -130.65526 -39.351097 -131.6312 -15.696791 -29.946623
13170000000 -19.732737 62.534172 -39.325436 -154.106 -39.210884 -156.67461 -16.554401 -30.607691
13180000000 -19.590588 62.690659 -39.659405 -177.41072 -39.62431 -179.36887 -17.485504 -30.055729
13190000000 -19.012522 61.568684 -39.384758 159.72141 -39.341972 158.4001 -18.643019 -29.790546
13200000000 -18.882498 56.980225 -39.166069 136.80232 -39.156914 135.02129 -20.093222 -30.339985
13210000000 -18.901064 53.979553 -39.187153 110.07038 -39.08849 108.92728 -21.621901 -31.169493
13220000000 -19.089001 52.33675 -39.725769 85.692787 -39.701717 83.73597 -23.029123 -31.06308
13230000000 -19.199629 50.052967 -40.330383 64.847054 -40.301281 62.433552 -24.397877 -26.735348
13240000000 -19.670561 50.73222 -40.341934 48.00988 -40.503456 46.357655 -25.433752 -15.524849
13250000000 -19.483919 51.640362 -40.232906 28.284607 -39.949875 27.840412 -28.483957 9.0123882
13260000000 -19.636211 51.813263 -39.22324 4.2863793 -39.110649 3.0454278 -28.000599 35.143734
13270000000 -19.469933 51.805222 -39.270378 -24.93082 -39.087463 -26.561588 -26.659523 56.211678
13280000000 -19.331917 51.520081 -39.8591 -50.082638 -39.724823 -51.610611 -24.980356 68.512978
13290000000 -19.261709 48.318405 -40.618458 -70.659622 -40.475578 -71.539612 -23.45554 73.354446
13300000000 -19.162302 46.453613 -40.533764 -91.99073 -40.212505 -93.01506 -22.16637 73.060837
13310000000 -19.243628 41.814335 -40.835876 -113.22794 -40.490726 -115.15771 -20.739624 71.683678
13320000000 -19.460875 38.971489 -40.161411 -133.90991 -40.090137 -136.76201 -19.355555 70.803047
13330000000 -19.860569 35.240303 -40.43383 -158.46281 -40.18129 -159.30092 -18.228153 70.568329
13340000000 -20.35383 37.063286 -40.308449 179.8726 -40.054195 178.25931 -17.337023 70.744812
13350000000 -20.653345 37.1422 -39.781055 155.0363 -39.531788 152.64339 -16.65947 69.800438
13360000000 -20.591009 40.444347 -39.76429 129.11832 -39.607754 126.46638 -16.112778 66.904701
13370000000 -20.23201 40.496067 -40.466991 103.00658 -40.400925 100.18799 -15.538673 62.565121
13380000000 -19.624308 38.520386 -40.565929 81.192642 -40.574284 79.64769 -14.866045 58.973042
13390000000 -19.892332 31.978178 -40.810909 57.3829 -40.69384 55.425819 -14.072036 56.159412
13400000000 -20.134428 30.298183 -41.024181 33.651943 -40.930363 32.365055 -13.346354 54.12545
13410000000 -20.66321 23.755642 -40.904602 11.254453 -40.868446 9.5687284 -12.868543 52.423798
13420000000 -21.523956 24.390808 -40.889919 -14.070349 -40.86084 -15.920869 -12.612858 50.259163
13430000000 -21.983284 22.190826 -40.925224 -38.525192 -40.970997 -39.592678 -12.453748 47.352764
13440000000 -22.357332 25.017727 -40.979393 -64.98362 -40.979942 -66.384949 -12.30695 43.704544
13450000000 -22.331713 26.539249 -41.349598 -93.027878 -41.363445 -93.855263 -12.102217 39.671551
13460000000 -21.81225 27.312515 -41.754044 -118.16617 -41.762047 -118.93124 -11.809382 36.029724
13470000000 -21.86813 22.708311 -42.491966 -143.87572 -42.343998 -145.05107 -11.589996 33.007713
13480000000 -21.658819 22.730864 -42.863689 -171.28996 -42.999992 -171.05112 -11.470849 30.423681
13490000000 -22.242226 15.640005 -44.118328 167.74683 -43.808189 167.84103 -11.463799 27.915556
13500000000 -22.495378 16.153261 -44.074093 142.54349 -44.025593 141.52254 -11.566785 25.343584
13510000000 -23.261871 10.91246 -44.372471 119.02785 -44.456604 117.93005 -11.668167 22.861305
13520000000 -24.228416 10.791498 -44.594662 89.952957 -44.700626 91.072296 -11.759423 20.51338
13530000000 -25.183743 10.990872 -45.135883 62.609058 -44.819309 64.100189 -11.84835 18.459398
13540000000 -25.222513 15.060311 -45.934662 36.079609 -45.836926 35.50951 -12.021395 16.516193
13550000000 -25.578831 17.488228 -46.562355 9.4259167 -46.647385 11.254155 -12.257301 15.351873
13560000000 -24.145691 20.659023 -47.472282 -16.281004 -46.895428 -12.354849 -12.488069 14.267731
13570000000 -24.651415 13.983367 -47.700294 -42.7379 -46.762642 -42.155933 -12.641752 13.000162
13580000000 -23.95389 11.701357 -48.465229 -70.349007 -48.1134 -71.23674 -12.780073 11.467181
13590000000 -25.299801 3.2747614 -48.279541 -101.80866 -48.398937 -98.666656 -12.880108 10.77638
13600000000 -25.892775 5.0802422 -49.81628 -126.92387 -49.226986 -122.95816 -12.934142 10.438068
13610000000 -27.903877 6.3743358 -49.421429 -153.563 -49.241577 -150.32463 -12.943196 11.004934
13620000000 -28.477148 14.684326 -49.672321 177.74171 -48.903095 -176.86516 -12.984448 11.284044
13630000000 -29.007393 23.761688 -50.229416 149.22232 -48.956547 149.81474 -13.015265 11.702615
13640000000 -27.196199 24.995348 -49.526672 123.71463 -49.290352 120.34288 -13.057611 11.547105
13650000000 -27.389582 20.138964 -49.641628 98.941612 -49.445309 99.167778 -13.052023 11.149071
13660000000 -26.597376 16.350603 -48.111523 70.043846 -48.192207 72.608452 -12.946692 10.126064
13670000000 -27.639145 7.3076749 -47.210892 36.06628 -46.971607 40.374649 -12.760372 9.4646454
13680000000 -27.967764 10.636709 -47.590961 2.5521302 -47.085758 4.3527803 -12.535555 8.3544149
13690000000 -28.601795 8.3318682 -47.729233 -18.300215 -47.198547 -18.400537 -12.306378 7.6926584
13700000000 -29.529078 16.995163 -46.559937 -45.007774 -46.336285 -45.22258 -12.107345 6.4249792
13710000000 -29.418055 25.797832 -45.88723 -73.521996 -45.439209 -72.185768 -12.038694 5.092207
13720000000 -28.234615 27.153599 -45.179558 -102.04338 -45.070824 -102.07059 -11.883513 3.3562934
13730000000 -28.906208 27.975939 -44.924938 -131.19293 -44.544624 -131.20517 -11.74037 0.86734223
13740000000 -27.528835 30.605217 -44.821915 -154.21693 -44.813438 -156.48422 -11.613801 -1.8672594
13750000000 -28.140816 23.944183 -43.771114 -177.1873 -43.928722 -178.38713 -11.533808 -4.2840576
13760000000 -27.492716 21.485645 -42.923363 152.17989 -43.016357 153.1792 -11.513533 -6.4954581
13770000000 -28.332041 12.051713 -42.770176 123.1979 -42.712769 123.00178 -11.617261 -8.9766645
13780000000 -28.766312 9.2695141 -43.328297 96.060616 -42.984962 94.977486 -11.73735 -12.008766
13790000000 -29.819313 8.5932302 -43.168049 75.182419 -43.208118 73.376053 -11.915295 -15.84308
13800000000 -30.273375 11.720471 -42.881329 53.717285 -42.849953 50.741982 -12.062429 -19.646872
13810000000 -29.708717 22.317343 -41.89463 30.811239 -42.014801 30.304823 -12.164104 -22.886179
13820000000 -28.19256 18.787066 -41.06279 0.68429601 -41.053787 1.0433098 -12.267409 -25.444263
13830000000 -27.530746 21.813545 -41.322922 -31.667732 -41.135349 -30.874884 -12.51053 -27.907354
13840000000 -25.895269 10.610331 -42.296734 -53.350056 -42.168938 -55.599522 -12.915657 -30.142147
13850000000 -26.924927 1.8463299 -42.516148 -72.755478 -42.483856 -74.580162 -13.392449 -32.373825
13860000000 -26.873405 -6.4164319 -41.643684 -93.161201 -41.876144 -93.258392 -13.835772 -34.972359
13870000000 -28.753355 -14.474565 -41.302071 -120.32337 -41.216976 -120.33856 -14.254045 -37.753956
13880000000 -30.253937 -15.569584 -41.188068 -143.11523 -41.113316 -144.53378 -14.697843 -39.992195
13890000000 -31.365891 0.47914886 -40.896309 -166.77029 -40.992153 -168.54796 -15.203302 -41.617268
13900000000 -29.463085 -1.8446617 -40.950397 167.30826 -41.029819 166.62021 -15.801853 -42.600586
13910000000 -29.169767 1.3862889 -41.058609 144.98363 -41.123043 145.26108 -16.481298 -43.851555
13920000000 -27.304108 -6.7594218 -40.974651 123.31017 -40.902672 122.43305 -17.149479 -44.80349
13930000000 -27.676685 -17.362822 -40.617176 98.968414 -40.503532 99.243301 -17.675982 -45.490822
13940000000 -27.587793 -26.117203 -40.786465 75.744812 -40.534866 74.704712 -18.133556 -45.095547
13950000000 -28.549635 -36.787918 -40.4744 53.181778 -40.46159 51.676395 -18.49855 -43.32642
13960000000 -29.7997 -45.569805 -40.280254 29.252802 -40.301212 29.455399 -18.889847 -40.919025
13970000000 -30.933517 -47.754887 -40.030529 7.7460151 -39.942322 6.8974957 -19.402349 -37.868931
13980000000 -31.353746 -52.620731 -40.043968 -19.318659 -39.896927 -20.128405 -20.044453 -34.921936
13990000000 -31.393721 -51.318726 -39.97253 -42.396267 -39.93169 -44.207752 -20.630667 -31.95484
14000000000 -30.421793 -58.765903 -39.90081 -63.818974 -39.933723 -65.316277 -21.070438 -30.187002
14010000000 -30.248857 -58.144936 -39.528526 -86.991226 -39.408688 -87.34201 -21.328091 -29.320429
14020000000 -29.454355 -61.019962 -39.017437 -112.92749 -38.933559 -114.34607 -21.403528 -29.585625
14030000000 -28.740705 -63.311741 -39.077988 -139.81673 -38.990658 -140.98621 -21.577959 -29.777927
14040000000 -28.292141 -70.922668 -39.355766 -165.32936 -39.382088 -167.1248 -21.785923 -29.689129
14050000000 -27.838829 -74.996765 -39.225056 171.67049 -39.229988 170.95837 -21.9904 -28.662691
14060000000 -28.325848 -89.758598 -39.236759 146.91847 -39.243778 145.71252 -22.15941 -28.732824
14070000000 -29.627851 -96.119522 -39.318176 120.1001 -39.153484 119.76472 -22.432981 -29.472748
14080000000 -30.105572 -112.35802 -39.507568 95.161484 -39.410305 93.334839 -22.568571 -29.958019
14090000000 -33.164795 -114.85993 -39.833603 71.615364 -39.917061 69.708237 -22.560608 -30.826956
14100000000 -33.330994 -114.44987 -39.734409 45.486977 -39.704578 44.814339 -22.764616 -30.493591
14110000000 -32.761787 -99.447891 -40.226704 19.651463 -40.236927 18.849648 -22.796137 -27.955801
14120000000 -30.015848 -105.68102 -40.250629 -5.297091 -40.185844 -6.2495432 -22.895546 -27.163334
14130000000 -28.36655 -111.69357 -40.932598 -32.477776 -40.804703 -33.723072 -23.426243 -26.959171
14140000000 -26.976194 -124.16034 -41.328625 -57.471291 -41.294228 -59.588558 -24.09861 -28.298384
14150000000 -27.118212 -133.65292 -41.825825 -82.324387 -41.858772 -83.238182 -24.622465 -31.82069
14160000000 -26.761023 -144.23329 -42.490166 -107.72219 -42.214195 -108.52419 -24.925806 -36.218777
14170000000 -28.44084 -155.45287 -43.078899 -133.45113 -42.872509 -135.56186 -24.949335 -39.231827
14180000000 -29.706919 -157.28606 -43.601212 -159.23663 -43.596878 -161.47141 -25.334127 -41.094006
14190000000 -30.719532 -154.10118 -44.789261 172.27014 -44.837738 170.6241 -26.127501 -42.54858
14200000000 -30.258348 -147.64224 -46.125286 154.82747 -46.163971 154.26547 -27.796856 -47.020332
14210000000 -29.250792 -147.06047 -45.949127 132.39076 -45.971867 129.49907 -30.341513 -54.647888
14220000000 -27.969511 -149.84859 -46.975815 103.40254 -46.839306 102.882 -33.051991 -70.629738
14230000000 -27.07505 -156.41292 -47.513206 74.803131 -47.449924 72.4216 -35.362354 -96.443245
14240000000 -26.675911 -160.90839 -50.439285 47.393661 -50.5303 45.119278 -36.350151 -126.92931
14250000000 -26.185074 -167.05872 -51.940075 33.871407 -52.307114 28.891438 -35.264244 -163.65099
14260000000 -26.702204 -174.56395 -51.495827 12.131592 -51.773449 12.011371 -32.014553 168.36943
14270000000 -27.29162 -176.43582 -52.607059 -23.815899 -52.580185 -26.126226 -28.772013 153.14729
14280000000 -28.020819 177.38681 -54.309238 -55.986179 -54.859631 -55.339882 -26.556479 144.3196
14290000000 -28.897938 -179.89294 -60.239372 -63.459099 -59.892914 -71.235878 -25.044876 139.42902
14300000000 -29.884861 -178.31117 -60.636662 -107.35237 -61.416092 -106.28607 -23.801752 133.5708
14310000000 -29.033905 -169.16777 -64.154198 -133.7897 -64.379799 -133.74466 -22.803602 126.16339
14320000000 -28.294992 -172.20071 -63.672939 -174.49626 -65.210846 -172.57414 -21.621109 118.36588
14330000000 -26.7248 -170.84987 -63.51955 98.611725 -65.293236 87.411682 -20.420139 111.82543
14340000000 -26.071018 178.20361 -64.961967 14.928106 -65.387642 17.142193 -19.25499 107.02288
14350000000 -25.835041 173.59999 -64.700867 6.141202 -64.502197 -0.44729996 -18.231197 103.87814
14360000000 -26.616425 161.74013 -62.404289 -5.7432923 -61.993752 -8.074131 -17.431326 101.53568
14370000000 -27.998848 161.61494 -58.055779 -29.908596 -58.409599 -35.133717 -16.791327 98.794907
14380000000 -29.737564 157.84407 -56.083183 -73.555305 -56.247227 -71.887138 -16.405718 95.492935
14390000000 -31.096571 179.18756 -54.319134 -96.341728 -54.459221 -95.137169 -16.047762 91.605934
14400000000 -29.42222 -173.47777 -53.831081 -129.43803 -53.524307 -129.34442 -15.726369 87.432129
14410000000 -27.856155 -173.19604 -54.870907 -150.83031 -54.705242 -153.76915 -15.348248 83.53817
14420000000 -26.556046 -178.88835 -55.857605 -156.82216 -55.968319 -160.62244 -14.936457 79.885658
14430000000 -25.704981 170.92857 -51.289989 -174.30518 -52.026501 -171.45708 -14.584841 76.795547
14440000000 -26.526859 161.33849 -51.256779 157.79022 -50.913132 155.19652 -14.276813 73.659019
14450000000 -27.07279 159.59418 -49.519012 127.35468 -50.1395 127.14804 -14.08056 70.638367
14460000000 -28.939201 157.81465 -50.225391 97.5569 -50.010845 99.780685 -13.947238 67.561249
14470000000 -29.855553 170.90991 -50.93874 80.520897 -51.024246 79.937424 -13.823829 65.549316
14480000000 -28.846828 -172.57135 -50.222824 69.813522 -49.922497 68.733498 -13.678714 63.646606
14490000000 -27.344126 -173.92641 -48.867554 39.686413 -49.132507 39.866142 -13.643674 62.109348
14500000000 -26.129044 -171.75493 -49.457306 19.843191 -48.784088 19.753059 -13.715671 60.334156
14510000000 -25.315218 178.22232 -47.594734 0.17548382 -47.586391 -3.9561818 -13.929998 58.760857
14520000000 -25.857088 175.8194 -47.930866 -31.653566 -47.569305 -33.202484 -14.038262 56.692413
14530000000 -25.443148 166.22845 -47.669601 -47.852837 -48.073093 -51.768688 -14.042821 54.761395
14540000000 -27.219015 167.79594 -48.084026 -71.699409 -48.056133 -72.029015 -13.868217 52.94154
14550000000 -26.856415 169.76131 -47.05484 -85.610565 -46.927265 -88.12265 -13.701982 51.609116
14560000000 -27.733253 177.72826 -45.559143 -112.35123 -45.409058 -113.64201 -13.605974 51.337948
14570000000 -26.031147 -177.45337 -45.957142 -143.46645 -45.347229 -147.31007 -13.585701 51.579342
14580000000 -24.958008 -173.20656 -46.188892 -163.87953 -46.246208 -166.50742 -13.522647 51.737057
14590000000 -23.587387 -179.89777 -46.314075 174.62508 -46.007442 169.34123 -13.529762 51.106445
14600000000 -23.221195 178.64812 -45.925133 153.69308 -46.299641 151.08 -13.47898 50.553967
14610000000 -22.701103 168.91592 -45.198807 133.86214 -45.1022 130.97273 -13.420356 49.841991
14620000000 -23.817766 166.07265 -44.664932 106.88111 -44.737545 103.23464 -13.299705 49.528782
14630000000 -23.92098 163.55721 -44.593201 83.317215 -44.615795 79.987434 -13.206845 48.445461
14640000000 -25.057816 168.11761 -43.792511 55.566536 -43.970482 52.007004 -13.176529 47.299198
14650000000 -24.497351 175.70557 -44.971382 26.961222 -45.092712 24.21102 -13.135171 45.639378
14660000000 -23.136251 177.71971 -45.637844 6.1611319 -45.892033 3.3714609 -13.024118 44.504395
14670000000 -22.251904 175.75624 -45.449207 -7.6238666 -45.883186 -11.725163 -12.735269 42.934547
14680000000 -21.015947 170.3965 -44.268147 -33.25795 -45.079491 -33.816307 -12.485129 41.489361
14690000000 -20.930563 163.32921 -44.127346 -60.06913 -44.388714 -60.783527 -12.348872 39.9678
14700000000 -21.028704 158.19711 -44.932709 -91.541603 -45.120724 -93.355827 -12.350429 39.363895
14710000000 -21.733957 154.31631 -45.894669 -114.13182 -46.304008 -114.65892 -12.332037 38.85535
14720000000 -22.579439 154.86142 -47.142479 -131.10074 -47.315178 -133.5584 -12.357621 37.647156
14730000000 -22.7342 160.80228 -46.206257 -150.06894 -46.729996 -147.71552 -12.493839 35.7206
14740000000 -21.953276 162.29022 -45.816399 -176.90108 -45.908978 -174.47739 -12.708754 33.916843
14750000000 -21.388004 162.39325 -46.541916 153.76437 -46.338181 154.6985 -12.837314 32.365158
14760000000 -20.384832 158.57475 -47.670265 126.26702 -47.946075 128.39627 -12.845022 30.148851
14770000000 -20.155441 152.82196 -49.23888 112.60394 -49.21833 113.95937 -12.859685 27.856176
14780000000 -19.776392 147.31664 -49.768101 99.01236 -49.547596 99.689713 -12.930473 26.375202
14790000000 -20.286917 141.94585 -48.236469 78.553879 -48.160683 77.440247 -13.059063 26.21726
14800000000 -20.603304 141.68959 -49.493465 45.34864 -49.180931 44.978409 -13.13066 26.413397
14810000000 -21.107426 141.38951 -50.426037 27.331316 -50.036289 30.815887 -13.260422 26.040033
14820000000 -21.208504 144.03925 -52.245205 4.4660192 -51.159145 0.81773376 -13.497153 25.335478
14830000000 -21.006958 146.45726 -53.142715 -1.9093801 -52.836861 -7.1227436 -13.732589 25.09149
14840000000 -20.46851 145.41606 -53.673195 -25.572004 -53.145538 -22.273535 -13.903303 25.051357
14850000000 -20.254353 142.56721 -54.19931 -48.088745 -52.963547 -48.929703 -14.066625 24.942846
14860000000 -19.814161 138.54817 -55.669762 -43.932922 -54.598892 -56.254448 -14.3109 25.112812
14870000000 -20.109385 132.33293 -53.383774 -66.338402 -53.984699 -76.624809 -14.634139 24.602987
14880000000 -20.248545 127.45014 -53.945 -85.978806 -55.320042 -93.28952 -14.899819 24.251829
14890000000 -20.791758 124.0538 -54.141312 -107.03536 -54.272045 -108.78257 -14.944593 23.213287
14900000000 -21.414457 122.40228 -56.137936 -117.24484 -55.948967 -124.9983 -14.83845 22.54707
14910000000 -21.814024 127.26368 -53.055176 -119.10932 -55.247837 -129.59322 -14.655379 22.888359
14920000000 -21.339825 127.99195 -52.706211 -145.11107 -53.968575 -137.53894 -14.638591 24.414824
14930000000 -21.052252 130.2756 -51.991489 -174.37697 -52.318001 -170.55888 -14.778633 26.75811
14940000000 -20.444595 126.61378 -54.012844 163.12601 -54.130985 162.54077 -15.066566 29.044693
14950000000 -20.439157 124.46011 -55.092663 159.00427 -56.578018 155.98415 -15.329329 30.326822
14960000000 -20.476675 117.96371 -51.376041 154.57681 -52.018185 163.14371 -15.523938 30.317564
14970000000 -21.456741 115.11282 -50.15691 119.97454 -50.025452 128.32977 -15.613732 30.659849
14980000000 -22.267202 111.05918 -50.952003 97.399536 -50.112701 101.56398 -15.607094 31.061676
14990000000 -23.423033 116.25909 -51.077209 76.031143 -50.419682 77.128181 -15.671694 32.157925
15000000000 -23.36816 118.17493 -49.72794 57.369362 -49.934586 56.100964 -15.750838 33.452667
15010000000 -23.258051 121.54882 -51.694466 34.627735 -51.639511 41.88744 -15.761285 33.981441
15020000000 -22.703794 119.40168 -51.081978 26.323668 -49.96611 32.382225 -15.634146 33.885487
15030000000 -22.542772 118.44141 -49.497784 12.417236 -47.927525 8.3631277 -15.279735 33.764126
15040000000 -22.338362 113.39648 -48.466339 -13.495759 -47.866215 -18.172394 -14.844426 34.520779
15050000000 -22.916542 111.89241 -47.731491 -36.049812 -47.369598 -39.08622 -14.524088 35.901554
15060000000 -23.277935 110.76974 -48.018864 -59.034138 -47.556675 -60.077892 -14.412454 38.16748
15070000000 -24.382616 111.67086 -47.116333 -78.853958 -46.501595 -83.294968 -14.414751 40.18404
15080000000 -24.867119 117.32909 -47.815502 -104.79028 -47.214466 -110.51736 -14.409363 40.511822
15090000000 -24.795454 121.35969 -46.980736 -121.22635 -47.008667 -129.29402 -14.462158 39.145607
15100000000 -24.788931 123.89059 -47.527184 -141.40529 -47.483112 -146.84416 -14.454323 37.506683
15110000000 -24.506727 125.402 -46.549995 -155.92073 -46.859982 -161.27638 -14.338943 36.646233
15120000000 -24.335674 125.92153 -45.113487 -179.93115 -45.358231 176.01129 -14.109888 36.192345
15130000000 -23.857191 122.14031 -44.806618 152.40816 -45.26897 148.33113 -13.850204 35.407078
15140000000 -24.10994 120.0173 -45.589294 128.94199 -46.011513 124.35877 -13.704174 33.912903
15150000000 -24.267717 117.83871 -44.99828 117.81195 -45.46019 114.32522 -13.659467 32.704674
15160000000 -25.017088 119.15071 -43.488842 85.877396 -44.27705 84.607521 -13.596548 32.545044
15170000000 -25.251188 123.37796 -44.35442 59.099632 -44.818314 58.402702 -13.442127 32.980373
15180000000 -24.950624 128.61926 -45.945244 37.904095 -46.078014 39.105667 -13.311185 32.926174
15190000000 -24.192421 133.35092 -45.697266 31.182369 -46.12582 28.573418 -13.351192 32.389179
15200000000 -23.337873 133.42236 -44.080254 11.449838 -44.841778 11.701258 -13.548591 31.131107
15210000000 -22.483263 129.16458 -43.005051 -13.600797 -43.176296 -9.149868 -13.894779 30.208899
15220000000 -22.832956 123.93323 -42.982243 -41.705921 -42.666332 -38.743183 -14.090345 29.749405
15230000000 -22.997847 120.98078 -43.496933 -65.799889 -43.409534 -65.044868 -14.120896 28.650949
15240000000 -23.761398 119.35125 -43.672768 -81.993607 -43.65173 -82.37645 -14.09986 27.010687
15250000000 -24.314039 122.42733 -43.381107 -102.70835 -43.340752 -101.29287 -14.147727 25.060413
15260000000 -23.962551 126.6936 -42.709816 -122.49113 -42.46722 -122.09576 -14.294879 24.416761
15270000000 -23.502722 127.99217 -42.575665 -148.35812 -42.159225 -146.83611 -14.27487 25.611923
15280000000 -22.583496 125.75816 -42.808445 -165.98412 -42.287186 -168.02682 -14.111123 26.942238
15290000000 -22.34341 121.83256 -42.482037 173.17241 -42.157619 170.95284 -14.057642 27.993183
15300000000 -22.039207 117.7017 -41.829327 153.63441 -41.652233 150.95952 -14.275359 28.538021
15310000000 -22.484634 114.01579 -40.749805 127.54342 -40.524147 125.93951 -14.661479 29.677893
15320000000 -22.649797 112.40736 -41.175083 100.0863 -40.93832 97.714256 -14.952024 31.010466
15330000000 -23.17893 113.43185 -41.648933 79.261009 -41.243176 76.197067 -15.02329 31.091663
15340000000 -22.862572 111.48854 -42.121181 61.011124 -42.07016 57.377995 -14.961134 30.417715
15350000000 -23.650715 112.69388 -41.271023 44.07999 -41.349247 41.097118 -14.904503 29.520796
15360000000 -23.200991 110.14601 -40.401829 21.909811 -40.395153 19.953897 -14.986869 29.37023
15370000000 -23.994797 111.4871 -39.770607 -2.6415653 -39.728397 -5.046773 -15.105391 30.094006
15380000000 -23.137732 110.30248 -39.687824 -29.932301 -39.660492 -32.813034 -15.040626 30.761232
15390000000 -23.411705 107.1753 -40.308041 -53.759907 -40.471119 -57.473541 -14.747302 30.454468
15400000000 -23.070478 103.78472 -40.430141 -73.948509 -40.868397 -75.635612 -14.467385 29.614925
15410000000 -23.284266 98.237526 -40.386127 -91.872414 -40.400963 -92.365768 -14.314483 30.156132
15420000000 -23.922806 91.939461 -39.739445 -112.96417 -39.733162 -114.82014 -14.282997 32.009102
15430000000 -24.885429 91.51844 -39.367077 -137.26248 -39.498932 -139.80313 -14.306488 34.018593
15440000000 -25.795012 89.939445 -39.390335 -161.20766 -39.612202 -162.67278 -14.474607 34.023682
15450000000 -26.81089 96.412292 -39.556896 176.24507 -39.741718 175.81688 -14.768961 32.623859
15460000000 -26.572414 99.118774 -39.458199 155.56258 -39.405933 155.06969 -15.010966 30.83086
15470000000 -26.180653 101.65758 -39.020226 134.54576 -39.079502 133.06784 -15.018636 29.655397
15480000000 -25.498732 94.704918 -38.564075 111.17085 -38.557846 109.5892 -14.844506 29.03607
15490000000 -25.883383 87.39241 -38.603218 84.642166 -38.741573 84.122688 -14.629939 28.89282
15500000000 -26.77714 76.935806 -38.926876 62.28027 -39.019073 62.662117 -14.605646 28.303478
15510000000 -28.327917 72.735985 -39.244434 41.331078 -39.117764 40.444832 -14.726704 28.437305
15520000000 -30.631632 66.146782 -38.90765 22.189062 -38.887699 21.194685 -14.818721 29.22851
15530000000 -32.271053 81.923233 -38.548939 -0.17071596 -38.410583 -1.614732 -14.769446 30.532986
15540000000 -33.223072 79.074806 -38.109631 -23.419346 -38.206017 -24.803423 -14.690332 31.998358
15550000000 -33.222363 98.300674 -37.953156 -47.941708 -37.878082 -48.696865 -14.666787 32.987141
15560000000 -32.964664 87.807884 -37.90247 -73.56337 -37.683765 -75.275513 -14.840498 33.554401
15570000000 -33.986168 91.2798 -38.329174 -98.560371 -38.27132 -100.56516 -15.198963 33.791798
15580000000 -35.859444 73.42157 -38.973915 -119.06002 -38.900356 -121.16334 -15.508779 34.738121
15590000000 -38.717018 87.624161 -38.646248 -139.04683 -38.590389 -140.1842 -15.507488 34.679386
15600000000 -43.025463 61.500969 -38.585972 -162.12163 -38.370312 -163.84419 -15.388895 33.066929
15610000000 -51.900803 109.89289 -38.309875 175.11035 -38.141743 172.11391 -15.334784 31.323961
15620000000 -49.670013 -51.065071 -38.271435 150.19461 -38.326199 146.97037 -15.278148 31.020185
15630000000 -39.333099 -120.79462 -38.575424 126.41865 -38.774277 124.0796 -15.062201 31.717859
15640000000 -37.255844 -123.51671 -38.919437 104.96542 -38.848839 103.86844 -14.849937 33.101921
15650000000 -33.748699 -141.91463 -38.922882 82.965073 -38.894516 81.21756 -14.662033 34.40057
15660000000 -34.214233 -151.47501 -38.842037 60.248409 -38.801838 57.290562 -14.732029 35.151466
15670000000 -32.701118 -158.82005 -39.060692 37.249626 -39.234737 34.408375 -14.957629 36.045681
15680000000 -34.925282 -157.97731 -39.050949 11.775591 -39.346809 10.015792 -15.229136 36.516884
15690000000 -34.316944 -144.99316 -39.913383 -10.203128 -39.820972 -11.876997 -15.360538 36.528996
15700000000 -31.980145 -126.04983 -40.209965 -30.297747 -40.380524 -32.725578 -15.428941 36.126373
15710000000 -28.987579 -126.55164 -40.034809 -49.057751 -40.309647 -51.472168 -15.40449 35.862453
15720000000 -26.552244 -134.35143 -39.7855 -72.974335 -39.974152 -73.482849 -15.464321 35.430912
15730000000 -25.801743 -143.45836 -39.872799 -97.467094 -39.914436 -98.185806 -15.633224 35.558044
15740000000 -25.533005 -151.37711 -40.25843 -121.6747 -40.250622 -121.6045 -15.69458 35.822063
15750000000 -26.199577 -157.21382 -40.969166 -145.23492 -41.068439 -146.79062 -15.527799 36.327087
15760000000 -26.934958 -155.31351 -41.574436 -161.65215 -41.901772 -163.108 -15.197709 36.836811
15770000000 -27.287149 -150.26318 -41.429192 178.73294 -41.463127 179.62045 -14.821214 38.732998
15780000000 -26.327929 -143.1122 -41.237217 155.40591 -41.139561 154.59361 -14.594356 41.003159
15790000000 -25.146749 -142.65462 -41.664555 132.4006 -41.56707 132.84445 -14.609114 44.096115
15800000000 -23.644663 -143.77951 -41.838737 111.66163 -41.886879 110.09489 -14.721201 46.435074
15810000000 -22.951054 -150.30872 -41.968365 91.467331 -42.007893 92.355377 -14.929324 47.132629
15820000000 -22.654669 -154.81956 -41.914658 69.211403 -41.494007 68.22229 -15.04373 46.281792
15830000000 -22.771744 -157.44579 -42.173538 48.590763 -41.911785 45.272907 -14.965251 44.659157
15840000000 -22.905153 -156.28818 -42.154972 24.571201 -42.250359 21.624163 -14.69333 43.165321
15850000000 -22.769241 -156.89125 -42.55151 2.5304034 -42.786209 1.702057 -14.340226 42.019894
15860000000 -22.900381 -153.54774 -43.414139 -16.217487 -43.147797 -16.810005 -13.999558 41.560989
15870000000 -22.469713 -153.7901 -43.108543 -35.249626 -43.017883 -36.816273 -13.694057 41.344063
15880000000 -22.466677 -150.77335 -43.13876 -54.494553 -42.854298 -57.370193 -13.415053 41.259686
15890000000 -21.640312 -151.55025 -42.799236 -77.65062 -42.862942 -81.091492 -13.143465 41.440857
15900000000 -21.410156 -153.06673 -42.734413 -99.547691 -42.757084 -102.94309 -12.879401 41.741425
15910000000 -20.832451 -154.53676 -42.899002 -123.25933 -43.260632 -126.59331 -12.710501 41.708702
15920000000 -20.484152 -157.15067 -43.561939 -145.73016 -43.903873 -146.59779 -12.649865 41.707825
15930000000 -20.283966 -159.76378 -43.718281 -164.71709 -43.544456 -165.72182 -12.66463 40.943142
15940000000 -20.527514 -161.20602 -43.815281 174.56212 -43.729561 171.40335 -12.741488 39.706554
15950000000 -20.64225 -159.37057 -43.357807 153.32407 -43.606609 150.0517 -12.783051 37.550117
15960000000 -20.600981 -155.76973 -43.653522 126.8616 -43.942577 126.33286 -12.791603 34.930363
15970000000 -19.910252 -151.72455 -44.225151 107.2641 -44.103149 107.15693 -12.693458 32.202152
15980000000 -19.440878 -151.89574 -44.187004 88.800995 -44.256519 85.192657 -12.489169 29.550888
15990000000 -18.582418 -151.80716 -43.87088 65.354263 -44.090046 63.909916 -12.260498 27.759771
16000000000 -18.525318 -156.14543 -43.652542 38.632347 -44.248413 37.76054 -12.037865 26.947618
16010000000 -18.269608 -156.69673 -45.356403 14.132616 -45.196335 17.091648 -11.936873 26.588129
16020000000 -18.451365 -159.91199 -45.967125 -0.66925633 -45.490925 -0.46887627 -11.999454 26.41074
16030000000 -18.578938 -157.39677 -45.812664 -17.645525 -46.044254 -21.410528 -12.17446 25.459742
16040000000 -18.277628 -156.73192 -45.618675 -37.328903 -45.973698 -37.546696 -12.405124 23.621725
16050000000 -17.775949 -154.52069 -44.996216 -61.805237 -44.788078 -60.294724 -12.668422 20.819109
16060000000 -17.179201 -155.19392 -45.292496 -86.470581 -45.01413 -85.609497 -12.881075 18.255447
16070000000 -16.703619 -155.42972 -46.235054 -114.01269 -45.87711 -114.89394 -12.986694 15.79819
16080000000 -16.339684 -156.96594 -46.978233 -129.23026 -46.906147 -130.43848 -13.125573 13.421974
16090000000 -16.046898 -156.97937 -47.532143 -146.91481 -46.863216 -147.77097 -13.279467 10.872927
16100000000 -15.864839 -158.69989 -46.861591 -164.3383 -46.40649 -167.32988 -13.460106 8.362649
16110000000 -15.669263 -158.7072 -46.507763 171.75163 -46.195213 169.61287 -13.528259 6.7308903
16120000000 -15.550257 -159.55928 -46.886337 147.5663 -46.440994 143.41205 -13.518655 6.1362009
16130000000 -15.194708 -159.21297 -47.704128 126.17558 -47.450893 122.24625 -13.605529 6.5271916
16140000000 -15.081115 -160.14879 -48.009396 108.83849 -48.063408 103.14021 -13.868945 8.0465994
16150000000 -14.64411 -160.25725 -48.107056 90.326576 -48.044998 87.847794 -14.316586 8.8504591
16160000000 -14.306472 -161.13579 -47.598743 66.157516 -47.244312 62.69521 -14.928233 8.1369781
16170000000 -13.825077 -161.71638 -47.802341 39.701672 -47.840069 37.570744 -15.561007 5.9596839
16180000000 -13.477982 -163.23152 -49.020683 20.427572 -48.859985 13.182952 -15.996557 2.8010123
16190000000 -13.1165 -164.72336 -49.906719 3.248481 -50.308308 -0.30693778 -16.18832 0.4596217
16200000000 -13.074648 -166.01958 -49.862698 -14.847574 -50.306396 -19.379255 -16.266226 -1.0770757
16210000000 -12.796736 -166.81644 -50.040092 -30.41526 -50.260151 -30.267807 -16.396444 -1.6220096
16220000000 -12.849744 -166.75668 -49.181004 -51.297733 -48.995842 -53.195797 -16.551664 -1.9073999
16230000000 -12.475451 -167.09889 -49.09251 -76.520248 -49.623055 -79.121178 -16.6987 -2.0412521
16240000000 -12.358955 -166.97755 -49.416172 -100.5022 -49.866215 -102.20905 -16.753227 -1.9273252
16250000000 -11.88442 -168.62849 -50.306049 -119.59628 -50.732697 -118.55438 -16.831854 -0.84996104
16260000000 -11.710633 -170.12866 -51.236084 -142.45653 -51.253338 -138.44524 -17.033424 1.5002295
16270000000 -11.314954 -172.21051 -50.978767 -150.38522 -50.78598 -149.66328 -17.461842 3.676122
16280000000 -11.22135 -174.26212 -50.866943 -174.53207 -50.844143 -175.94771 -18.037992 5.0187263
16290000000 -10.980436 -175.50722 -50.655369 172.34784 -50.390221 172.48131 -18.620728 3.9090822
16300000000 -10.900355 -176.48216 -49.623169 143.69606 -49.866138 145.50676 -19.15465 0.5337978
16310000000 -10.595694 -176.99229 -50.32402 123.91454 -49.814602 120.90606 -19.351587 -3.2929406
16320000000 -10.458866 -177.63385 -51.194347 102.36813 -51.046547 100.34337 -19.37067 -6.5795784
16330000000 -10.172891 -178.2253 -50.659889 88.849922 -50.291611 86.447243 -19.360743 -8.6648703
16340000000 -10.079041 -179.26266 -49.730385 63.011528 -49.185421 59.945976 -19.42638 -9.8461456
16350000000 -9.8192005 -179.89082 -50.413548 36.245953 -50.475258 32.905926 -19.421783 -10.288829
16360000000 -9.6408358 178.45079 -50.785343 12.759305 -50.864845 14.797948 -19.53652 -10.758927
16370000000 -9.4564266 177.01605 -52.288754 -2.0470958 -51.714375 -2.7647376 -19.822762 -10.301799
16380000000 -9.3000011 175.19469 -51.912983 -15.383456 -51.982521 -21.610847 -20.398312 -9.6046467
16390000000 -9.1545944 173.28481 -51.18478 -30.921093 -51.355534 -33.982727 -21.367887 -9.9631538
16400000000 -9.0963469 171.90108 -49.846169 -59.308365 -49.771729 -61.37772 -22.515821 -12.991879
16410000000 -8.9844494 171.09068 -50.080357 -84.719711 -50.13652 -89.276718 -23.696531 -20.359661
16420000000 -8.8416204 170.88687 -51.413509 -112.55847 -51.770905 -113.65036 -24.610224 -28.920271
16430000000 -8.5740194 170.43971 -52.715816 -129.27245 -52.771969 -127.70431 -25.299158 -34.572903
16440000000 -8.334775 169.98019 -52.452507 -139.4838 -52.126747 -140.59755 -25.948187 -38.199963
16450000000 -8.04706 168.51653 -51.451424 -160.40771 -51.357597 -162.17142 -26.953474 -41.996727
16460000000 -7.9128842 166.94693 -52.147236 177.62766 -52.295784 174.51643 -28.318577 -47.81353
16470000000 -7.8515887 165.16486 -51.631222 157.45491 -51.65995 158.97028 -29.960011 -53.209244
16480000000 -7.8491654 164.09996 -51.312649 136.74951 -51.066753 136.39258 -31.835268 -52.970325
16490000000 -7.8036222 162.881 -50.308212 119.08553 -50.530579 115.43868 -35.044506 -43.114311
16500000000 -7.735013 162.76761 -50.261353 87.857132 -50.056316 87.234718 -41.673359 -5.2332959
16510000000 -7.5029974 161.65535 -50.952816 62.686768 -50.757275 60.293228 -38.621822 87.597336
16520000000 -7.3274364 161.20525 -52.545044 38.787872 -52.44643 37.467991 -33.259705 116.60442
16530000000 -7.0355887 159.53749 -52.801491 28.539869 -52.227093 25.832966 -30.811689 131.74736
16540000000 -6.9165807 158.58769 -52.372665 14.48015 -52.538284 8.7316275 -29.823059 142.5874
16550000000 -6.7369695 157.14912 -50.717682 -8.2991037 -50.53891 -14.102328 -29.648272 142.76501
16560000000 -6.6730742 156.46017 -50.696812 -36.020725 -51.0005 -37.711666 -29.57546 136.46483
16570000000 -6.533124 155.4297 -50.37418 -62.007961 -50.428921 -66.139076 -28.803194 126.32278
16580000000 -6.4581146 154.79439 -51.189213 -89.743202 -51.139301 -92.55806 -27.850313 121.21767
16590000000 -6.3299904 153.66409 -51.64003 -114.01896 -51.655045 -116.03403 -27.044508 120.03887
16600000000 -6.2403064 152.8792 -52.703907 -134.02776 -52.289146 -138.6922 -26.29623 121.03287
16610000000 -6.0922308 151.78098 -52.693707 -152.16257 -53.164455 -157.40253 -25.393625 118.20336
16620000000 -5.9256477 151.0045 -52.474918 -178.03928 -53.468086 -177.92621 -24.349928 115.1003
16630000000 -5.705502 149.58577 -53.140301 161.00468 -53.192047 161.85863 -23.12475 114.30169
16640000000 -5.5297794 148.43552 -53.035076 135.29193 -53.058605 134.93774 -21.937931 117.12695
16650000000 -5.3302841 146.91647 -53.904392 116.13379 -54.036037 116.30109 -21.044933 120.52395
16660000000 -5.22334 145.76384 -53.490776 91.697357 -54.087673 90.707321 -20.614708 124.29024
16670000000 -5.1009207 144.73447 -54.167515 62.741756 -54.223545 65.369308 -20.465811 125.51099
16680000000 -5.0063305 144.01041 -55.358353 37.452442 -54.925423 38.709991 -20.46427 123.9046
16690000000 -4.8560534 143.44427 -56.2178 16.103056 -55.702095 8.9108362 -20.32723 119.67539
16700000000 -4.6792774 142.6414 -57.415798 -19.449995 -58.747253 -20.254074 -19.926355 115.52374
16710000000 -4.4718285 141.41072 -61.055244 -37.227829 -60.484703 -23.542048 -19.17403 111.6567
16720000000 -4.3171458 139.79442 -62.441166 -56.266277 -61.10017 -55.400902 -18.426193 108.87576
16730000000 -4.1710281 138.22208 -64.093903 -61.083843 -62.41333 -72.625511 -17.756674 106.97054
16740000000 -4.0650964 136.68436 -63.070259 -74.297859 -62.837887 -83.002144 -17.239695 105.25081
16750000000 -3.9624987 135.43921 -63.310055 -119.60508 -64.475632 -130.18658 -16.828466 104.07525
16760000000 -3.8132262 134.39096 -78.607048 -133.17992 -74.264084 -82.850662 -16.582804 103.17532
16770000000 -3.6517849 133.25121 -82.770912 -113.46288 -73.655891 -137.21301 -16.446413 102.56944
16780000000 -3.4874647 132.08237 -67.459244 -38.327507 -74.2127 -59.505627 -16.398043 101.20228
16790000000 -3.3369141 130.73865 -67.577164 -97.056091 -71.454742 -57.778503 -16.540352 98.997688
16800000000 -3.2057471 129.3717 -69.526352 -89.816742 -65.333038 -93.552155 -16.786497 95.806084
16810000000 -3.0930159 127.92011 -63.383747 -96.750259 -63.657593 -101.39255 -17.017492 92.042694
16820000000 -2.9919567 126.47591 -58.560089 -129.48621 -60.181293 -136.12509 -17.148487 87.695038
16830000000 -2.8675575 125.00294 -59.03083 -170.44263 -60.11948 -163.00722 -17.111326 83.26722
16840000000 -2.7455442 123.45645 -59.550232 173.97012 -59.142826 -179.8313 -16.968552 79.299545
16850000000 -2.6184561 121.85606 -60.070114 151.41959 -58.769802 149.69888 -16.799425 77.049667
16860000000 -2.5053666 120.29662 -58.222538 143.84029 -59.133465 134.90382 -16.639202 76.197563
16870000000 -2.3851621 118.83385 -56.02478 112.47087 -56.50386 111.5786 -16.638924 77.252708
16880000000 -2.2767553 117.48849 -56.231495 85.790672 -56.214088 88.170815 -16.840441 78.529694
16890000000 -2.1515903 116.18242 -54.955208 56.965031 -54.736748 59.014263 -17.446682 79.957283
16900000000 -2.0421383 114.92313 -55.841579 31.332844 -55.103226 24.561541 -18.212114 81.089394
16910000000 -1.9231515 113.45092 -57.055889 4.0469809 -56.586319 0.71404135 -19.028 81.367828
16920000000 -1.8459792 111.93967 -57.162987 -8.3682909 -57.5877 -12.906503 -19.745966 80.119995
16930000000 -1.7610441 110.3592 -56.476845 -28.449781 -56.495472 -23.916142 -20.322159 79.344292
16940000000 -1.7015663 108.7403 -55.807262 -50.144882 -55.420601 -49.947735 -20.589464 79.880493
16950000000 -1.6184123 107.12013 -54.880871 -71.980408 -54.879704 -74.346329 -20.658833 81.84436
16960000000 -1.543798 105.54933 -54.52898 -102.63391 -54.649067 -105.44228 -20.470596 84.473106
16970000000 -1.4343828 103.97069 -55.349876 -131.90926 -55.844845 -131.55305 -20.165167 87.999588
16980000000 -1.3465652 102.32053 -56.207047 -152.3643 -56.679943 -151.88676 -19.753239 92.249153
16990000000 -1.2459818 100.75372 -57.070904 -167.34488 -56.458458 -170.36806 -19.162609 97.406624
17000000000 -1.1708605 99.210342 -57.232922 175.75304 -56.828747 171.92691 -18.520662 101.71807
