!Keysight Technologies,P9374A,MY57211807,A.19.30.04
!Date: Friday, May 08, 2026 14:09:53
!Correction: S11(C  2-Port  ) 
!S21(C  2-Port  ) 
!S12(C  2-Port  ) 
!S22(C  2-Port  ) 
!S2P File: Measurements: S11, S21, S12, S22:
# Hz S  dB   R 50
13000000000 -19.928734 66.910492 -48.488907 162.52702 -49.349724 156.99979 -9.003273 22.350527
13010000000 -18.855831 68.899551 -49.37735 144.08847 -51.012691 156.69539 -9.0409727 18.01062
13020000000 -18.217957 66.12291 -50.717648 144.82628 -49.466496 152.10658 -9.1032848 13.809234
13030000000 -17.991062 61.162235 -47.440758 130.81747 -46.994808 129.27275 -9.2015448 9.608057
13040000000 -18.598478 55.759552 -45.863735 104.78269 -46.169369 106.93356 -9.35954 5.6297779
13050000000 -19.653606 52.750267 -47.713703 71.481773 -47.165245 78.46772 -9.6214743 2.0001938
13060000000 -20.82531 54.640629 -48.94157 67.202942 -47.38295 65.613777 -9.9601088 -1.5277288
13070000000 -21.432726 61.291344 -48.146042 59.623611 -47.237041 54.909142 -10.329062 -5.1730161
13080000000 -21.063915 67.409302 -45.600765 44.149334 -45.150665 41.860455 -10.710957 -9.4150343
13090000000 -20.238699 69.305435 -43.905865 19.85708 -43.172215 14.321497 -11.119271 -14.127723
13100000000 -19.475033 69.404625 -43.077682 -10.689804 -42.836338 -16.722553 -11.552461 -18.100948
13110000000 -18.726288 66.52227 -43.634689 -35.438591 -43.285442 -43.524826 -12.023084 -21.082439
13120000000 -18.386007 61.866344 -43.621784 -54.801247 -44.307484 -62.250824 -12.503575 -23.728409
13130000000 -18.355354 56.655521 -43.31974 -73.532837 -43.987278 -76.329575 -13.068318 -26.70948
13140000000 -19.107994 52.226658 -42.127033 -94.112007 -42.624176 -94.701958 -13.707137 -30.269592
13150000000 -20.149321 51.373581 -41.718388 -119.98162 -41.950798 -122.88271 -14.369734 -34.094353
13160000000 -21.373327 57.997375 -41.507965 -145.00887 -41.992859 -146.49385 -15.067432 -36.88134
13170000000 -21.202967 66.658173 -41.499237 -169.55894 -42.194122 -169.04646 -15.843129 -39.020252
13180000000 -20.145578 71.8843 -41.971481 168.87526 -42.193043 173.10217 -16.839602 -40.087517
13190000000 -18.62392 69.788704 -41.75428 149.53522 -41.376225 152.02379 -17.942217 -41.504761
13200000000 -17.832373 61.215435 -40.751167 128.80803 -40.227406 126.82658 -19.288292 -45.022091
13210000000 -17.926687 52.301304 -40.280029 99.953362 -40.557636 98.782135 -20.691051 -49.900204
13220000000 -18.449772 47.30241 -40.966389 74.754196 -40.589931 75.429146 -22.076632 -53.87059
13230000000 -19.529926 43.595974 -41.827072 58.470703 -41.331676 54.018425 -23.567982 -54.723438
13240000000 -20.28598 47.225529 -41.128487 39.505966 -41.147514 35.796104 -25.463593 -50.243328
13250000000 -20.674328 51.281521 -40.358158 19.301722 -40.665508 15.716783 -28.137142 -40.453259
13260000000 -20.547493 56.803577 -39.634693 -7.6956253 -39.749676 -9.2412205 -32.362778 -21.575378
13270000000 -19.902752 58.891933 -39.511875 -32.173416 -39.793812 -34.473286 -37.025146 29.308912
13280000000 -19.09561 58.656387 -39.501656 -57.419147 -39.747917 -59.788784 -33.11338 82.640869
13290000000 -18.532482 53.794258 -39.368042 -80.825439 -39.793335 -82.055618 -28.818571 91.406052
13300000000 -18.110861 47.844681 -39.507725 -104.68783 -39.700527 -105.2602 -26.365629 87.586739
13310000000 -18.353979 38.208088 -39.466835 -130.21231 -39.824486 -129.68417 -24.272858 84.572174
13320000000 -19.170773 31.569677 -39.609558 -152.61862 -39.983295 -150.74962 -22.318754 83.47245
13330000000 -20.671288 27.476297 -39.184784 -176.62669 -39.199619 -174.5573 -20.556936 83.386505
13340000000 -22.229691 36.690525 -39.405651 157.89792 -39.536125 159.40909 -19.237711 82.500603
13350000000 -21.950119 46.95631 -39.431927 130.61491 -39.403339 134.55318 -18.387949 80.145325
13360000000 -20.482935 52.384384 -39.939278 107.43001 -39.458534 111.0291 -17.770155 76.450027
13370000000 -19.073389 47.593243 -40.376644 84.237564 -39.735107 85.89724 -17.129059 71.723579
13380000000 -18.550056 39.82983 -40.097092 62.359783 -39.494652 62.197971 -16.212831 66.906288
13390000000 -18.979086 29.666016 -40.357994 31.554976 -39.757748 33.227798 -15.274698 63.172558
13400000000 -19.925669 25.67738 -41.259514 7.4717078 -40.286392 7.8910294 -14.405867 60.517387
13410000000 -20.822708 20.235203 -42.031311 -12.898373 -40.949265 -15.91834 -13.845629 58.538696
13420000000 -22.04492 22.765228 -42.022522 -34.093704 -41.135815 -40.674118 -13.523005 56.422943
13430000000 -22.663561 21.211847 -41.678043 -58.796482 -41.238438 -64.629288 -13.330634 53.377731
13440000000 -23.484777 29.174671 -41.996307 -88.738922 -41.3708 -94.787796 -13.160011 49.46442
13450000000 -22.837162 35.479343 -42.953102 -116.42048 -42.503975 -125.44627 -12.962904 44.944881
13460000000 -21.460394 37.366806 -44.01012 -140.48218 -43.997349 -149.98373 -12.671017 40.976013
13470000000 -20.706404 31.301733 -44.553715 -162.05769 -45.012894 -172.37321 -12.39745 37.818504
13480000000 -19.946636 24.313705 -44.422565 171.7345 -45.063206 162.8255 -12.219646 34.769562
13490000000 -20.792704 10.470964 -45.241684 137.75215 -45.865479 129.9585 -12.218959 31.967361
13500000000 -22.06786 5.3853588 -46.038963 102.98781 -47.240814 92.769119 -12.324432 29.624016
13510000000 -24.705778 0.40513837 -48.907913 66.695862 -50.298561 53.827118 -12.383683 27.210796
13520000000 -26.624893 15.059565 -50.884102 35.858574 -53.929119 24.201574 -12.435431 24.683426
13530000000 -26.160259 28.934299 -52.458172 -9.7847986 -55.297142 -15.399548 -12.579785 22.126568
13540000000 -24.276951 29.679434 -54.212589 -63.2635 -57.256298 -73.721115 -12.812137 20.639914
13550000000 -23.811062 25.975847 -55.085327 -127.80749 -56.368984 -140.96512 -13.007616 19.742813
13560000000 -22.54287 21.138376 -54.672028 -163.24638 -55.833805 177.10014 -13.223984 18.409704
13570000000 -23.204506 13.364223 -53.082737 160.48045 -55.876225 155.31638 -13.420077 16.953651
13580000000 -22.814611 6.77527 -50.45105 135.50206 -50.611214 140.37013 -13.599681 15.634154
13590000000 -24.93178 -3.7149057 -48.156349 104.14784 -47.712738 103.84576 -13.669524 15.152242
13600000000 -26.260426 -1.8651919 -46.333858 71.646561 -46.033825 68.656418 -13.652156 14.720093
13610000000 -29.668762 4.8453946 -44.943626 38.477226 -45.121552 34.838543 -13.705916 15.247543
13620000000 -29.847179 28.863361 -44.618557 11.144929 -44.877495 10.936566 -13.711125 16.258436
13630000000 -27.744993 44.530201 -43.73724 -16.35075 -43.685905 -16.290329 -13.692961 16.989275
13640000000 -24.687212 35.292515 -43.440182 -44.76265 -43.24662 -45.561489 -13.682679 16.92141
13650000000 -24.256332 22.182755 -43.223248 -73.548874 -42.997486 -74.681892 -13.683754 16.37454
13660000000 -23.999483 8.0781136 -43.89938 -96.383484 -43.510372 -95.484695 -13.598879 15.307129
13670000000 -25.593843 -5.4953051 -43.620476 -114.09692 -42.979298 -117.19217 -13.430017 14.877452
13680000000 -27.899321 -8.357378 -42.403973 -134.63174 -42.345615 -139.80879 -13.117193 13.757223
13690000000 -30.432333 -3.8564909 -41.457375 -161.30148 -41.71664 -163.38571 -12.868441 12.641105
13700000000 -32.317783 23.964333 -40.89267 172.30792 -40.706841 171.74683 -12.62729 11.433678
13710000000 -28.834267 46.117508 -40.699509 145.0043 -40.275875 140.64188 -12.522338 9.7568197
13720000000 -26.255983 37.55389 -40.331539 119.09669 -40.610447 113.70975 -12.380251 8.0444031
13730000000 -25.801949 32.317619 -40.596706 92.157661 -40.907009 89.472046 -12.268423 5.5397396
13740000000 -24.783554 23.46158 -41.192043 67.997787 -41.422516 65.885544 -12.148698 3.1569757
13750000000 -25.35968 10.449327 -41.16291 48.627319 -41.458138 46.641224 -12.043899 0.58843631
13760000000 -26.159641 -3.2798681 -40.453102 26.091648 -40.685989 22.790407 -12.028621 -1.7354089
13770000000 -29.373844 -14.820529 -39.857052 -0.28848028 -40.510204 -2.8940048 -12.157379 -4.4694219
13780000000 -32.666439 -7.3278923 -39.746365 -29.70488 -40.506321 -29.242874 -12.393977 -7.3673434
13790000000 -33.205688 29.42841 -40.08033 -57.851826 -40.458549 -56.573338 -12.627078 -10.677505
13800000000 -29.812181 33.761715 -41.279984 -84.611404 -41.405983 -82.916481 -12.778879 -14.423263
13810000000 -26.673769 35.297768 -41.867214 -101.33261 -42.248222 -103.22478 -12.880068 -18.050978
13820000000 -24.811996 16.933722 -41.471279 -124.11732 -42.36412 -121.24496 -13.071522 -20.620136
13830000000 -24.702515 9.5429478 -41.95676 -148.71822 -42.176342 -142.88786 -13.336357 -22.516169
13840000000 -24.277655 -9.166688 -42.386131 -171.99323 -42.023483 -166.74448 -13.751393 -24.124298
13850000000 -26.91893 -18.779648 -42.62418 166.76186 -41.892963 168.93768 -14.2412 -25.640629
13860000000 -27.974585 -25.491282 -42.758804 142.53804 -42.465286 142.41701 -14.75522 -28.037624
13870000000 -32.136593 -25.660509 -43.387432 119.18681 -43.152813 119.83197 -15.305533 -30.111589
13880000000 -33.584961 -4.6191688 -44.224201 101.31721 -43.802704 102.65824 -15.783006 -31.535599
13890000000 -30.615143 23.81576 -43.971153 78.541 -43.375862 80.230034 -16.300344 -32.122231
13900000000 -27.088856 7.818522 -44.349728 58.329815 -43.605747 56.773003 -16.883972 -32.144283
13910000000 -26.295296 0.11510986 -44.991661 34.877689 -44.294857 32.969379 -17.550468 -31.956642
13920000000 -24.97126 -15.594021 -45.529228 18.672062 -44.568871 14.938002 -18.206312 -32.23753
13930000000 -25.711479 -30.674612 -45.080864 1.3452151 -44.544933 -5.1608272 -18.706633 -31.55266
13940000000 -26.416994 -43.095436 -44.713085 -22.72205 -44.979557 -25.596191 -18.965015 -30.522455
13950000000 -28.376541 -59.417095 -44.397408 -44.736305 -44.627808 -46.478497 -19.198627 -28.263348
13960000000 -31.688896 -65.191826 -44.896259 -71.023102 -44.761383 -70.743172 -19.328035 -24.180256
13970000000 -34.231102 -57.0462 -45.368736 -90.159714 -44.625465 -92.46019 -19.514994 -20.197327
13980000000 -34.354641 -39.465824 -45.301918 -113.93067 -45.180538 -118.91379 -19.721098 -16.967354
13990000000 -32.094219 -32.219669 -45.967354 -137.12271 -46.301624 -135.79913 -20.105124 -14.257239
14000000000 -29.25219 -36.438423 -47.640358 -153.02319 -46.170883 -154.68208 -20.362377 -12.14325
14010000000 -26.577679 -47.422165 -46.769539 -167.22891 -46.318531 -178.31761 -20.46166 -10.989487
14020000000 -25.524206 -63.894577 -45.656204 174.27473 -46.388527 166.23561 -20.387791 -11.681733
14030000000 -25.378889 -78.10347 -45.8876 145.09752 -46.310387 143.45976 -20.387606 -12.957048
14040000000 -26.355303 -93.384537 -46.012341 122.20836 -46.186646 121.5098 -20.56839 -13.87947
14050000000 -27.788956 -104.20042 -47.495296 101.83444 -46.771095 96.807755 -20.733744 -14.025036
14060000000 -31.549683 -118.07344 -47.761356 89.872269 -47.745041 79.619797 -20.873583 -13.861238
14070000000 -36.362411 -94.481361 -46.643669 72.97654 -47.815239 62.10252 -20.989412 -14.996439
14080000000 -34.917599 -78.162163 -46.076984 47.989929 -47.939663 46.620728 -21.07379 -16.014093
14090000000 -31.044039 -66.153023 -46.403229 26.937077 -46.421375 29.15395 -21.087618 -18.266476
14100000000 -28.011843 -89.403625 -45.598259 4.6864324 -46.57645 2.4766169 -21.286282 -18.788042
14110000000 -27.113813 -103.5455 -46.16433 -16.021683 -47.068516 -15.570518 -21.383711 -17.91078
14120000000 -26.235979 -120.13947 -45.913078 -41.742718 -46.893429 -34.942284 -21.617634 -15.666868
14130000000 -26.46476 -131.57655 -46.381878 -57.90564 -46.45541 -53.07901 -21.826801 -16.035976
14140000000 -26.530231 -142.12997 -45.257011 -76.835976 -45.437534 -74.17189 -22.467714 -17.584356
14150000000 -28.204868 -151.67233 -44.603401 -102.71632 -44.540932 -98.904739 -23.148464 -21.715134
14160000000 -29.135296 -151.14098 -45.324062 -133.21021 -44.844856 -126.53076 -23.837622 -25.011768
14170000000 -31.439228 -153.35031 -46.115982 -149.29266 -44.77346 -150.65535 -24.029568 -27.042294
14180000000 -31.844408 -132.80067 -45.619221 -164.40993 -45.555271 -173.18393 -24.276678 -28.281088
14190000000 -29.760204 -130.40091 -44.844795 169.48048 -45.341553 166.55452 -24.894926 -29.116201
14200000000 -27.341623 -130.68971 -44.264717 148.1114 -44.61684 150.65942 -26.53161 -31.556885
14210000000 -25.588518 -144.79599 -44.085705 118.83095 -43.785095 119.39266 -29.194944 -34.290657
14220000000 -24.847086 -156.13927 -44.110897 96.508606 -43.915695 92.878906 -32.801464 -38.840645
14230000000 -24.454027 -174.20099 -44.038158 68.429459 -44.701904 66.640541 -37.611759 -47.27113
14240000000 -26.622007 174.97314 -44.586163 42.702721 -45.604092 46.802456 -44.728962 -69.383804
14250000000 -28.247717 173.9747 -44.88279 18.055046 -44.905148 27.237602 -44.820023 165.64223
14260000000 -31.189751 -174.25639 -45.57148 -3.604454 -44.736523 3.576345 -34.859406 143.05359
14270000000 -29.197266 -154.18619 -45.109543 -25.470253 -43.903553 -25.149879 -29.544876 134.42236
14280000000 -27.974459 -158.039 -45.361675 -55.60643 -44.644787 -56.54319 -26.910351 129.48906
14290000000 -26.122499 -161.37801 -46.161842 -82.010674 -45.412647 -76.927605 -25.221098 126.56181
14300000000 -26.238419 -172.69257 -48.546036 -106.05708 -46.56731 -104.383 -24.041176 122.7412
14310000000 -25.628473 -177.55099 -48.539352 -117.87872 -46.91436 -124.19789 -22.711967 117.51482
14320000000 -26.124966 169.07713 -47.876099 -135.80705 -46.9067 -145.05893 -21.328127 110.563
14330000000 -26.732937 168.66295 -47.864475 -163.33177 -47.436932 -170.19923 -20.010191 105.1726
14340000000 -27.755564 159.2775 -47.71323 172.69733 -47.284592 165.1835 -18.799786 101.00543
14350000000 -29.222244 170.23396 -48.764656 142.84483 -48.447708 133.57712 -17.829151 98.939949
14360000000 -29.863325 174.41357 -49.068031 119.58147 -49.776302 109.5084 -16.983 96.993515
14370000000 -28.788315 -168.82855 -50.166351 94.79248 -51.787621 93.389465 -16.36562 94.562088
14380000000 -27.032358 -173.22957 -52.17326 71.575218 -52.227467 77.670189 -15.947948 91.629471
14390000000 -25.871582 -174.96873 -52.169392 59.274849 -52.865101 55.312527 -15.632348 88.216866
14400000000 -24.895479 170.42842 -51.968708 32.944412 -52.403042 38.06123 -15.24245 84.5905
14410000000 -26.149202 157.98209 -52.732365 0.75215697 -52.675163 4.8246565 -14.837087 80.711861
14420000000 -27.854094 152.9509 -54.961208 -26.392687 -53.376072 -14.026633 -14.461666 76.877831
14430000000 -29.529135 155.9774 -59.888439 -52.576405 -55.580544 -54.444733 -14.132442 74.113823
14440000000 -30.475143 171.4756 -61.812756 -40.521805 -58.601772 -46.583656 -13.810247 71.305412
14450000000 -28.803492 -175.8114 -61.945736 -18.99934 -61.188919 -51.015293 -13.593974 68.3339
14460000000 -27.099318 -175.84109 -58.357437 -30.404112 -58.671257 -56.588215 -13.467897 65.512062
14470000000 -26.016123 178.47453 -55.545971 -61.309669 -56.373257 -90.382828 -13.349676 63.523422
14480000000 -25.601799 178.3188 -55.172115 -83.550743 -58.474083 -109.5929 -13.23543 61.959911
14490000000 -25.652719 168.7052 -54.173744 -115.03875 -57.843163 -123.06269 -13.162001 60.500969
14500000000 -26.009975 171.30481 -53.913284 -131.18312 -55.254505 -141.59027 -13.218857 58.782509
14510000000 -26.270601 161.81534 -55.329731 -149.19441 -58.414333 -153.47444 -13.431606 57.177971
14520000000 -28.584093 168.60266 -51.635448 -176.04129 -53.347675 178.38297 -13.568307 55.276897
14530000000 -28.327826 169.27992 -52.388565 149.32805 -55.126652 146.10532 -13.586643 53.395996
14540000000 -28.472212 -168.64522 -52.187038 109.38014 -53.210693 114.53011 -13.408898 51.827553
14550000000 -25.727354 -171.79977 -56.320053 87.884674 -56.356087 76.828293 -13.216492 50.659538
14560000000 -24.232855 -172.0983 -56.848789 77.08889 -58.250874 65.892281 -13.074772 50.382107
14570000000 -22.927443 173.60397 -55.88559 52.718567 -58.064152 38.655495 -13.039532 50.390629
14580000000 -23.356604 168.2654 -55.567322 33.205139 -59.486019 26.941114 -13.018482 50.500488
14590000000 -24.176792 159.12762 -55.603584 1.7447904 -55.511189 4.504458 -13.034729 50.122311
14600000000 -25.650009 169.24146 -54.494434 -38.198826 -54.89547 -45.236034 -12.961679 49.701416
14610000000 -25.062365 170.04253 -55.880028 -92.03685 -56.577076 -103.75871 -12.862656 49.010883
14620000000 -25.008858 179.27544 -62.694912 -171.92297 -61.115707 -170.15903 -12.749146 48.146408
14630000000 -23.878401 176.20761 -75.656403 0.12065308 -74.513855 100.8855 -12.750141 47.299698
14640000000 -23.587008 177.69327 -63.815907 -64.692802 -70.196884 -60.616463 -12.725228 46.516579
14650000000 -22.654051 175.71324 -61.392952 -149.77983 -64.069046 -136.16045 -12.635897 45.145218
14660000000 -21.629831 172.75848 -66.58213 123.85708 -66.696587 145.07133 -12.442912 43.491886
14670000000 -21.418262 165.00066 -62.761494 68.468361 -61.769287 85.989723 -12.207531 41.493786
14680000000 -21.02803 159.39101 -61.138988 -10.563574 -59.061947 7.7756505 -12.030498 40.14616
14690000000 -22.148827 151.48697 -57.126568 -25.035997 -56.206039 -32.569969 -11.896404 39.233246
14700000000 -23.275763 156.19722 -53.852104 -86.180557 -56.021507 -99.661064 -11.851354 38.740913
14710000000 -23.665325 165.33197 -53.359428 -130.00343 -56.049088 -126.43023 -11.826377 38.0783
14720000000 -22.045305 171.20221 -56.333149 -168.96875 -57.241032 -162.63947 -11.900817 36.872543
14730000000 -20.970066 167.55945 -56.320255 -177.07399 -57.359558 179.73672 -12.025868 35.337868
14740000000 -20.058563 160.00381 -52.399914 174.6106 -54.115578 167.28069 -12.179114 33.560226
14750000000 -20.514847 152.18021 -49.613918 131.20438 -51.140762 129.27036 -12.306807 31.371185
14760000000 -20.384705 150.82669 -49.805592 88.005325 -51.190254 79.362373 -12.399224 29.129057
14770000000 -20.959782 145.60031 -50.749714 55.444221 -52.726604 49.866024 -12.461296 27.356056
14780000000 -20.521185 146.43866 -51.976681 29.579279 -53.925529 24.960548 -12.452807 26.39179
14790000000 -20.889587 141.36296 -51.975044 19.164574 -52.891193 15.111652 -12.46338 25.718119
14800000000 -21.165056 143.50035 -49.473675 -7.0101814 -51.428341 -16.654362 -12.573348 25.386894
14810000000 -21.653725 145.78171 -49.242733 -45.011024 -50.687828 -46.595646 -12.718195 25.084829
14820000000 -20.73834 151.27979 -49.898926 -73.773567 -50.808735 -75.69854 -12.942522 24.515646
14830000000 -19.977528 149.52019 -49.544437 -99.897087 -49.625275 -105.74923 -13.161833 24.12286
14840000000 -19.068094 143.36009 -50.179085 -128.03015 -50.22834 -139.28447 -13.372272 24.117704
14850000000 -19.545572 133.53751 -48.522755 -151.25572 -49.804787 -162.69623 -13.533752 24.204468
14860000000 -20.088188 130.24699 -49.374733 166.43404 -50.366894 158.54527 -13.744883 24.216618
14870000000 -21.065422 125.77765 -51.101265 150.37175 -51.432095 140.73651 -14.045673 23.398399
14880000000 -21.564407 128.13994 -48.344959 130.99915 -49.037434 118.83115 -14.352125 22.36084
14890000000 -21.462156 128.70604 -47.385059 93.356636 -48.941383 83.012207 -14.440483 21.241848
14900000000 -21.360115 127.42435 -46.473083 53.311367 -48.04705 48.221493 -14.347208 20.527657
14910000000 -21.42697 130.26494 -47.524899 11.149785 -49.022842 8.0424414 -14.216208 20.73805
14920000000 -20.854815 129.65797 -49.008976 -24.514296 -50.421314 -22.896757 -14.21869 22.597591
14930000000 -20.303272 131.01505 -50.323799 -47.883907 -51.421562 -39.471863 -14.320391 24.925959
14940000000 -19.447575 123.66832 -50.670105 -72.836861 -51.528969 -62.349083 -14.585926 26.391541
14950000000 -19.900791 116.39212 -48.984634 -104.19176 -49.208351 -88.636101 -14.979696 27.327351
14960000000 -20.862213 108.49928 -49.279469 -144.14133 -48.198799 -132.20131 -15.260744 27.489758
14970000000 -22.965715 109.4698 -49.715538 -178.40266 -49.121696 -171.71581 -15.389275 27.90888
14980000000 -24.145584 114.27644 -52.31036 142.64702 -51.251892 154.73448 -15.46746 28.398836
14990000000 -23.88579 129.33707 -52.609642 125.25855 -51.933929 133.02206 -15.594045 29.41823
15000000000 -22.403925 126.56939 -53.388798 93.78479 -53.020706 104.51997 -15.796976 30.650764
15010000000 -21.798998 123.76051 -54.414799 78.889923 -51.751667 84.420372 -15.856195 31.514641
15020000000 -21.35421 113.54733 -53.517162 66.870834 -51.526356 53.391731 -15.733541 31.495598
15030000000 -22.272718 110.26766 -50.115143 38.157612 -49.937374 25.949018 -15.411054 31.767548
15040000000 -22.421644 106.63982 -49.361076 -5.2493129 -50.124359 -20.555225 -15.018917 32.55291
15050000000 -23.377277 106.02283 -49.193806 -40.293888 -50.577114 -49.7309 -14.773674 34.868385
15060000000 -24.267523 105.07059 -51.091843 -78.937706 -51.933838 -90.080597 -14.667322 37.736916
15070000000 -26.044838 112.15578 -51.907013 -84.801804 -53.694229 -100.09573 -14.685088 40.213322
15080000000 -26.002016 128.25925 -49.36097 -114.29317 -51.762863 -127.7905 -14.722779 41.091053
15090000000 -24.079521 134.88396 -49.40728 -153.72295 -52.558987 -158.99028 -14.780528 40.69503
15100000000 -22.804052 129.00729 -49.635902 177.50209 -52.049164 174.83434 -14.703925 39.421417
15110000000 -22.563524 120.34739 -49.728352 151.75812 -52.55302 144.59393 -14.579028 38.168079
15120000000 -23.115322 112.07606 -49.264614 117.82564 -52.685196 117.35449 -14.407431 37.526424
15130000000 -24.314821 104.71039 -50.326435 84.374382 -53.674538 88.392776 -14.278987 37.035061
15140000000 -26.646605 109.11433 -51.494213 53.986427 -53.893692 62.392288 -14.062238 36.770073
15150000000 -26.926744 122.99528 -51.698189 40.017544 -53.54538 49.628101 -13.84775 35.961021
15160000000 -26.221298 134.67967 -50.596142 0.085385859 -53.04427 10.264755 -13.650442 35.599976
15170000000 -24.15951 136.49739 -52.668045 -34.350834 -54.455006 -13.27588 -13.517499 35.406425
15180000000 -23.233324 133.05713 -55.554008 -63.711132 -55.433121 -38.137699 -13.488529 35.842186
15190000000 -22.400509 128.93555 -56.101574 -82.790154 -57.622429 -72.053444 -13.539036 36.175217
15200000000 -22.669455 122.03664 -58.818657 -102.95748 -59.963085 -72.091736 -13.655064 35.862663
15210000000 -22.672573 118.43551 -59.841206 -130.812 -60.967937 -95.878365 -13.85612 34.904873
15220000000 -24.215494 114.75894 -62.664246 -110.70663 -59.194645 -80.141251 -14.059487 33.760029
15230000000 -24.801643 119.81025 -57.733604 -143.06395 -55.338234 -124.24339 -14.198234 32.673561
15240000000 -25.558245 127.07195 -59.587921 178.84804 -56.403549 -169.88942 -14.222534 31.496233
15250000000 -24.387072 134.47867 -59.470146 150.06168 -58.86845 141.77895 -14.251688 30.107443
15260000000 -23.148933 134.15866 -69.476875 106.8973 -72.378181 69.98494 -14.220083 29.579245
15270000000 -22.081144 129.38579 -63.121693 157.41682 -66.121307 -158.20735 -14.15558 29.656586
15280000000 -21.6056 121.20082 -61.816254 130.68365 -63.388969 173.3353 -14.062455 30.898754
15290000000 -21.936792 115.62362 -56.424191 91.665207 -61.016201 112.32864 -14.060832 32.232048
15300000000 -22.124357 109.49363 -58.188263 48.275677 -63.534527 78.835609 -14.216393 34.421112
15310000000 -23.450813 107.88638 -59.254215 -0.60749829 -64.38382 22.983086 -14.384281 35.68679
15320000000 -23.860243 109.79992 -64.7127 0.023781337 -75.832237 -27.713089 -14.586839 36.0966
15330000000 -24.660275 117.44147 -63.355835 -19.254168 -73.447723 68.155853 -14.781364 35.478832
15340000000 -23.51825 118.9874 -60.182583 -68.439911 -62.691956 -25.704308 -14.892814 35.336273
15350000000 -23.355953 122.17876 -64.086952 -146.09109 -66.303017 -90.756775 -14.845006 35.522633
15360000000 -22.100292 115.83512 -86.295685 94.066269 -79.578972 -41.997414 -14.746737 36.062656
15370000000 -22.533987 111.9797 -69.921364 -84.441498 -63.705132 -82.533051 -14.669161 35.724857
15380000000 -21.709187 103.23971 -66.713692 -133.49133 -63.008865 -130.8931 -14.661398 35.150333
15390000000 -23.130398 93.719711 -62.251461 171.70964 -58.034027 -168.9837 -14.55191 35.01535
15400000000 -24.191963 90.556129 -63.756908 108.13579 -59.539524 130.54156 -14.270851 35.367413
15410000000 -25.984352 92.602234 -65.927254 49.706364 -62.572044 86.095169 -13.992825 35.89846
15420000000 -26.141817 101.31619 -66.44799 97.123985 -60.296127 95.256355 -13.881501 37.317101
15430000000 -25.869329 107.35575 -60.062847 19.743624 -57.794506 36.257633 -13.924283 38.721802
15440000000 -24.626444 105.91268 -62.14061 -2.1996758 -57.834023 -3.0584235 -14.156654 39.408981
15450000000 -24.572105 101.13256 -61.798584 -58.299278 -60.237576 -56.45874 -14.415949 38.499168
15460000000 -24.223185 93.880676 -61.510902 -43.421867 -64.157692 -62.056011 -14.640595 37.09584
15470000000 -25.238846 85.552803 -56.664948 -87.53495 -58.647686 -86.945457 -14.608123 35.476486
15480000000 -25.970432 80.725822 -55.807255 -127.33564 -56.326035 -115.05301 -14.484088 34.338726
15490000000 -27.618126 75.057167 -57.698086 -149.72574 -55.587711 -146.63739 -14.366359 33.979179
15500000000 -29.509077 71.723259 -55.55452 -155.89174 -56.199684 176.54897 -14.362055 34.166294
15510000000 -31.784126 79.797043 -52.109573 169.27348 -54.369881 162.30193 -14.350694 34.842953
15520000000 -32.661205 93.29081 -51.095463 139.6208 -51.656239 139.20338 -14.351803 35.453243
15530000000 -30.261162 108.20225 -49.308533 107.02652 -49.158482 106.26442 -14.292491 36.374027
15540000000 -29.286396 92.04496 -49.131355 74.590431 -48.954254 71.867348 -14.255027 37.678947
15550000000 -29.185013 86.804359 -48.76767 36.61375 -48.813652 38.750408 -14.286345 39.097828
15560000000 -29.937382 62.926903 -50.431023 8.6551409 -49.556484 13.591866 -14.416966 40.376217
15570000000 -34.454582 45.817867 -50.569462 -6.9620104 -49.516907 -2.8246789 -14.584967 41.2626
15580000000 -39.894928 13.514488 -49.259769 -30.202387 -48.345867 -25.486988 -14.783639 41.363167
15590000000 -46.689316 -147.1134 -49.150444 -56.392735 -47.295719 -49.830761 -14.927524 40.946903
15600000000 -42.366158 177.25792 -48.627838 -83.325569 -46.641796 -79.722366 -14.920408 40.005711
15610000000 -37.610466 163.71269 -48.181526 -107.15472 -46.266617 -108.57771 -14.806999 38.823235
15620000000 -44.288883 137.1404 -48.284977 -133.01181 -46.32766 -136.61502 -14.619023 38.146053
15630000000 -40.603416 -178.39679 -47.528835 -160.57639 -46.492195 -163.0145 -14.405375 38.237236
15640000000 -48.78373 -161.2531 -47.829479 177.53644 -46.718868 174.7691 -14.188894 39.287376
15650000000 -39.176987 -131.77943 -47.483578 151.98419 -46.098408 147.12906 -14.008536 40.696388
15660000000 -38.742077 -116.68433 -46.965328 128.94089 -46.04121 117.48019 -13.997203 41.707932
15670000000 -32.655003 -125.23944 -46.571327 100.28966 -46.360233 89.86731 -14.135148 42.652645
15680000000 -31.591072 -126.70191 -46.790012 73.482948 -46.556313 60.789314 -14.339935 42.903507
15690000000 -28.418451 -136.34299 -46.412273 48.560467 -47.085365 36.585407 -14.522988 42.947594
15700000000 -27.818335 -149.56641 -46.95472 22.787008 -47.390926 12.13144 -14.592422 42.831669
15710000000 -28.084192 -156.47327 -45.846298 5.0231357 -46.864403 -8.2694063 -14.591242 42.630779
15720000000 -29.128557 -158.88425 -44.691456 -27.826366 -46.290844 -40.824451 -14.610189 42.382687
15730000000 -29.834305 -144.86301 -44.112514 -63.319317 -46.660206 -66.714531 -14.699761 42.244324
15740000000 -28.113447 -137.55727 -45.44775 -102.47786 -47.411373 -101.66387 -14.73478 42.157593
15750000000 -26.582502 -136.0278 -47.516628 -129.77255 -49.022377 -129.59128 -14.570478 42.301315
15760000000 -25.297684 -141.7531 -48.663551 -141.43953 -51.257542 -149.79585 -14.27986 42.693863
15770000000 -24.711178 -145.13811 -47.39135 -168.96971 -50.849075 -165.34622 -13.908963 44.438892
15780000000 -24.147495 -151.41537 -48.101475 155.13106 -51.62122 165.62633 -13.587488 46.494686
15790000000 -24.467649 -154.61407 -49.146175 129.57484 -51.135109 142.93755 -13.527356 48.836582
15800000000 -23.879631 -153.98563 -50.265404 98.55307 -51.581154 106.85277 -13.603402 50.876011
15810000000 -23.88113 -158.74651 -50.312515 76.917885 -52.410408 79.475296 -13.779845 51.649158
15820000000 -24.06682 -157.61232 -52.018024 37.080814 -53.482201 41.793201 -13.891758 51.061226
15830000000 -24.497259 -153.56953 -53.634319 7.1868224 -54.477551 9.6244345 -13.835143 49.50367
15840000000 -23.587856 -144.55923 -55.49625 -17.371384 -55.098717 -18.960293 -13.603731 47.745495
15850000000 -22.194889 -145.88498 -57.671196 -55.455902 -55.44035 -56.549469 -13.297918 46.221622
15860000000 -21.295244 -147.43362 -62.974976 -85.732712 -58.58086 -98.008049 -13.007916 45.254784
15870000000 -20.688894 -156.5764 -63.01384 -80.083687 -61.633297 -115.31332 -12.742328 45.115246
15880000000 -21.261822 -161.11401 -62.468594 -140.22876 -62.747246 -129.1499 -12.432494 45.003597
15890000000 -21.900995 -164.62103 -66.51162 -164.45406 -61.896488 -138.56458 -12.15989 44.926319
15900000000 -23.018063 -160.63901 -66.762131 -151.17316 -61.382957 -170.56932 -11.908919 44.911167
15910000000 -22.539606 -153.22812 -58.420204 150.82065 -58.687813 154.26633 -11.766126 44.695961
15920000000 -21.388077 -148.57004 -56.153992 99.247047 -57.806381 110.04512 -11.715265 44.564415
15930000000 -20.235584 -151.78995 -53.822876 49.708828 -56.989624 54.960667 -11.771532 44.029903
15940000000 -19.811605 -153.689 -53.290489 2.5237174 -55.099411 0.6090802 -11.866544 43.042915
15950000000 -19.368416 -157.63045 -54.268467 -32.042034 -55.13887 -43.704666 -11.914388 41.096394
15960000000 -19.517187 -158.94635 -53.376385 -60.776676 -54.758514 -80.96946 -11.920666 38.194836
15970000000 -19.356909 -159.26938 -52.57766 -90.601311 -55.231369 -109.08038 -11.896178 35.091732
15980000000 -19.757927 -159.55716 -52.42791 -112.76644 -54.98484 -123.63947 -11.761959 32.698067
15990000000 -19.541117 -156.57159 -51.793003 -132.19585 -54.494595 -144.23355 -11.547013 31.170525
16000000000 -19.812889 -156.74722 -49.917362 -167.86388 -52.806026 -168.39629 -11.31492 30.588039
16010000000 -19.310665 -150.3671 -50.028915 168.3981 -51.307804 173.88049 -11.187332 30.092909
16020000000 -18.53899 -150.33272 -49.32476 135.68085 -50.729191 139.9456 -11.277115 29.722702
16030000000 -17.50321 -150.86694 -49.40173 113.78784 -50.244358 121.3114 -11.503666 29.122448
16040000000 -16.971773 -155.95322 -48.66346 84.527565 -49.65279 93.734802 -11.764094 27.895044
16050000000 -16.695127 -160.16064 -49.0923 56.890938 -49.429966 68.103546 -12.020113 25.586302
16060000000 -16.979807 -163.73087 -48.970051 29.685434 -48.629745 37.283546 -12.222521 23.089968
16070000000 -17.374523 -161.98845 -50.658768 8.9366245 -49.494778 18.696297 -12.374967 20.569246
16080000000 -17.605623 -159.02681 -49.977852 -10.213625 -48.610077 -9.05334 -12.588351 18.059784
16090000000 -16.907133 -152.19543 -50.046177 -35.451611 -49.009686 -33.506317 -12.765016 15.96643
16100000000 -16.043676 -152.44925 -50.398712 -55.590229 -49.230183 -54.476158 -12.912552 13.935513
16110000000 -15.226817 -153.79518 -50.739452 -76.896523 -49.000519 -76.037743 -12.956684 12.490225
16120000000 -14.795997 -157.55818 -49.627411 -93.832825 -48.452236 -97.384422 -12.952836 11.926599
16130000000 -14.547014 -160.93069 -49.136646 -119.46287 -48.19199 -122.5819 -13.004084 12.578876
16140000000 -14.586384 -163.44795 -49.294987 -148.1749 -48.147167 -151.78845 -13.261805 14.000839
16150000000 -14.618683 -165.46414 -50.020657 -166.39316 -48.997242 -176.25085 -13.693599 15.47201
16160000000 -14.839432 -164.5284 -51.198551 170.99086 -50.890049 157.31419 -14.257815 15.661467
16170000000 -14.429827 -162.76476 -50.835167 164.44325 -50.990974 149.34578 -14.856407 14.100209
16180000000 -14.090921 -160.98198 -49.252819 144.98454 -50.887325 133.4106 -15.319495 11.417069
16190000000 -13.36788 -160.84251 -48.095173 117.25431 -50.164803 112.38376 -15.543349 8.9681826
16200000000 -12.860578 -161.55672 -47.867798 90.867592 -49.650703 88.042503 -15.637919 7.2287855
16210000000 -12.228707 -164.44838 -47.941544 66.544708 -49.354565 61.744602 -15.744595 6.7685561
16220000000 -12.153215 -167.51157 -47.847622 44.397884 -49.594921 36.073643 -15.79859 6.7317371
16230000000 -12.040317 -170.83572 -47.638885 18.392929 -50.338024 11.427137 -15.877508 6.6613169
16240000000 -12.400777 -171.39247 -48.322117 -3.6943827 -50.951199 -2.1643226 -15.916736 6.9793348
16250000000 -12.334726 -172.10164 -48.813232 -23.153816 -50.658092 -16.876204 -15.935741 8.3575544
16260000000 -12.414413 -170.13339 -48.957745 -36.063103 -49.331558 -35.792458 -16.084927 10.420481
16270000000 -11.778636 -169.5074 -47.480835 -59.2509 -48.528755 -61.293304 -16.410616 13.160885
16280000000 -11.311543 -170.17325 -47.507786 -83.477768 -48.568954 -84.957794 -16.868193 14.609798
16290000000 -10.600105 -172.36037 -46.753872 -109.30354 -47.528625 -103.08351 -17.459677 13.875103
16300000000 -10.37347 -175.84904 -47.797909 -133.92097 -46.569695 -129.10411 -18.033131 11.504109
16310000000 -10.145113 -178.51212 -47.236568 -152.26558 -46.506359 -153.85431 -18.294889 7.9467578
16320000000 -10.297774 179.3455 -47.157658 -178.15347 -46.155338 -178.71542 -18.392385 4.692534
16330000000 -10.294746 178.73534 -47.6553 160.82417 -46.617268 157.51292 -18.429029 2.6705873
16340000000 -10.508444 179.26056 -47.737907 146.25038 -47.097317 140.38879 -18.403177 1.5299897
16350000000 -10.201405 -179.35658 -46.678734 122.50784 -46.100311 120.16807 -18.348087 1.0899835
16360000000 -9.9274883 -179.37518 -46.367702 103.38002 -45.476494 99.814484 -18.460171 0.60552472
16370000000 -9.390214 179.62695 -44.842838 79.883186 -44.600426 73.198891 -18.757936 1.5911061
16380000000 -9.0734844 176.65388 -44.856606 52.293598 -44.820465 48.34359 -19.285694 3.4251783
16390000000 -8.8236675 173.94611 -45.066704 25.049952 -44.751251 23.26996 -20.159199 4.7545781
16400000000 -8.7882538 170.92525 -45.209122 2.2067583 -45.127636 -2.1559584 -21.265898 4.0309114
16410000000 -8.8247089 169.26239 -45.284775 -23.340347 -45.534126 -25.223129 -22.538595 0.11495432
16420000000 -8.894968 168.50356 -45.389008 -45.086731 -45.559593 -47.875782 -23.65221 -5.5911708
16430000000 -8.825984 169.12589 -45.265694 -67.911011 -45.735237 -70.411171 -24.474497 -9.8562431
16440000000 -8.6793375 169.81898 -45.014393 -92.857285 -45.920444 -93.649147 -25.34317 -11.814802
16450000000 -8.3023767 170.0508 -44.726372 -119.88046 -45.556953 -118.92495 -26.361271 -11.325083
16460000000 -7.9472985 169.02519 -44.996113 -147.06956 -45.749367 -142.82553 -27.717976 -10.170738
16470000000 -7.6655722 167.14508 -45.276611 -173.88945 -45.284153 -170.10614 -29.036783 -6.6064372
16480000000 -7.5046101 164.41901 -46.134205 161.24597 -46.09943 160.48506 -29.795984 1.825047
16490000000 -7.4750547 162.07635 -46.328011 137.71063 -46.777321 136.68834 -29.983681 16.759764
16500000000 -7.5843301 160.22542 -46.990707 111.98508 -47.446545 112.82716 -29.616518 39.247028
16510000000 -7.6669288 159.29099 -47.68013 89.12516 -47.906502 90.797806 -28.373682 62.018166
16520000000 -7.687151 160.24319 -48.578548 66.087929 -48.458298 66.45179 -27.440258 80.091965
16530000000 -7.3640075 160.54364 -49.013088 43.042034 -48.562763 46.055347 -27.241936 92.039986
16540000000 -7.0395532 159.68672 -48.599178 31.446783 -49.128181 28.038418 -27.668507 99.601936
16550000000 -6.6961575 158.76707 -48.658512 2.2084372 -49.064049 -2.7706876 -27.977356 100.67535
16560000000 -6.5196576 157.1882 -49.5788 -26.932093 -50.64645 -32.054546 -27.552 95.675293
16570000000 -6.3142352 155.53967 -51.677044 -59.801373 -51.760124 -59.130451 -26.625542 90.580978
16580000000 -6.2956858 153.85393 -54.68642 -69.321342 -55.158855 -77.60022 -25.803581 88.855537
16590000000 -6.2690945 152.29463 -55.243076 -78.293854 -57.27401 -84.813179 -25.238857 90.067329
16600000000 -6.3601389 151.41531 -54.900314 -104.07164 -56.833706 -102.25114 -24.804983 91.210335
16610000000 -6.2891321 151.49321 -56.604008 -122.89954 -58.872257 -109.49232 -24.073729 91.413696
16620000000 -6.1444898 151.36472 -57.813824 -144.42992 -58.608494 -133.76685 -23.112309 91.476837
16630000000 -5.7650485 150.97577 -61.581802 -137.77222 -62.37019 -130.5831 -22.045755 93.585594
16640000000 -5.4861536 149.43796 -61.77824 -139.21835 -60.926083 -118.16882 -21.209461 98.352249
16650000000 -5.1708975 147.69168 -58.451797 -140.34615 -56.367214 -132.30396 -20.656439 103.29683
16660000000 -5.0510907 145.44983 -57.32806 -157.93367 -55.91193 -158.98109 -20.519213 108.01166
16670000000 -4.9652958 143.92561 -55.355202 -175.33246 -54.261845 -171.20471 -20.557215 110.08907
16680000000 -5.0232558 142.51073 -54.734631 170.43678 -52.80872 168.82233 -20.600904 108.49811
16690000000 -4.9920554 142.65428 -52.40514 143.92496 -51.042934 138.834 -20.349247 104.85796
16700000000 -4.8681283 142.54361 -51.202026 120.01598 -50.708313 112.36441 -19.831247 100.4684
16710000000 -4.5882659 142.27008 -51.018993 95.699203 -50.605705 90.942574 -19.122683 97.780701
16720000000 -4.3227549 140.74998 -50.201725 72.727806 -49.928711 68.528938 -18.380129 96.385818
16730000000 -4.0704665 139.05927 -50.197651 48.671917 -49.636837 45.498867 -17.705828 95.389015
16740000000 -3.931664 136.73279 -49.261978 24.555691 -48.91666 19.071007 -17.180614 94.372025
16750000000 -3.8334785 134.93268 -49.428986 1.5251679 -49.224628 -1.4057314 -16.777967 93.818291
16760000000 -3.7978797 133.43817 -49.320316 -23.199038 -48.778214 -28.186531 -16.520475 93.126411
16770000000 -3.7274246 132.5611 -48.973282 -45.84763 -48.691151 -50.531979 -16.440678 92.690659
16780000000 -3.6017139 131.91725 -48.407249 -68.270912 -48.24958 -75.202286 -16.461803 91.789223
16790000000 -3.4086893 131.12263 -48.542717 -93.919746 -48.413364 -101.14443 -16.647427 89.757599
16800000000 -3.2411313 129.80917 -48.581532 -117.67351 -48.964157 -125.18303 -16.866972 86.410095
16810000000 -3.0535767 128.36665 -48.588661 -139.68071 -49.146503 -144.5551 -17.091995 82.022202
16820000000 -2.9365506 126.63369 -48.353073 -164.36844 -48.622185 -167.23233 -17.252661 77.635468
16830000000 -2.8088915 124.84274 -48.314793 172.75035 -48.629974 166.86737 -17.181404 73.516937
16840000000 -2.7250676 123.18428 -48.444401 149.26704 -49.394215 146.33224 -17.006517 70.07386
16850000000 -2.6148288 121.57443 -48.64053 126.75887 -49.407513 123.76165 -16.783564 67.923317
16860000000 -2.5328186 120.07152 -48.38158 101.62 -49.415001 100.86646 -16.636349 67.461456
16870000000 -2.4188328 118.73111 -48.624233 78.880424 -49.446369 78.168716 -16.689686 68.317497
16880000000 -2.3150902 117.56074 -49.11784 56.245548 -49.460495 59.997562 -16.988535 70.007195
16890000000 -2.1710877 116.28536 -48.75333 34.060169 -49.077839 35.43145 -17.63562 71.368469
16900000000 -2.0534735 115.11388 -49.406319 7.3206158 -49.342823 7.1264472 -18.490574 72.049141
16910000000 -1.9105052 113.60012 -49.389919 -12.146901 -49.721519 -14.95147 -19.396988 71.793175
16920000000 -1.8134009 112.02684 -49.714767 -37.666191 -49.968956 -37.339172 -20.165224 69.968155
16930000000 -1.7197591 110.23296 -50.408936 -59.600723 -50.458515 -59.718037 -20.79361 68.06031
16940000000 -1.6858714 108.49449 -50.132389 -82.925232 -50.647671 -79.510193 -21.178003 67.71727
16950000000 -1.6258135 106.85241 -50.336941 -105.42517 -50.840336 -103.54004 -21.414425 69.415955
16960000000 -1.5763322 105.39695 -51.330105 -128.23799 -51.211838 -125.6882 -21.339636 72.590576
16970000000 -1.4748906 103.99116 -51.54179 -147.36505 -51.043076 -146.57761 -21.139261 76.818565
16980000000 -1.3714201 102.53807 -51.465061 -169.60594 -51.479301 -170.22073 -20.793118 82.15451
16990000000 -1.2417357 100.97543 -51.760845 166.33075 -51.678818 167.85632 -20.316845 88.678444
17000000000 -1.1413668 99.356499 -52.399021 143.64832 -52.203011 145.86269 -19.697565 94.600052
