!Keysight Technologies,P9374A,MY57211807,A.19.30.04
!Date: Friday, May 08, 2026 15:44:12
!Correction: S11(C  2-Port  ) 
!S21(C  2-Port  ) 
!S12(C  2-Port  ) 
!S22(C  2-Port  ) 
!S2P File: Measurements: S11, S21, S12, S22:
# Hz S  dB   R 50
13000000000 -19.165556 56.388794 -39.559479 53.666389 -39.711536 52.575924 -9.1351938 24.960409
13010000000 -19.253042 60.435612 -39.617828 28.670795 -39.666607 28.895403 -9.188715 20.650553
13020000000 -19.545912 60.440613 -39.604977 7.733726 -39.587975 6.721478 -9.2848358 16.509714
13030000000 -19.428679 64.580513 -39.709438 -17.394638 -39.590366 -18.505207 -9.3968143 12.322117
13040000000 -19.708689 63.144791 -40.063488 -40.033775 -40.015865 -40.898014 -9.5613213 8.2744551
13050000000 -19.486818 65.698242 -40.340061 -62.521553 -40.106667 -64.086655 -9.8469744 4.3776288
13060000000 -19.642199 63.193375 -40.282665 -83.985916 -40.129086 -87.141396 -10.240959 0.4994784
13070000000 -19.553637 62.371197 -40.194195 -107.0298 -40.256821 -108.39233 -10.730633 -3.3475347
13080000000 -19.970972 60.484035 -40.342846 -133.72612 -40.272423 -135.71265 -11.250525 -7.5230045
13090000000 -19.775318 61.249969 -41.158432 -155.05916 -41.279572 -156.3053 -11.668761 -11.984947
13100000000 -19.871885 61.075653 -41.272404 -176.55443 -41.291504 -177.27112 -12.100431 -16.538744
13110000000 -19.631414 61.499275 -41.330711 163.70447 -41.507935 162.69638 -12.660418 -20.478489
13120000000 -19.93432 61.992908 -41.296413 139.68085 -41.375996 138.49219 -13.381819 -23.508999
13130000000 -19.380701 64.13031 -41.435085 115.29305 -41.237453 114.99357 -14.188213 -26.112976
13140000000 -19.377508 63.055534 -41.897144 90.762978 -41.651203 88.848969 -15.030765 -29.392838
13150000000 -19.091324 62.662586 -42.878902 66.758842 -42.520813 64.659691 -15.889793 -32.960529
13160000000 -19.252045 61.989002 -43.26041 50.567352 -43.320923 47.080437 -16.853737 -36.197353
13170000000 -19.201227 59.345425 -43.440197 29.315203 -43.524029 27.273087 -18.043066 -38.049244
13180000000 -19.495291 59.74258 -43.196182 8.8597364 -43.506615 6.8426991 -19.526592 -38.461483
13190000000 -19.308363 55.80505 -43.142673 -16.22575 -43.370792 -17.615549 -21.39234 -39.197037
13200000000 -19.86871 56.428055 -43.893105 -40.194592 -44.095013 -39.525238 -23.775562 -41.366882
13210000000 -19.531164 56.094082 -44.235794 -62.113297 -43.857433 -62.159157 -26.652603 -44.190571
13220000000 -19.622793 56.719463 -45.020767 -82.334816 -44.851765 -85.83461 -29.715523 -45.057423
13230000000 -19.250813 55.391247 -45.379414 -100.93689 -45.27779 -104.29363 -33.887787 -35.889339
13240000000 -19.156708 55.299561 -45.099224 -120.60052 -45.436203 -120.99641 -37.668076 17.252998
13250000000 -18.822327 52.619171 -45.239735 -146.04161 -45.265114 -147.83521 -31.986609 68.659264
13260000000 -19.010654 52.127102 -45.732063 -165.60876 -45.933735 -165.41725 -27.150034 84.050606
13270000000 -19.045868 47.3829 -45.932663 167.38016 -45.927372 166.00648 -24.193762 90.935135
13280000000 -19.486017 48.567001 -47.046978 148.04623 -47.07412 149.0619 -22.244738 94.340164
13290000000 -19.652372 44.640408 -47.915157 130.63528 -47.366772 128.25801 -20.797237 94.738022
13300000000 -20.141628 47.260197 -47.37019 116.07237 -47.342915 112.63007 -19.611914 91.977692
13310000000 -19.9974 44.259811 -46.428139 90.231171 -46.483616 88.618263 -18.505135 88.571419
13320000000 -20.13747 46.379055 -47.04427 58.46735 -47.095261 54.936607 -17.413303 86.164574
13330000000 -19.622702 42.917725 -48.955837 34.630535 -49.025555 35.2911 -16.426739 84.151642
13340000000 -19.635489 42.909107 -49.92643 22.535398 -49.848335 19.834373 -15.698177 82.398338
13350000000 -19.457563 37.402138 -50.551464 0.88511568 -50.587196 -0.38056424 -15.209825 80.231369
13360000000 -19.767824 38.034046 -50.607681 -12.770238 -50.267643 -12.017883 -14.772618 76.846893
13370000000 -19.76627 32.732487 -49.59071 -31.05171 -49.489002 -37.653294 -14.281901 72.569511
13380000000 -20.541121 33.52306 -50.635612 -62.569431 -50.913498 -66.087593 -13.647673 68.167686
13390000000 -20.895536 31.387611 -51.31049 -88.594498 -52.129452 -90.031441 -12.969373 64.560921
13400000000 -21.192583 36.014957 -54.723179 -105.18044 -54.454342 -105.80714 -12.377581 61.978611
13410000000 -21.231686 31.547506 -54.017498 -117.24749 -54.949715 -117.10843 -11.957346 60.164413
13420000000 -21.27989 35.235779 -55.952389 -131.43295 -56.342537 -127.78585 -11.747147 58.146957
13430000000 -20.900232 28.814383 -56.793255 -138.64857 -55.569721 -139.16553 -11.62455 55.555439
13440000000 -21.159828 28.363886 -56.194618 -150.77698 -56.071751 -149.9449 -11.534675 51.909115
13450000000 -21.0979 21.756479 -54.734463 -165.73621 -55.059311 -169.55905 -11.449532 47.952709
13460000000 -21.661785 22.171171 -56.271061 177.04802 -56.82032 175.95294 -11.258604 44.468353
13470000000 -22.184353 16.127192 -56.125637 169.26982 -56.670345 171.54611 -11.082371 41.180565
13480000000 -22.757547 22.774788 -54.680779 150.47858 -55.286942 157.64468 -11.037683 38.381092
13490000000 -23.1299 19.40402 -54.608261 134.28822 -54.532856 133.63771 -11.070466 36.191269
13500000000 -23.179075 25.271189 -54.822529 130.73865 -55.511177 133.16092 -11.16612 34.144497
13510000000 -23.192308 21.473566 -51.686176 111.866 -51.808353 118.07876 -11.267853 32.050205
13520000000 -23.069366 23.381714 -50.608658 92.860275 -50.531731 92.647568 -11.37308 30.175287
13530000000 -23.184454 15.119965 -49.27063 66.410255 -49.011444 67.3974 -11.544194 28.40803
13540000000 -23.555618 14.933654 -48.831551 39.599537 -48.654987 37.318684 -11.755081 27.321421
13550000000 -24.0758 7.445282 -48.42614 16.953674 -48.587181 15.944157 -11.99543 26.553549
13560000000 -25.015436 11.064084 -49.556808 -8.0817051 -49.670799 -8.8695564 -12.225764 25.860363
13570000000 -25.525225 10.782036 -48.847134 -16.941174 -49.074581 -17.75178 -12.420451 24.800508
13580000000 -25.629412 16.33828 -48.131721 -41.197941 -48.180225 -40.332298 -12.550248 24.191349
13590000000 -26.029709 16.920456 -47.273132 -62.159256 -46.87627 -63.214035 -12.615407 23.744375
13600000000 -25.268152 22.994329 -46.963367 -83.566895 -47.617344 -87.576653 -12.591244 23.890223
13610000000 -25.06171 17.325006 -45.60466 -106.97168 -45.495659 -104.24617 -12.499775 24.366247
13620000000 -25.815075 15.151826 -45.232174 -131.42572 -45.057369 -133.79581 -12.458906 24.639833
13630000000 -26.224522 12.793858 -45.410194 -160.571 -45.379532 -162.08287 -12.448921 25.00165
13640000000 -26.994837 10.770785 -45.612164 179.02751 -45.823456 175.9127 -12.441105 25.367531
13650000000 -28.125246 7.9739361 -45.905037 154.27007 -46.038662 152.38866 -12.371578 25.266508
13660000000 -28.637911 15.885121 -45.976589 135.8051 -46.147449 137.78807 -12.230764 24.414639
13670000000 -28.572088 19.597668 -45.598953 117.68737 -45.348354 116.529 -12.10563 23.071539
13680000000 -27.630888 24.344156 -45.054512 98.554962 -44.810886 99.165794 -11.947858 22.050087
13690000000 -27.088932 22.679291 -44.151138 74.198814 -43.69656 73.424744 -11.765719 20.933992
13700000000 -26.48082 22.728828 -43.273697 50.405712 -43.151772 47.88517 -11.605688 19.831211
13710000000 -26.295059 17.318583 -43.446056 18.874065 -43.599369 15.465886 -11.505991 18.379526
13720000000 -27.074068 14.564965 -44.259739 -6.3319497 -44.303555 -6.0248613 -11.443122 16.475611
13730000000 -27.692415 13.825326 -44.792534 -24.863188 -44.946915 -26.988554 -11.396842 14.439007
13740000000 -28.804186 15.276631 -44.835739 -44.310596 -44.876904 -45.866848 -11.351781 12.317735
13750000000 -29.568182 23.296812 -44.181831 -64.776283 -44.355755 -64.057869 -11.284779 10.329449
13760000000 -28.857332 23.178381 -44.090462 -90.361084 -44.106518 -89.957085 -11.34696 8.4982357
13770000000 -28.606472 27.449614 -44.199932 -113.2589 -44.058136 -113.38255 -11.535479 6.8616261
13780000000 -27.259827 21.577085 -44.327499 -137.82413 -44.237156 -139.06415 -11.802235 5.0847688
13790000000 -26.807434 16.383469 -44.239975 -160.40298 -44.317215 -160.95651 -12.075015 2.6296401
13800000000 -26.774502 7.7846375 -45.101997 176.10576 -44.987263 175.48642 -12.362686 -0.23221765
13810000000 -26.810177 3.8930218 -44.948544 158.03122 -44.763447 155.97987 -12.573431 -2.4456174
13820000000 -27.400288 -2.8391411 -45.862621 134.22212 -46.004456 132.59518 -12.790841 -3.7262669
13830000000 -28.259161 1.1990473 -45.218548 117.54414 -45.443592 118.69615 -13.02761 -4.0940895
13840000000 -28.94648 -1.3111715 -45.591984 95.021446 -45.5439 94.803894 -13.334597 -4.1955271
13850000000 -28.937336 10.394178 -45.524155 78.71434 -45.391319 78.869209 -13.751614 -4.3775144
13860000000 -28.070972 6.2744579 -44.308876 57.573174 -44.211254 56.916325 -14.189276 -4.6126065
13870000000 -27.525166 8.4349918 -44.289852 27.309574 -44.483562 25.95369 -14.549838 -4.2819705
13880000000 -26.666857 -3.5619833 -44.951252 4.4853816 -45.057457 3.0051088 -14.796681 -3.7037649
13890000000 -26.859324 -8.5601721 -45.687096 -19.569973 -45.722893 -19.4627 -15.063868 -2.2074349
13900000000 -26.69161 -21.627455 -46.22097 -31.090933 -46.118015 -31.162174 -15.29172 -0.37331924
13910000000 -27.65346 -23.917772 -45.29105 -47.075562 -44.95422 -47.739532 -15.524834 1.1939974
13920000000 -28.354954 -35.17152 -44.582741 -70.371498 -44.438385 -72.020683 -15.753244 2.0833993
13930000000 -30.602352 -29.84803 -43.61763 -96.456535 -43.528126 -96.29953 -15.870336 2.628654
13940000000 -30.514179 -27.07785 -43.304607 -122.51501 -43.111042 -124.05589 -15.83847 3.5500352
13950000000 -30.452204 -18.432611 -43.704819 -149.4102 -43.734386 -151.8156 -15.637291 4.8462958
13960000000 -29.390003 -28.212351 -43.792049 -174.77937 -43.809887 -174.73845 -15.34423 6.3311043
13970000000 -28.692238 -28.46044 -44.607998 165.55516 -44.54245 164.39412 -15.147144 7.3798828
13980000000 -27.557707 -47.084866 -43.927567 144.20045 -44.109402 143.59952 -15.117009 8.4822588
13990000000 -27.939445 -54.984791 -43.959152 121.48706 -43.811672 120.5565 -15.142362 9.3103418
14000000000 -27.140371 -71.549179 -43.213326 96.899643 -43.212826 95.222725 -15.238759 9.7404137
14010000000 -28.603662 -79.427544 -43.717865 66.146515 -43.796692 66.251076 -15.304894 9.8243523
14020000000 -29.063747 -83.865234 -44.025784 42.549191 -43.861893 41.976292 -15.298892 9.2236366
14030000000 -30.436947 -77.574944 -44.481033 16.922853 -44.606617 14.692266 -15.324029 8.2293873
14040000000 -30.326731 -78.301544 -44.41444 -5.5730381 -44.363823 -6.8897934 -15.41539 7.1317859
14050000000 -30.357166 -67.0131 -44.644051 -34.757301 -44.623199 -36.760323 -15.507834 6.6467667
14060000000 -29.004648 -73.330048 -44.602692 -60.329872 -44.721638 -63.633102 -15.598225 6.2937956
14070000000 -28.858391 -77.209633 -45.365036 -95.008728 -45.725414 -96.59156 -15.699764 5.6842928
14080000000 -27.822559 -92.436546 -47.573906 -122.68597 -47.75296 -123.12675 -15.787136 5.3106952
14090000000 -28.6 -102.67937 -48.701653 -141.50769 -48.825329 -142.74019 -15.761294 4.7551908
14100000000 -28.050478 -117.89726 -49.145782 -163.74579 -49.243156 -161.72592 -15.748512 4.1336184
14110000000 -28.931866 -126.79091 -49.571468 172.68689 -49.496677 171.44087 -15.747231 4.2084551
14120000000 -29.069656 -133.83926 -49.497749 143.28224 -49.484158 141.32446 -15.837287 5.0904441
14130000000 -29.863008 -132.80659 -51.377071 101.53632 -51.506287 102.72945 -15.945802 5.9416156
14140000000 -29.585705 -131.2097 -53.360855 75.849525 -53.438812 72.139313 -16.150574 5.6303248
14150000000 -29.597052 -127.46077 -56.19138 39.437965 -57.866585 33.012638 -16.460947 4.2857432
14160000000 -28.321878 -128.12193 -59.66441 17.249252 -61.11161 9.6039104 -16.733017 3.0399058
14170000000 -28.032795 -131.20282 -62.097042 -6.3686881 -62.881592 -8.2483997 -16.828289 2.3996711
14180000000 -27.063072 -137.02527 -64.617157 -43.490612 -65.52066 -43.100506 -16.867582 2.5555544
14190000000 -26.90201 -148.19228 -61.381874 -90.793777 -62.429749 -96.475204 -16.997435 2.9303994
14200000000 -26.917904 -155.88002 -58.262192 -153.41562 -58.088161 -164.11179 -17.336216 4.3246727
14210000000 -27.179352 -165.16316 -58.813915 148.97217 -59.397888 141.63672 -17.8025 5.5967426
14220000000 -28.002865 -165.96661 -56.164371 100.94997 -56.80481 99.768852 -18.333965 6.9028153
14230000000 -27.893944 -168.01697 -58.09549 72.426582 -57.389381 75.584633 -18.800888 8.6433401
14240000000 -28.392628 -167.64151 -59.750393 45.643276 -59.012184 43.083282 -19.085224 10.958896
14250000000 -28.263186 -161.18689 -55.619949 52.786453 -54.829914 45.398712 -19.336903 14.06661
14260000000 -27.176506 -159.95332 -54.278816 10.692189 -54.188946 8.8381023 -19.519739 17.521883
14270000000 -26.429316 -162.57736 -53.039574 -19.336683 -52.957455 -15.560326 -19.808764 20.807316
14280000000 -26.305912 -170.40413 -53.894138 -44.344719 -52.871265 -44.832943 -20.091391 24.150513
14290000000 -26.39784 -175.81982 -53.81815 -66.346474 -52.889793 -72.964897 -20.122355 27.692322
14300000000 -26.900702 177.39435 -53.272396 -88.355156 -52.839535 -93.060951 -19.780996 30.467718
14310000000 -26.985088 174.48677 -53.486015 -107.63322 -53.21117 -112.25897 -19.282104 32.405727
14320000000 -28.294744 168.41997 -53.670532 -129.49857 -53.114212 -129.78798 -18.696375 35.036903
14330000000 -28.398565 176.31403 -52.404797 -149.54625 -51.887215 -150.28694 -18.168842 38.131554
14340000000 -28.489126 177.31172 -51.248688 -172.25171 -51.022915 -175.23438 -17.640661 41.222012
14350000000 -27.445826 -176.59798 -51.251072 159.14328 -50.647129 155.2592 -17.248135 44.045025
14360000000 -26.893625 179.10738 -51.984104 131.15205 -51.558372 124.99722 -17.001959 46.546619
14370000000 -26.545658 177.57036 -53.244503 113.34566 -53.068417 109.04693 -16.718958 48.184311
14380000000 -26.506718 172.27414 -52.319485 100.56449 -52.26952 95.299492 -16.400227 48.093369
14390000000 -26.813343 166.839 -52.627903 76.272873 -52.171288 71.865997 -16.131596 47.131134
14400000000 -28.004889 164.13773 -52.532303 56.682491 -52.726852 52.762913 -15.702974 46.059261
14410000000 -28.504213 164.76392 -51.944431 41.309353 -51.22348 34.259789 -15.269292 45.029278
14420000000 -29.532419 168.87096 -53.1968 14.58799 -53.129463 4.8440738 -14.841626 44.470032
14430000000 -28.504261 174.66475 -52.385818 0.98782849 -52.596466 -1.1307459 -14.467486 44.344559
14440000000 -28.265692 175.3934 -51.803219 -25.696424 -51.443336 -25.298746 -14.112127 43.596306
14450000000 -26.77879 178.51097 -53.208679 -41.366386 -52.280941 -52.173359 -13.859327 42.48299
14460000000 -26.257511 172.06287 -52.300865 -59.344398 -52.588326 -65.330185 -13.646622 41.302567
14470000000 -26.217224 170.59776 -53.310448 -79.253845 -53.18045 -89.023216 -13.441896 40.592964
14480000000 -26.433893 167.65562 -51.655045 -95.104965 -52.212006 -104.36366 -13.297011 40.109573
14490000000 -27.246187 166.24435 -51.927376 -115.49732 -52.768669 -124.29156 -13.223617 39.639454
14500000000 -28.096071 173.81572 -52.259094 -132.65984 -53.226219 -139.29453 -13.300509 38.584183
14510000000 -27.725603 176.33321 -51.933609 -147.02097 -53.309849 -148.181 -13.45153 37.28236
14520000000 -27.637873 -176.15666 -50.474251 -159.49463 -50.688915 -158.21808 -13.485684 35.610798
14530000000 -26.310305 -177.24579 -49.002678 172.50539 -49.668873 171.18643 -13.368997 33.923561
14540000000 -25.686436 -178.32402 -48.434635 148.79646 -48.735081 147.77197 -13.163227 32.825668
14550000000 -24.561205 174.23328 -49.471794 118.94327 -49.607903 119.3727 -12.974154 32.72213
14560000000 -24.815994 169.71848 -49.958523 115.11373 -49.870106 113.51743 -12.875196 32.897732
14570000000 -25.064285 166.55138 -48.316704 94.820831 -48.451809 92.939743 -12.931508 33.506165
14580000000 -25.325817 170.04353 -48.024693 74.758354 -48.214287 71.760353 -12.963016 33.812275
14590000000 -25.480574 170.42278 -46.855385 55.364971 -47.578564 52.031792 -12.993612 33.61631
14600000000 -25.263823 179.46872 -45.587219 32.477875 -46.289154 31.893225 -12.947506 33.438114
14610000000 -24.157328 -179.92372 -44.962723 6.8365998 -45.413853 7.6897917 -12.897758 33.356106
14620000000 -23.35008 179.13895 -44.751049 -16.412731 -45.264477 -16.841358 -12.833224 33.381844
14630000000 -22.680939 174.07887 -44.029404 -40.427517 -44.58123 -39.550137 -12.832536 33.157059
14640000000 -22.494152 168.98918 -43.937725 -65.528259 -44.307644 -64.095024 -12.81182 32.41898
14650000000 -22.699144 164.51759 -44.054474 -87.781563 -44.089092 -86.340271 -12.731305 31.455667
14660000000 -22.806702 162.25775 -43.785999 -109.3035 -43.729141 -108.45194 -12.545199 30.287413
14670000000 -23.413231 162.42166 -43.173622 -132.6235 -43.417183 -134.49152 -12.297504 29.578234
14680000000 -22.973221 166.66556 -43.613594 -156.65208 -43.728119 -157.38666 -12.050056 29.374479
14690000000 -22.638508 167.46452 -43.242477 -174.32919 -43.33136 -174.81108 -11.888467 29.328051
14700000000 -21.640577 168.61745 -42.401157 163.08665 -42.817081 161.80261 -11.791185 29.227329
14710000000 -21.184647 164.50641 -42.117016 136.61305 -42.282402 136.52321 -11.787929 28.628937
14720000000 -20.841198 161.97 -42.083473 110.76833 -42.338211 110.89246 -11.872508 27.767445
14730000000 -20.840445 155.34953 -42.687695 87.201767 -42.796326 88.176743 -11.951836 26.754589
14740000000 -21.169968 152.58144 -42.944931 67.125259 -42.819263 68.04364 -12.035017 25.434217
14750000000 -21.54574 149.8945 -42.656006 48.249367 -42.447304 47.382492 -12.054996 23.848438
14760000000 -21.636753 151.42142 -42.052608 26.076162 -42.230297 25.021746 -12.043665 21.750095
14770000000 -21.619595 150.21419 -42.103973 1.5972698 -41.862865 1.3992444 -12.044718 19.977919
14780000000 -21.077164 152.61943 -41.679302 -20.705038 -41.845375 -22.389675 -12.017591 19.037468
14790000000 -20.585266 149.91336 -41.477886 -45.595913 -41.717762 -46.985985 -12.015901 18.679918
14800000000 -20.006603 149.1552 -41.742802 -69.283592 -41.948952 -70.472603 -12.098586 18.64031
14810000000 -19.753239 143.22444 -42.17971 -93.859093 -42.373734 -93.716324 -12.195563 18.502045
14820000000 -19.995808 141.71159 -42.548893 -111.33347 -42.751591 -112.80447 -12.36417 17.964529
14830000000 -20.162294 137.30836 -42.270607 -132.4366 -42.614166 -130.76717 -12.553994 17.390549
14840000000 -20.86895 137.00359 -42.038879 -154.97272 -41.917542 -154.31496 -12.722459 17.161566
14850000000 -21.044319 136.99855 -42.110027 -176.91318 -42.089973 -176.27774 -12.886695 17.138395
14860000000 -21.090425 137.54758 -42.28437 158.62833 -41.94302 158.76578 -13.086843 17.26252
14870000000 -21.099169 135.49791 -42.370972 140.10797 -42.07745 140.60072 -13.328814 16.824465
14880000000 -20.72858 136.17369 -42.359966 117.85168 -41.896667 114.95422 -13.518699 15.645409
14890000000 -20.296925 130.29575 -42.077259 97.140762 -42.054676 93.676163 -13.591479 14.305629
14900000000 -20.331858 126.30013 -42.289383 72.629242 -42.226658 71.366295 -13.536858 13.64883
14910000000 -20.428675 122.99464 -42.926697 51.533459 -42.81181 48.846848 -13.413634 14.415078
14920000000 -20.7008 121.82153 -42.872612 32.826771 -42.79023 32.262146 -13.337835 16.131226
14930000000 -20.916147 119.57626 -42.807419 14.511932 -43.070351 12.652181 -13.436574 17.789076
14940000000 -21.551918 121.59626 -42.130379 -6.1655741 -42.411659 -4.8195114 -13.780459 19.279009
14950000000 -21.478037 122.79791 -42.136208 -31.109587 -41.966534 -29.362469 -14.097542 20.245209
14960000000 -21.544338 123.00052 -42.383236 -53.082993 -41.957333 -52.527714 -14.338006 20.31152
14970000000 -21.589281 122.57915 -42.084499 -75.880905 -42.001301 -76.001198 -14.439128 20.431467
14980000000 -21.546227 119.97871 -42.677513 -96.648033 -42.258011 -98.240433 -14.490162 21.002668
14990000000 -21.92639 115.27686 -42.53627 -116.61021 -42.454361 -118.353 -14.536286 21.675928
15000000000 -22.477886 113.96001 -42.690929 -139.03018 -42.576691 -139.80537 -14.702116 22.152355
15010000000 -22.733181 111.12691 -43.003075 -155.29402 -42.808636 -159.05495 -14.801218 22.393011
15020000000 -23.497984 111.83681 -42.114006 -174.64508 -42.23877 -177.87085 -14.734508 22.212772
15030000000 -23.333721 113.25459 -42.135971 161.47546 -42.242558 160.20116 -14.442799 22.506428
15040000000 -23.666523 114.91056 -41.889336 141.46924 -41.931286 140.63945 -14.09648 23.845634
15050000000 -23.383085 115.75836 -41.71254 118.27563 -41.554741 117.3502 -13.841168 26.290762
15060000000 -23.419903 116.62558 -41.972637 97.756981 -41.80888 94.773949 -13.78813 28.854893
15070000000 -23.353657 115.34653 -41.78698 76.703316 -41.707218 74.67395 -13.875916 30.844145
15080000000 -23.889391 115.73768 -41.654507 54.643726 -41.561699 52.318565 -14.023854 31.350414
15090000000 -24.28721 114.38461 -41.825069 34.648094 -41.700378 31.087429 -14.131886 30.640015
15100000000 -25.077047 118.32792 -41.663452 14.643251 -41.657238 13.252031 -14.13172 29.48938
15110000000 -24.834646 118.79942 -41.057232 -4.7785425 -41.088333 -8.6083593 -13.993329 28.734432
15120000000 -25.638012 122.17688 -40.718811 -29.759096 -40.850643 -31.315338 -13.792059 28.295298
15130000000 -24.792421 123.30767 -40.90659 -51.135017 -40.820038 -53.308552 -13.650021 27.734489
15140000000 -25.017805 123.41753 -40.719795 -72.643051 -40.764137 -74.157814 -13.534524 27.270748
15150000000 -24.207474 124.89654 -40.513 -94.560226 -40.473396 -95.859055 -13.360308 27.018991
15160000000 -24.180376 122.61672 -40.368736 -115.30785 -40.454132 -117.5622 -13.186804 26.921421
15170000000 -24.182135 121.57459 -40.103912 -138.20505 -40.075184 -139.6162 -13.050756 27.465511
15180000000 -24.358257 124.11539 -40.114712 -160.06619 -40.226238 -162.52419 -12.982885 28.3204
15190000000 -23.908289 125.2013 -39.843506 179.78418 -39.93314 178.17163 -13.051365 28.605354
15200000000 -24.377018 125.42742 -39.546894 155.79706 -39.52631 153.88904 -13.255034 28.287573
15210000000 -23.966124 128.48422 -39.447254 133.75031 -39.495049 131.49103 -13.472092 27.405407
15220000000 -23.955179 130.12985 -39.127274 110.59323 -39.288616 106.90369 -13.615703 26.138187
15230000000 -23.264397 128.30534 -39.352306 85.795685 -39.171097 85.559532 -13.680652 23.110783
15240000000 -23.381166 126.6616 -39.144497 64.111778 -39.029148 62.930126 -13.712611 21.984655
15250000000 -23.124796 123.99818 -39.145161 40.416149 -38.961266 39.825001 -13.713737 21.267693
15260000000 -23.226185 122.0786 -39.102993 19.390362 -39.085217 16.839237 -13.683059 20.961367
15270000000 -23.063688 121.71173 -38.771519 -3.1252847 -38.907291 -3.5697379 -13.617559 21.446753
15280000000 -23.083538 117.00136 -38.648106 -26.219143 -38.558796 -26.797779 -13.5246 22.528744
15290000000 -23.483791 118.74594 -38.437084 -51.156891 -38.492207 -51.239296 -13.523135 24.005302
15300000000 -23.157692 119.15279 -38.681767 -75.485832 -38.507343 -75.988243 -13.66383 25.566719
15310000000 -22.915674 119.42374 -38.757328 -99.025307 -38.664307 -100.05442 -13.879168 26.740213
15320000000 -22.758482 115.73537 -38.994835 -121.08791 -38.980061 -121.13089 -14.148203 27.048927
15330000000 -22.946529 116.96204 -38.881588 -145.23709 -38.664932 -146.26865 -14.351781 26.886425
15340000000 -22.562101 113.50594 -39.060036 -167.42526 -39.036407 -168.1333 -14.464964 26.541058
15350000000 -22.950239 111.13583 -38.87941 168.79668 -38.764568 167.74074 -14.441391 26.55863
15360000000 -23.03558 107.78748 -38.984398 144.18044 -38.974483 144.08339 -14.403237 26.772408
15370000000 -23.53668 106.1572 -39.518829 119.77749 -39.42778 119.23964 -14.353916 26.643957
15380000000 -23.92396 102.85789 -39.689568 100.19009 -39.641682 98.914894 -14.294533 26.349861
15390000000 -24.285929 106.90648 -39.724991 76.008743 -39.613075 75.302299 -14.114912 26.308981
15400000000 -24.017033 101.72846 -39.79538 53.751961 -39.609474 52.380707 -13.879506 26.718416
15410000000 -24.372578 102.53822 -39.84198 27.067879 -39.669178 27.029013 -13.665925 28.106579
15420000000 -24.274258 99.363289 -40.196159 5.5948968 -40.143387 3.3501549 -13.591748 30.147768
15430000000 -24.557837 98.850136 -40.577953 -22.328953 -40.561375 -23.478998 -13.647734 31.757437
15440000000 -24.705744 92.847321 -41.640141 -42.803921 -41.411736 -44.759109 -13.885623 32.157482
15450000000 -25.507051 93.313004 -41.87207 -62.982891 -42.044319 -64.246353 -14.159706 31.206598
15460000000 -25.827185 86.894875 -41.781902 -84.198814 -41.790001 -84.944984 -14.347747 29.409391
15470000000 -27.034712 90.28389 -41.903748 -108.15247 -41.954567 -108.93568 -14.339033 27.696609
15480000000 -27.398092 85.188026 -41.956985 -136.498 -41.850727 -136.16287 -14.195213 26.84218
15490000000 -28.381182 91.63092 -42.965218 -157.56628 -42.876637 -160.09029 -14.067057 26.744484
15500000000 -28.336157 84.133995 -43.423588 177.16968 -43.346535 177.37688 -13.959648 27.143291
15510000000 -29.466255 87.980087 -44.57235 155.54922 -44.310181 153.81766 -13.916475 27.638775
15520000000 -29.097412 83.414978 -45.546032 135.52637 -45.13316 135.0497 -13.891106 28.300592
15530000000 -30.237309 81.748367 -45.337383 114.40876 -44.99947 112.32264 -13.858841 29.310791
15540000000 -31.12072 76.234756 -46.196564 89.987419 -46.064041 86.537376 -13.895471 30.775913
15550000000 -32.987904 75.372925 -46.840416 69.569328 -46.950294 65.612518 -13.97492 32.364399
15560000000 -35.423313 68.134277 -47.843395 47.091995 -47.943363 44.675442 -14.139271 33.376629
15570000000 -37.956097 92.226967 -48.542171 22.182497 -48.480942 23.167349 -14.371846 33.872761
15580000000 -40.121387 71.293251 -49.186619 4.2037678 -48.903286 2.991971 -14.581124 33.784245
15590000000 -44.346878 116.4719 -49.77319 -23.005478 -49.681679 -28.692457 -14.710612 33.16362
15600000000 -45.836853 124.2265 -52.325684 -47.412613 -52.180325 -47.842369 -14.675797 32.137482
15610000000 -43.464893 152.87425 -56.88245 -65.527153 -56.209496 -68.254425 -14.549806 31.154413
15620000000 -52.38213 131.88809 -57.224922 -48.512711 -57.776562 -64.263687 -14.326196 30.546385
15630000000 -42.812977 -138.3335 -56.736912 -66.448021 -56.795853 -61.878395 -14.129829 30.752077
15640000000 -41.391602 -137.2757 -55.619289 -79.383614 -55.916195 -91.901085 -13.915904 32.147572
15650000000 -37.238602 -130.20772 -56.515881 -94.870041 -56.773132 -101.38968 -13.790404 33.790958
15660000000 -34.860943 -128.92384 -59.917374 -120.89106 -61.64167 -126.8732 -13.812133 35.487804
15670000000 -32.168129 -138.90149 -57.155762 -81.925125 -57.922703 -91.286957 -13.993082 36.601582
15680000000 -31.152218 -138.39528 -54.914146 -106.99524 -56.30801 -101.89664 -14.237296 36.669537
15690000000 -29.637852 -145.18796 -53.051651 -127.52746 -53.438057 -123.06081 -14.492481 36.173031
15700000000 -29.920109 -146.71355 -51.929462 -150.41179 -52.036789 -148.36272 -14.635244 36.058292
15710000000 -28.79126 -144.22551 -51.156681 -170.35582 -51.453987 -168.21791 -14.632341 36.137459
15720000000 -28.355904 -146.93115 -50.789253 168.65088 -50.521175 169.74481 -14.624073 36.2318
15730000000 -27.808506 -140.65839 -50.132992 147.89478 -49.745682 151.79079 -14.615815 36.095467
15740000000 -27.056253 -143.4239 -49.70562 128.85663 -48.811409 127.79713 -14.634528 35.88998
15750000000 -26.22505 -142.4832 -48.54583 109.04936 -48.479183 106.85519 -14.492314 36.04707
15760000000 -25.644678 -146.18146 -47.829269 87.661324 -47.823376 85.115784 -14.227417 37.091118
15770000000 -25.119734 -147.69345 -46.985714 68.264511 -47.118824 68.645012 -13.834436 39.532871
15780000000 -24.641546 -150.58296 -46.240799 42.327236 -46.408642 41.20042 -13.583189 42.392223
15790000000 -24.36661 -152.70718 -45.961372 18.68593 -46.034462 17.498314 -13.507191 45.326885
15800000000 -24.136768 -153.16846 -45.501694 -5.8558011 -45.942879 -7.406086 -13.582684 47.303204
15810000000 -23.701893 -153.10796 -45.601238 -30.818211 -46.035442 -28.508459 -13.772393 47.839016
15820000000 -23.596943 -154.39398 -45.590424 -49.49456 -45.355473 -48.275452 -13.87568 46.962627
15830000000 -23.082544 -150.84985 -45.445267 -76.257065 -45.28487 -75.525391 -13.774041 45.493519
15840000000 -22.544968 -153.04028 -45.535084 -94.766205 -45.266491 -93.280258 -13.497348 43.979134
15850000000 -22.507582 -152.98959 -45.422157 -115.60601 -44.989285 -116.91943 -13.175261 42.641518
15860000000 -22.062271 -152.93762 -44.708904 -136.63484 -44.654907 -138.2813 -12.833343 41.913513
15870000000 -21.840694 -155.60515 -44.906643 -160.33565 -44.784988 -161.66406 -12.502448 41.473927
15880000000 -21.841339 -155.13733 -44.325401 179.97705 -44.146473 176.9084 -12.175897 41.312832
15890000000 -21.709919 -156.36711 -44.267883 155.57213 -44.600208 153.93649 -11.862904 41.563881
15900000000 -21.537832 -156.69185 -43.957893 132.03081 -44.157272 133.71124 -11.587831 41.973885
15910000000 -21.294207 -157.60869 -44.41584 107.28343 -44.213619 107.28013 -11.447551 42.137611
15920000000 -21.025406 -157.6348 -44.642315 88.221603 -44.523529 87.772301 -11.408749 41.940266
15930000000 -20.704163 -156.30818 -45.087704 65.923241 -44.730053 65.487579 -11.471425 41.207157
15940000000 -20.32572 -156.70296 -44.679165 48.611115 -44.46553 46.336063 -11.561658 39.753433
15950000000 -19.942759 -156.65633 -43.931301 28.812927 -44.010513 25.763664 -11.597778 37.660263
15960000000 -19.749193 -157.35854 -43.665218 1.0552648 -43.499237 -1.4138459 -11.584912 34.977329
15970000000 -19.58651 -156.15337 -43.81395 -20.256422 -44.230431 -22.335379 -11.501701 32.194214
15980000000 -19.249409 -156.3472 -44.133137 -43.992668 -44.320854 -42.985092 -11.328554 29.702509
15990000000 -19.206301 -156.90036 -44.172592 -65.399567 -44.214619 -64.959312 -11.096469 27.943253
16000000000 -19.139765 -155.93933 -44.783279 -86.926239 -44.431095 -85.738457 -10.875658 27.20985
16010000000 -18.81444 -155.47473 -44.547615 -106.03558 -44.084057 -106.47871 -10.750941 27.179098
16020000000 -18.536829 -155.64801 -44.527302 -122.89503 -44.172832 -125.82422 -10.792575 27.283484
16030000000 -18.15027 -155.80803 -44.066319 -145.33975 -43.826996 -148.19835 -10.970812 26.532249
16040000000 -17.833132 -156.63504 -43.930073 -168.88689 -43.727161 -172.04608 -11.26792 24.845051
16050000000 -17.388275 -157.1534 -43.952808 168.64449 -44.119431 165.95483 -11.536513 22.48889
16060000000 -17.11657 -158.30089 -43.573147 146.1302 -43.86726 144.97855 -11.736433 19.955292
16070000000 -16.928833 -157.87286 -44.000675 124.64302 -44.129913 122.6638 -11.826976 17.627048
16080000000 -16.532961 -158.23985 -43.668316 101.5432 -43.622074 101.15081 -11.957874 15.339055
16090000000 -16.46175 -158.06598 -43.900902 77.796219 -43.951004 77.249672 -12.113799 12.991614
16100000000 -16.051607 -157.21187 -44.341801 57.367928 -44.255386 56.89772 -12.262046 10.675607
16110000000 -15.79089 -157.6324 -44.441162 38.288635 -44.207958 37.193787 -12.31477 8.9852009
16120000000 -15.457107 -158.22182 -44.01123 17.039101 -43.751911 15.652543 -12.27925 8.4829779
16130000000 -15.093394 -159.03941 -43.937298 -5.0704961 -43.825546 -8.7501841 -12.304368 9.4505386
16140000000 -14.839463 -160.04526 -43.953266 -29.83803 -43.891933 -31.531729 -12.488346 11.285725
16150000000 -14.5363 -161.93257 -44.2836 -52.031097 -44.407673 -54.581448 -12.884432 12.56879
16160000000 -14.332673 -162.63641 -44.892036 -72.749649 -44.958302 -72.31414 -13.456921 12.333902
16170000000 -14.011608 -163.71724 -45.172359 -90.980873 -45.108135 -90.940254 -14.056047 10.437291
16180000000 -13.772925 -164.25871 -44.935989 -113.80851 -44.548336 -115.83965 -14.474385 7.4030619
16190000000 -13.544464 -164.59933 -45.052265 -133.17746 -44.910789 -136.96698 -14.673963 4.8820295
16200000000 -13.22004 -164.08836 -45.18219 -154.22792 -45.131916 -157.76653 -14.71911 3.5006652
16210000000 -12.85288 -165.12651 -45.20546 -174.81619 -45.121658 -177.82903 -14.788269 2.822829
16220000000 -12.61473 -165.43735 -45.41869 167.25734 -45.533451 163.93436 -14.84072 2.4567857
16230000000 -12.304075 -167.56979 -44.873547 145.53003 -44.925713 144.10219 -14.875556 2.0514436
16240000000 -12.19275 -168.0914 -44.791161 121.78854 -44.841362 120.18039 -14.906074 2.3619487
16250000000 -11.912376 -170.38788 -44.956715 101.01418 -44.931122 101.62576 -14.908696 4.0518336
16260000000 -11.864889 -171.55446 -45.102943 78.661636 -44.730247 76.505623 -15.044782 6.7286601
16270000000 -11.673801 -173.2287 -45.810223 61.135193 -45.53299 59.300243 -15.346224 9.3947906
16280000000 -11.537105 -173.06386 -45.209209 44.81221 -45.097385 40.1147 -15.879457 10.546432
16290000000 -11.10206 -174.54095 -44.641239 21.20886 -44.726288 18.895638 -16.482483 9.5503292
16300000000 -10.949249 -174.86862 -44.2257 -1.0091196 -44.140549 -2.9566226 -16.968863 6.6413217
16310000000 -10.513881 -176.1138 -44.090828 -26.330397 -44.294418 -28.635962 -17.178665 3.008544
16320000000 -10.324521 -176.91554 -44.422607 -50.705032 -44.313873 -50.479752 -17.19029 0.35295126
16330000000 -10.008239 -178.96245 -44.804996 -71.215157 -44.59869 -74.000092 -17.116034 -0.97253442
16340000000 -10.025661 179.98518 -44.358475 -93.415665 -44.508137 -94.154007 -17.059801 -1.9983972
16350000000 -9.8750124 178.53862 -44.615726 -116.79701 -44.301048 -117.88871 -17.08029 -2.7399032
16360000000 -9.8838549 177.99413 -44.895947 -138.6925 -44.688446 -141.25922 -17.137587 -2.701962
16370000000 -9.7021551 176.99939 -44.965729 -159.45401 -44.924618 -162.50385 -17.264582 -1.686424
16380000000 -9.5521927 176.3119 -45.173752 -179.96919 -45.420914 176.67868 -17.600487 0.10139266
16390000000 -9.2800055 174.8615 -45.224995 156.92128 -45.338844 155.1817 -18.25733 1.0999608
16400000000 -9.0426769 174.08781 -45.326454 136.34348 -45.729603 135.5645 -19.179628 0.79242539
16410000000 -8.7316732 171.78107 -45.368523 110.84518 -45.354965 109.89877 -20.195131 -2.1667924
16420000000 -8.6409292 170.62311 -45.725994 88.634644 -45.881424 88.759331 -20.988503 -6.7138944
16430000000 -8.4323053 168.9968 -46.684212 66.682556 -46.66452 65.475357 -21.440371 -10.857402
16440000000 -8.4284868 168.41824 -47.041714 48.849857 -47.053398 46.763187 -21.811979 -13.280761
16450000000 -8.2935724 167.57631 -47.273235 28.737253 -47.185459 25.189375 -22.302389 -13.795935
16460000000 -8.2162933 167.6563 -47.331554 9.4288778 -47.507561 7.7894106 -22.877863 -13.72205
16470000000 -8.0229836 166.65022 -47.616985 -11.169595 -47.856297 -12.985269 -23.390818 -12.397202
16480000000 -7.8695135 165.9911 -47.581497 -29.704903 -47.690735 -32.496273 -23.594406 -8.5675755
16490000000 -7.6602783 164.44318 -47.787739 -49.235882 -48.091938 -50.888191 -23.680967 -1.4737287
16500000000 -7.5141764 162.9729 -47.840912 -72.39682 -48.108173 -74.060196 -23.891678 9.1766243
16510000000 -7.3637109 161.16441 -48.680294 -91.394073 -48.678303 -90.583046 -24.520103 21.187521
16520000000 -7.2834916 159.94875 -48.734417 -108.32401 -48.760002 -110.1896 -25.526157 33.566879
16530000000 -7.146009 158.60928 -49.227283 -127.39228 -49.532578 -127.99314 -26.828583 41.87994
16540000000 -7.09094 158.30486 -48.600376 -142.64774 -48.884563 -143.53545 -28.194613 43.392372
16550000000 -6.8925109 157.78899 -48.27597 -162.58084 -48.002537 -161.62132 -28.820126 37.857464
16560000000 -6.7257428 157.40393 -48.194752 175.68405 -47.856533 173.21802 -28.308517 33.20863
16570000000 -6.5391483 156.46344 -48.379246 154.25491 -48.787296 153.74614 -27.612883 31.700176
16580000000 -6.3747277 155.69525 -48.497631 136.40247 -48.138187 136.48448 -27.036715 34.643463
16590000000 -6.2055731 154.15549 -47.686432 116.78598 -47.961823 115.3055 -26.674566 36.875313
16600000000 -6.1260629 152.71805 -48.21389 92.843315 -48.253311 92.051231 -26.332893 39.563793
16610000000 -6.0280919 151.38316 -48.306175 79.821358 -48.369762 80.184128 -25.741747 41.816658
16620000000 -5.9500055 150.25494 -47.423195 61.676723 -47.650818 61.628334 -25.117069 47.290031
16630000000 -5.8086395 149.29971 -46.558361 39.630508 -46.456451 39.08913 -24.427958 55.843117
16640000000 -5.6457605 148.47467 -46.380722 18.119419 -46.39246 17.689144 -24.124557 65.827545
16650000000 -5.4412227 147.65219 -46.163761 -6.2761569 -46.050083 -6.1973038 -24.188778 75.244156
16660000000 -5.2362309 146.6723 -46.278404 -28.112755 -46.180115 -28.604115 -24.699938 82.639061
16670000000 -5.0339146 145.74171 -46.401615 -48.924786 -46.256073 -50.343285 -25.488678 85.530167
16680000000 -4.855556 144.3011 -46.512817 -69.751221 -46.326839 -71.2397 -26.078211 82.400604
16690000000 -4.7496896 143.2202 -46.145481 -89.532303 -46.092361 -91.849358 -25.964424 77.344872
16700000000 -4.6298237 141.99637 -45.496689 -109.65809 -45.647743 -112.07696 -25.083715 73.169357
16710000000 -4.5242081 140.92877 -45.231789 -135.1487 -45.062634 -135.40115 -23.762194 71.377052
16720000000 -4.409379 139.66472 -45.068863 -155.78 -44.955956 -157.4809 -22.663349 71.356346
16730000000 -4.2681699 138.68129 -44.671135 179.47444 -44.702766 178.90656 -21.829691 72.704117
16740000000 -4.0875158 137.28661 -44.791561 156.18651 -44.822544 154.17967 -21.208614 74.759041
16750000000 -3.9326959 136.07768 -45.422176 133.41945 -45.343365 133.12808 -20.72295 77.077942
16760000000 -3.7374735 134.55801 -45.09935 113.7981 -44.947269 111.96527 -20.443504 78.658264
16770000000 -3.6004307 133.26256 -45.194542 90.708168 -45.117767 89.39048 -20.460526 79.633698
16780000000 -3.4537263 131.76886 -45.081974 71.165703 -45.040855 69.642899 -20.717543 79.827103
16790000000 -3.335674 130.67993 -44.955688 47.961056 -45.044472 46.174168 -21.143774 78.049019
16800000000 -3.2204404 129.18558 -44.684811 25.129032 -44.747654 25.57933 -21.651197 73.698463
16810000000 -3.1211791 128.10184 -44.637981 2.3757951 -44.723938 0.5484935 -22.085129 67.756386
16820000000 -2.9948983 126.64003 -44.712502 -23.511036 -44.607117 -22.942253 -22.163771 61.184582
16830000000 -2.8772674 125.246 -44.836079 -45.178997 -44.885109 -46.232296 -21.802822 55.512669
16840000000 -2.7461414 123.62679 -45.553757 -66.633331 -45.38052 -67.765015 -21.285069 52.064121
16850000000 -2.6182432 122.14281 -45.210361 -85.772018 -44.959362 -86.797478 -20.898777 51.747185
16860000000 -2.4813077 120.41357 -45.070976 -108.38401 -44.866722 -111.12495 -20.680647 54.017147
16870000000 -2.3714104 118.93382 -44.915867 -130.73784 -44.851032 -134.12656 -20.807384 57.283684
16880000000 -2.2549877 117.41405 -44.933544 -153.31573 -45.021637 -156.42889 -21.325352 61.155064
16890000000 -2.143718 116.09428 -44.866673 -178.46164 -44.938133 179.32703 -22.327721 63.878448
16900000000 -2.0535109 114.725 -45.442337 155.92494 -45.4674 155.53595 -23.711329 65.642815
16910000000 -1.9525657 113.48203 -45.911678 135.91899 -45.889141 134.58682 -25.32527 66.152611
16920000000 -1.8658826 112.06551 -45.884136 113.94172 -45.845615 112.88612 -26.884254 65.58387
16930000000 -1.7723296 110.6328 -46.130264 91.128113 -46.002384 91.304939 -28.050413 62.713573
16940000000 -1.6805474 108.97695 -46.346935 69.88871 -46.222343 67.991882 -28.891251 60.103794
16950000000 -1.5950058 107.28651 -46.08482 46.887848 -46.174316 45.676704 -29.379066 61.395115
16960000000 -1.5169278 105.53939 -46.429031 23.386625 -46.343967 23.485922 -28.889593 68.392487
16970000000 -1.4303595 103.91355 -46.43074 2.0894291 -46.299698 0.83527184 -27.648203 77.874512
16980000000 -1.3530991 102.24233 -46.790081 -21.841597 -46.528297 -23.82703 -26.290533 88.542305
16990000000 -1.2702934 100.75166 -47.15535 -45.155598 -46.997723 -47.303352 -24.8176 98.561935
17000000000 -1.1871949 99.319046 -47.331921 -66.491814 -47.317535 -69.498756 -23.65131 106.75617
