!Keysight Technologies,P9374A,MY57211807,A.19.30.04
!Date: Friday, May 08, 2026 14:34:22
!Correction: S11(C  2-Port  ) 
!S21(C  2-Port  ) 
!S12(C  2-Port  ) 
!S22(C  2-Port  ) 
!S2P File: Measurements: S11, S21, S12, S22:
# Hz S  dB   R 50
13000000000 -19.012762 58.983185 -43.86425 157.12453 -43.825939 160.87581 -8.7219276 23.270809
13010000000 -19.059738 60.070694 -42.660645 136.79306 -42.036129 138.48766 -8.7897139 19.504755
13020000000 -19.227791 60.369797 -42.091179 114.64012 -41.485424 112.81203 -8.9371071 16.027868
13030000000 -19.316118 61.975948 -41.484688 87.193199 -41.34071 84.203598 -9.0741596 12.624027
13040000000 -19.692114 61.105934 -42.570789 67.784798 -42.410156 67.03125 -9.2303247 9.3519239
13050000000 -19.825537 63.581978 -42.426567 53.787365 -42.124081 51.714653 -9.4821367 6.218915
13060000000 -19.906513 63.813961 -40.723309 34.620857 -40.723347 31.586674 -9.8138342 3.3335319
13070000000 -19.78495 63.375652 -40.021854 9.8297243 -40.138454 7.4143643 -10.201464 0.52773607
13080000000 -19.842466 63.635815 -39.349289 -16.155302 -39.572247 -18.013798 -10.634349 -2.6653545
13090000000 -19.480036 61.842533 -39.696667 -44.075562 -39.695255 -45.090664 -11.09764 -5.8863535
13100000000 -19.676777 60.781719 -40.1362 -63.109779 -40.296085 -65.760109 -11.495048 -8.223958
13110000000 -19.45887 60.80925 -39.781364 -82.553688 -40.026638 -83.516731 -11.885298 -10.428893
13120000000 -19.742479 60.393791 -39.250946 -105.54132 -39.426151 -106.64075 -12.353392 -12.415813
13130000000 -19.481192 60.860428 -38.967297 -130.11691 -39.234787 -131.09599 -12.959967 -14.231481
13140000000 -19.674076 62.516682 -39.10463 -154.30287 -39.241726 -154.21805 -13.655805 -15.919292
13150000000 -19.292711 61.551208 -39.10461 -176.21161 -39.210747 -175.46173 -14.266842 -17.113123
13160000000 -19.553799 61.933731 -39.356148 163.56259 -39.23328 164.99178 -14.777102 -17.761488
13170000000 -19.380184 61.718758 -38.936493 143.61867 -38.57272 143.10651 -15.271648 -17.962025
13180000000 -19.374622 60.444004 -38.305042 119.46404 -38.195473 118.47192 -15.93718 -17.844854
13190000000 -19.091593 58.779221 -38.074253 93.090706 -37.869308 92.23391 -16.855282 -16.87887
13200000000 -19.16811 55.800014 -38.12606 65.885559 -37.880424 65.299553 -17.909313 -15.608427
13210000000 -19.135649 53.645813 -39.203476 43.046162 -38.822708 41.282894 -18.909653 -14.5956
13220000000 -19.544662 51.877071 -39.416634 25.81216 -39.09753 23.979685 -19.639257 -13.328835
13230000000 -19.535849 52.066879 -39.158066 5.1830378 -38.903599 1.8308828 -20.108437 -10.357032
13240000000 -19.849918 53.951633 -38.442455 -14.503631 -38.487381 -17.392134 -20.45928 -6.1725659
13250000000 -19.331013 54.12355 -38.170135 -40.186588 -38.11253 -41.917027 -21.00057 1.1450342
13260000000 -19.360273 54.598457 -37.96357 -65.027534 -37.949287 -68.483009 -21.635136 11.199586
13270000000 -18.901569 52.163807 -38.37373 -90.597549 -38.564434 -93.795143 -21.974947 21.770275
13280000000 -18.865124 48.904381 -38.449379 -112.24796 -38.72044 -113.95866 -22.139824 29.740734
13290000000 -19.199514 43.981518 -38.702389 -135.20152 -38.980827 -135.88335 -21.982386 35.833172
13300000000 -19.665907 43.699593 -38.491554 -156.86359 -38.703934 -157.299 -21.393984 39.99173
13310000000 -19.888906 41.417412 -38.601307 -178.76021 -38.888435 -178.84148 -20.496428 43.607067
13320000000 -20.123808 40.874226 -38.424294 157.64145 -38.457508 157.80028 -19.53808 48.134335
13330000000 -20.272926 40.145805 -38.572746 135.55959 -38.573509 134.97153 -18.610407 51.987106
13340000000 -20.147409 42.467278 -38.588951 111.82821 -38.628479 111.00756 -17.868214 54.32037
13350000000 -19.958494 40.062237 -38.422619 89.11657 -38.514786 88.64016 -17.385532 54.976948
13360000000 -19.898518 40.116108 -38.253342 65.711433 -38.26965 66.459 -16.910559 53.92651
13370000000 -19.743824 37.052818 -38.206223 40.4291 -38.07439 40.913155 -16.293123 51.783478
13380000000 -19.670897 34.118839 -38.387218 14.927969 -38.245369 14.019696 -15.43737 49.627728
13390000000 -20.347017 29.547737 -39.188442 -9.1373482 -39.031353 -9.6947317 -14.563082 47.823868
13400000000 -20.531862 29.183176 -39.421719 -28.837814 -39.28091 -29.64715 -13.87251 46.632927
13410000000 -21.456289 24.103996 -39.011673 -49.874313 -38.832081 -51.047112 -13.423704 46.198719
13420000000 -22.100042 28.843424 -38.835606 -76.119629 -38.64679 -77.731094 -13.122238 45.027641
13430000000 -22.105427 28.404364 -38.719467 -103.34924 -38.659077 -105.17895 -12.92369 42.884674
13440000000 -21.835613 30.304945 -39.391399 -128.03287 -39.3078 -129.18694 -12.741725 39.71822
13450000000 -21.361237 28.751713 -39.996128 -153.37462 -39.637962 -155.12083 -12.483424 36.028374
13460000000 -20.963314 24.210827 -40.374699 -174.6385 -40.204506 -177.82127 -12.206364 32.655441
13470000000 -21.529884 18.135538 -40.451271 159.84007 -40.32312 157.99329 -11.9775 30.007891
13480000000 -21.780552 16.47505 -40.910103 138.21312 -40.759373 133.57761 -11.843739 27.775326
13490000000 -23.095215 11.724774 -40.981125 114.66533 -41.105595 111.30544 -11.787776 25.593868
13500000000 -23.6724 16.015905 -41.14867 87.500183 -41.160057 84.907059 -11.842965 23.233496
13510000000 -24.362957 18.070992 -41.64854 60.841721 -41.66666 57.116871 -11.934272 20.879339
13520000000 -24.280603 20.893965 -42.810345 36.688641 -43.104668 34.3284 -12.035456 18.730141
13530000000 -24.121353 19.257755 -42.68372 13.748704 -42.785374 10.902015 -12.188812 16.968889
13540000000 -24.035185 16.38899 -43.593609 -13.048441 -44.370369 -14.501637 -12.370665 15.628877
13550000000 -24.177004 15.324964 -43.982155 -33.494537 -44.217262 -34.331654 -12.594301 14.349869
13560000000 -23.822456 11.159827 -44.253128 -62.682274 -44.475418 -61.281792 -12.873198 12.910372
13570000000 -25.085796 7.5365529 -45.088158 -87.375107 -45.549038 -86.842674 -13.144693 11.767052
13580000000 -25.032003 8.3859529 -46.018871 -111.83279 -46.27021 -109.4606 -13.288098 11.124817
13590000000 -26.428963 5.6925364 -46.316601 -138.62999 -46.816479 -134.36804 -13.377102 10.599106
13600000000 -26.971033 10.473234 -47.261139 -168.79794 -47.043541 -162.17502 -13.398632 10.866454
13610000000 -27.94252 21.059584 -49.332962 168.77611 -48.954784 175.14697 -13.440843 11.521532
13620000000 -27.070248 23.253471 -49.796112 146.3723 -48.441952 149.93848 -13.490566 12.596071
13630000000 -26.669401 24.891325 -49.771725 125.88016 -49.574867 126.35156 -13.546371 13.380831
13640000000 -25.965725 16.697651 -49.69492 93.788788 -49.167622 99.99868 -13.556308 14.101893
13650000000 -26.773834 10.420872 -50.506184 74.432716 -49.155346 77.190819 -13.495923 13.861952
13660000000 -27.04331 4.4310107 -49.68285 37.627956 -48.061829 38.467571 -13.394996 13.301819
13670000000 -29.20933 2.2185481 -49.161003 7.2243595 -48.537853 2.2200677 -13.234334 12.45064
13680000000 -30.073021 11.756516 -49.292755 -37.447098 -49.030918 -36.144615 -12.990703 11.998721
13690000000 -30.26622 26.557007 -51.805843 -67.669273 -50.651001 -65.485306 -12.709065 11.046021
13700000000 -28.07951 31.392756 -52.755493 -91.36956 -50.893356 -88.570999 -12.526242 10.184284
13710000000 -27.072605 28.639593 -51.000168 -103.65347 -49.806259 -110.80384 -12.309606 8.7682924
13720000000 -26.687326 22.967358 -48.432571 -134.68126 -47.711281 -142.54588 -12.20187 6.5731096
13730000000 -27.272465 18.615152 -46.20779 -170.00896 -46.242683 -177.02834 -12.088204 4.3860517
13740000000 -27.984947 13.972796 -45.836323 148.64079 -46.157383 147.77156 -12.003899 2.1100304
13750000000 -29.569454 16.742971 -45.797737 117.41705 -45.833542 119.18089 -11.904612 -0.12861294
13760000000 -29.136166 18.850754 -46.524937 88.71933 -45.699146 90.389458 -11.956737 -2.2774138
13770000000 -30.058558 19.57403 -46.440071 69.580833 -45.541378 64.545456 -12.054605 -4.7655439
13780000000 -29.582462 21.047312 -44.913967 51.454613 -45.27486 43.611542 -12.320419 -8.070466
13790000000 -29.10866 23.813244 -43.330273 19.744591 -43.841354 19.060789 -12.58295 -11.232348
13800000000 -28.051352 21.411901 -43.135803 -9.1492872 -42.854034 -8.2993298 -12.775094 -14.944679
13810000000 -27.328096 17.964029 -42.866531 -33.497021 -42.418606 -37.198574 -12.905483 -17.895679
13820000000 -26.950991 9.997345 -41.813915 -59.078144 -41.931698 -63.145367 -13.12812 -20.414137
13830000000 -26.675743 9.4117603 -41.54081 -87.375145 -41.978157 -89.424942 -13.457952 -21.879841
13840000000 -26.520857 -5.1965184 -41.19342 -111.11063 -41.539482 -110.25496 -13.88281 -23.304216
13850000000 -29.145941 -9.2176981 -40.764133 -135.52428 -40.648998 -134.1915 -14.426937 -24.87714
13860000000 -30.170441 -2.579118 -40.08567 -161.61208 -39.816666 -162.2569 -14.981301 -26.703232
13870000000 -30.245062 7.6772709 -39.744461 171.94849 -39.591072 168.64983 -15.526268 -27.894831
13880000000 -29.978439 9.233037 -39.873749 146.18951 -40.219864 144.36102 -16.035612 -28.594162
13890000000 -27.633366 11.670242 -39.463421 124.15324 -39.775322 125.11187 -16.648062 -28.608763
13900000000 -26.414679 -4.824192 -39.129799 100.03918 -38.84697 100.67224 -17.268511 -27.63266
13910000000 -26.903046 -14.138215 -38.480839 76.65435 -38.237179 74.043961 -17.927223 -26.986275
13920000000 -27.124964 -24.818813 -37.805515 48.037685 -37.936401 45.392521 -18.534143 -26.509769
13930000000 -28.60438 -33.608875 -38.10733 21.664249 -38.25909 21.162598 -18.921532 -25.100903
13940000000 -30.222961 -37.182369 -37.96962 -1.7693189 -38.061577 -2.6109753 -19.069347 -23.22238
13950000000 -31.757664 -29.183121 -38.050491 -25.512381 -37.897358 -26.725899 -19.115814 -20.6894
13960000000 -31.152521 -29.406898 -37.526825 -49.44347 -37.530525 -51.236904 -19.312178 -16.647226
13970000000 -30.614223 -29.401199 -37.381573 -75.686325 -37.50481 -77.657539 -19.370323 -11.798692
13980000000 -29.86375 -40.86375 -37.531502 -101.04091 -37.900887 -102.06736 -19.46665 -7.7808442
13990000000 -29.603851 -46.507973 -37.169704 -124.6462 -37.282787 -123.68981 -19.576008 -5.1963906
14000000000 -28.978409 -58.027184 -37.1063 -149.62057 -37.149162 -149.45012 -19.749052 -3.9654906
14010000000 -28.651886 -60.354851 -37.19165 -174.34697 -37.106213 -173.62233 -19.982359 -3.914798
14020000000 -28.146198 -67.828133 -37.224068 161.63162 -37.106792 159.89488 -20.100515 -3.6523657
14030000000 -28.042528 -74.862762 -37.060337 137.39539 -37.096165 137.58075 -20.060356 -3.4813643
14040000000 -28.669687 -85.25174 -37.031673 112.1161 -36.929241 111.73981 -20.050617 -4.035686
14050000000 -29.826151 -85.315689 -37.09473 87.767548 -36.879883 87.929726 -20.090511 -3.8599713
14060000000 -31.219486 -92.300308 -37.130669 63.443764 -36.907108 63.318943 -20.137356 -4.1183653
14070000000 -32.687538 -84.553925 -37.169518 37.642403 -36.803547 35.73037 -20.291904 -4.8124623
14080000000 -32.423035 -83.69706 -37.37318 13.37022 -37.335632 11.228621 -20.557503 -5.0755749
14090000000 -30.793795 -78.240891 -37.496906 -9.7844229 -37.279625 -10.178897 -20.609589 -3.822109
14100000000 -28.584017 -97.07885 -37.252163 -33.870319 -36.957108 -35.871975 -20.472746 -3.8917291
14110000000 -28.102551 -109.0487 -37.558441 -59.012856 -37.101063 -62.430347 -20.442671 -3.5052822
14120000000 -27.564922 -126.26649 -37.246994 -84.628632 -37.176331 -89.514442 -20.62018 -3.101757
14130000000 -28.127151 -136.19206 -37.353535 -111.89582 -37.728058 -115.47449 -20.984348 -1.7718616
14140000000 -29.160009 -143.85292 -37.955395 -138.19685 -38.03418 -139.02151 -21.382702 -1.8108584
14150000000 -30.526367 -136.72406 -38.361042 -160.88557 -38.297493 -163.59164 -21.781185 -2.8830197
14160000000 -29.713253 -135.29594 -38.224518 174.83005 -38.386677 170.28552 -22.008148 -5.1899047
14170000000 -29.654428 -133.52385 -38.356533 145.72827 -38.740437 142.89891 -22.220125 -6.9338784
14180000000 -28.835558 -138.26874 -39.376972 118.65914 -39.61095 117.73444 -22.532455 -6.8249178
14190000000 -28.40209 -143.63921 -39.835781 97.169785 -40.037582 93.569992 -23.248802 -4.3847909
14200000000 -27.984514 -151.25919 -40.137424 70.445938 -40.663727 68.10788 -24.060396 -0.34723565
14210000000 -28.161396 -153.07552 -40.665997 44.108749 -41.319664 42.991741 -25.314869 3.163487
14220000000 -27.511475 -158.44904 -41.553738 17.110115 -42.114681 18.950256 -26.796225 7.2581005
14230000000 -27.365986 -161.86551 -42.552685 -5.1291962 -42.84079 -2.9015241 -28.460171 13.508066
14240000000 -26.758757 -166.23843 -42.714909 -29.289087 -42.702511 -26.424076 -29.692152 26.480217
14250000000 -27.066475 -173.07635 -43.838902 -56.146812 -43.704521 -55.013905 -29.732658 42.928165
14260000000 -27.970453 -177.57417 -44.621094 -78.728897 -44.603321 -79.199417 -28.729912 58.56369
14270000000 -29.327808 -169.60858 -45.869892 -105.39833 -46.263916 -102.97858 -27.788137 70.337296
14280000000 -28.703693 -169.47673 -46.843536 -128.12971 -46.425926 -121.02076 -26.472244 80.255127
14290000000 -28.264484 -163.93939 -47.320324 -148.09863 -46.11916 -144.46964 -24.928215 84.983543
14300000000 -27.311583 -168.36661 -48.229725 -179.96059 -47.038963 178.58002 -23.582241 84.543526
14310000000 -26.365202 -172.48476 -49.693947 154.34334 -49.357388 153.67705 -22.290304 82.799004
14320000000 -26.477901 172.90823 -51.133968 130.38736 -50.27504 134.26714 -21.088661 81.462189
14330000000 -27.005358 171.03603 -52.857811 112.73621 -51.665394 112.63358 -19.82947 81.249603
14340000000 -28.293032 164.97797 -54.107391 85.952438 -51.657249 84.041473 -18.685469 81.334961
14350000000 -28.56008 174.70947 -54.325638 55.769829 -52.543579 41.11702 -17.782127 80.353828
14360000000 -29.128714 175.91428 -57.387611 11.611772 -55.378433 -2.0232942 -17.22551 79.580765
14370000000 -28.207697 -176.06787 -57.895576 -24.251385 -59.244602 -38.193954 -16.734596 78.649567
14380000000 -27.411127 177.55034 -62.96825 -80.870438 -63.931118 -51.636757 -16.299725 76.78141
14390000000 -27.166008 176.49448 -64.922562 -115.17161 -59.510277 -85.449074 -15.869856 73.897392
14400000000 -27.796625 169.89354 -61.381279 -148.70934 -55.567009 -143.13432 -15.441533 70.931496
14410000000 -27.734352 170.46913 -59.40554 167.84036 -53.87278 161.3336 -15.00793 67.824799
14420000000 -28.405077 167.2762 -55.390308 131.76724 -53.569992 117.17206 -14.591076 65.439888
14430000000 -28.021442 171.27295 -54.041275 95.415558 -53.654747 93.346809 -14.252796 63.174702
14440000000 -28.138487 168.81952 -53.552788 64.923019 -52.234688 64.007324 -13.997843 61.161503
14450000000 -27.465261 171.20216 -52.432934 39.141895 -51.612514 38.765297 -13.804116 59.29818
14460000000 -28.496687 169.09203 -50.938782 8.5711393 -49.882847 5.0762949 -13.600934 57.521694
14470000000 -28.102129 177.34801 -50.453171 -10.659362 -50.239529 -19.51708 -13.416698 55.244461
14480000000 -27.449835 -176.4117 -48.735058 -38.92868 -48.807652 -43.647346 -13.344522 53.493393
14490000000 -26.137833 -179.57222 -47.92651 -70.384781 -48.026436 -67.388206 -13.348031 52.191105
14500000000 -25.943371 176.22607 -48.674664 -101.99313 -47.484291 -101.23591 -13.45081 51.11763
14510000000 -26.046013 168.00943 -49.142792 -124.00742 -48.05484 -127.60912 -13.517347 49.448441
14520000000 -27.91007 169.34052 -49.196815 -140.53677 -48.171436 -150.69182 -13.626676 47.486198
14530000000 -28.062891 172.99716 -47.782627 -166.56717 -48.143093 -174.97235 -13.573971 45.51075
14540000000 -27.945168 -172.84755 -47.352654 171.76727 -47.93932 167.77121 -13.441054 44.167545
14550000000 -25.476164 -175.5208 -46.109669 141.42657 -45.892433 139.42555 -13.323879 43.473892
14560000000 -24.697201 -178.7822 -46.402847 107.22936 -46.060902 101.00323 -13.293768 43.50351
14570000000 -24.144691 171.5397 -48.936966 74.292839 -48.899216 65.993439 -13.250173 43.981915
14580000000 -24.812117 171.7234 -49.909939 66.54921 -51.12439 56.182625 -13.315789 43.702221
14590000000 -24.834517 169.75922 -49.626171 50.847031 -50.558811 49.449841 -13.281526 43.475857
14600000000 -24.963512 176.87878 -48.0779 31.301807 -48.462063 24.688377 -13.25843 42.543503
14610000000 -24.317469 175.47913 -46.829147 -1.2233649 -48.535831 -4.7978778 -13.204898 42.221916
14620000000 -23.84852 176.83351 -47.079853 -36.268867 -48.437305 -35.341904 -13.189822 41.800491
14630000000 -23.720098 171.97171 -49.279503 -67.489059 -50.852242 -58.363018 -13.210332 41.856781
14640000000 -23.508789 174.42798 -51.783718 -86.8983 -51.573734 -74.449455 -13.146715 41.251308
14650000000 -23.179514 172.79451 -52.293526 -100.19891 -51.892555 -89.637993 -13.0157 39.971264
14660000000 -22.130163 171.67682 -52.976318 -112.65482 -51.93198 -109.90958 -12.870413 37.889652
14670000000 -22.324696 164.64008 -51.710274 -135.05325 -52.008762 -133.9944 -12.75672 36.6651
14680000000 -22.017397 164.78596 -52.226357 -161.39081 -52.186527 -152.9238 -12.578484 36.1763
14690000000 -22.252522 160.98863 -53.280766 160.68265 -51.431419 179.5759 -12.397428 35.944763
14700000000 -22.254963 163.15031 -60.112782 155.07565 -53.823925 144.52718 -12.288843 35.145123
14710000000 -22.323524 163.886 -59.017605 177.6657 -60.594215 147.4507 -12.349401 34.28178
14720000000 -21.706661 164.99416 -56.165234 157.48244 -55.549999 156.16891 -12.42199 33.457504
14730000000 -21.365053 162.94064 -54.615715 140.51472 -52.73069 124.85261 -12.532394 32.301632
14740000000 -20.639032 158.84204 -52.717911 113.84246 -53.27877 91.066574 -12.642199 30.574133
14750000000 -20.828281 154.40921 -52.961895 83.786575 -55.600895 70.667709 -12.833927 28.56785
14760000000 -20.563314 150.67667 -55.622658 67.63028 -58.035412 72.780716 -12.961805 26.940321
14770000000 -21.204475 146.27841 -53.303181 59.038399 -52.602295 59.777966 -13.017077 25.546139
14780000000 -21.172192 147.59067 -52.318913 33.054413 -53.658447 22.102192 -12.971437 24.664228
14790000000 -21.36097 148.95273 -52.508385 14.542651 -54.712307 16.699995 -12.975127 23.710817
14800000000 -20.491549 150.01494 -51.897163 -8.8736448 -53.208141 -0.97506076 -13.169258 23.162415
14810000000 -20.355963 147.39087 -53.053581 -31.309874 -53.38702 -19.901974 -13.431593 23.484005
14820000000 -19.905453 144.75748 -52.15221 -48.329823 -51.908051 -40.725357 -13.589664 23.699127
14830000000 -20.220364 141.58649 -52.281528 -63.716812 -51.552807 -58.040291 -13.743345 23.206808
14840000000 -20.174519 138.36145 -51.187523 -75.833771 -49.922894 -73.906372 -13.95561 23.105377
14850000000 -20.850744 137.03062 -49.208717 -107.64628 -48.67078 -112.83269 -14.196543 23.789345
14860000000 -20.543545 136.38376 -50.036297 -136.20285 -50.126507 -141.08734 -14.422865 24.426523
14870000000 -20.910744 132.87347 -50.757881 -156.39914 -50.173 -153.04515 -14.715624 24.539194
14880000000 -20.908688 130.5002 -50.456032 -170.5806 -49.951458 -172.47554 -15.006485 23.836927
14890000000 -21.293478 129.90553 -48.890209 169.23441 -48.661407 169.72311 -15.075383 23.026821
14900000000 -20.922823 129.04027 -47.963661 140.51611 -47.170799 140.38419 -15.077333 21.978947
14910000000 -20.975603 130.20773 -48.059898 114.94695 -47.966534 111.39674 -15.008245 23.422087
14920000000 -20.236311 126.85034 -47.289658 88.615181 -47.263599 88.087082 -14.874455 25.953241
14930000000 -20.336792 124.45892 -47.614941 58.177361 -47.157314 54.475082 -14.886834 28.618195
14940000000 -20.326963 118.17075 -48.854256 32.725006 -48.857395 29.940945 -15.053621 30.701916
14950000000 -21.508034 117.33697 -49.349682 15.736913 -49.589092 10.466751 -15.318718 31.794323
14960000000 -22.201111 117.47174 -48.195229 -1.7782918 -48.590122 -1.7413769 -15.58463 32.401402
14970000000 -22.607353 126.21539 -47.89542 -34.647495 -48.015228 -32.329536 -15.710466 33.706791
14980000000 -21.898354 122.91382 -48.462673 -60.684879 -48.328564 -58.514286 -15.676724 35.744015
14990000000 -21.793564 121.97965 -48.735901 -86.609184 -47.571873 -86.52813 -15.529754 37.169277
15000000000 -21.9298 114.09862 -48.883396 -111.13371 -48.2644 -123.77881 -15.616116 37.680988
15010000000 -22.61385 114.99346 -49.351112 -147.4462 -51.595642 -159.25938 -15.689783 38.629829
15020000000 -23.007704 111.30861 -51.496689 -174.44905 -52.806335 -163.68568 -15.431797 38.487556
15030000000 -22.988894 115.65224 -52.648117 163.45963 -51.817661 171.14772 -15.052697 37.83725
15040000000 -23.141359 109.43311 -55.089561 137.29478 -53.360226 137.8575 -14.66836 38.682213
15050000000 -24.045671 113.94759 -55.030449 133.06682 -54.736755 127.37939 -14.20806 41.158974
15060000000 -24.121954 118.14139 -54.535404 103.5371 -54.475201 93.565094 -13.899373 43.058224
15070000000 -23.484137 120.75892 -54.494499 71.41819 -56.504982 66.259415 -13.825964 44.133572
15080000000 -23.803965 117.61539 -54.076553 39.010452 -54.351299 39.23835 -13.901267 44.782089
15090000000 -23.831537 118.76141 -54.177399 0.17630087 -54.295193 -12.781243 -13.863131 44.079643
15100000000 -24.669838 118.3237 -54.873974 -64.304581 -55.00956 -82.175568 -13.813261 42.680454
15110000000 -24.36552 123.48424 -57.04789 -111.56993 -59.356167 -146.04266 -13.648092 41.616894
15120000000 -24.283978 119.59599 -60.162968 -144.65894 -71.619919 174.61655 -13.423024 40.816906
15130000000 -24.492481 114.23415 -57.192284 -175.33755 -60.57679 -158.03896 -13.253583 39.493954
15140000000 -26.35874 118.65776 -57.440601 144.8963 -57.971386 150.56241 -13.147012 38.306572
15150000000 -25.527534 130.07239 -56.240009 133.56927 -56.009521 128.15506 -12.958646 37.456886
15160000000 -24.475912 133.46442 -52.439987 100.58433 -53.546837 94.788033 -12.765538 36.564617
15170000000 -22.865358 129.58304 -51.562016 66.791832 -53.14621 59.974396 -12.628412 36.314079
15180000000 -23.032816 120.0157 -49.801208 37.78981 -52.559315 45.607891 -12.57548 36.614578
15190000000 -23.905165 118.23244 -49.877945 11.102921 -49.85891 22.67189 -12.639762 36.591171
15200000000 -24.973438 125.04906 -47.942631 -9.4523354 -47.46159 -6.3356619 -12.835861 36.174709
15210000000 -23.892952 130.0134 -46.427921 -44.289516 -46.338661 -42.226349 -13.041079 35.287758
15220000000 -23.580471 129.70946 -46.699738 -73.127464 -46.549969 -71.027374 -13.176495 33.755878
15230000000 -23.196564 125.45071 -46.969082 -98.993996 -46.709587 -94.42247 -13.294996 31.960871
15240000000 -23.696972 127.03429 -46.320389 -113.51971 -45.820992 -112.10078 -13.387226 30.873022
15250000000 -23.18663 124.99029 -45.210506 -133.93965 -44.522182 -137.24199 -13.395007 30.437065
15260000000 -23.271378 124.72315 -43.649441 -163.51538 -43.634121 -164.28497 -13.318954 29.899942
15270000000 -23.043295 123.58179 -43.474735 171.87801 -43.221169 170.79941 -13.310981 29.69558
15280000000 -22.707298 122.46056 -42.603195 147.22752 -42.567802 146.5412 -13.330904 30.834579
15290000000 -22.417728 119.74477 -41.972378 119.75335 -41.307148 120.01207 -13.292657 32.520969
15300000000 -22.208178 115.74172 -42.046867 90.715271 -41.22488 86.910339 -13.349807 33.698921
15310000000 -22.852362 110.76521 -41.981354 68.541672 -41.955868 62.339596 -13.57572 34.378769
15320000000 -23.598557 112.24659 -41.881393 46.048428 -41.874832 41.304375 -13.808784 35.067631
15330000000 -23.963095 118.27003 -41.214302 23.717991 -41.692673 20.706545 -13.925653 34.957661
15340000000 -23.047882 120.65485 -40.45956 -1.3546559 -40.444374 -0.66648984 -13.996623 34.410652
15350000000 -22.203625 118.15405 -40.273079 -27.373987 -40.064529 -30.712435 -13.964473 34.591614
15360000000 -21.912191 108.26853 -39.786171 -52.853481 -39.946049 -57.58794 -13.90198 34.504425
15370000000 -22.925409 103.37947 -39.903492 -80.881729 -40.416615 -83.075623 -13.887674 34.467346
15380000000 -23.464209 99.359894 -40.251984 -103.4989 -40.389187 -103.04565 -13.831098 34.345139
15390000000 -24.724346 102.6009 -39.729679 -125.42825 -39.918213 -127.13884 -13.640261 34.329731
15400000000 -24.212599 105.07824 -39.63755 -152.29726 -40.05014 -151.71236 -13.405614 34.074631
15410000000 -23.810442 103.8437 -39.568764 -175.34915 -39.644836 -174.15425 -13.226392 34.907757
15420000000 -23.9729 95.905899 -39.328861 159.51807 -39.376049 160.64679 -13.158187 36.275131
15430000000 -24.930887 95.592491 -39.794376 132.25282 -39.813736 133.04865 -13.250025 37.673027
15440000000 -25.347942 93.848633 -40.259476 111.25173 -39.71051 112.90504 -13.420366 38.248306
15450000000 -26.057096 98.28447 -39.985641 90.707794 -39.70071 89.203873 -13.643583 37.477066
15460000000 -25.40247 97.804245 -39.578381 68.179535 -39.47364 66.15564 -13.721549 35.805073
15470000000 -25.26862 94.487396 -39.098217 39.910416 -38.827999 39.532169 -13.731588 33.744003
15480000000 -25.544083 82.274384 -39.385269 13.953517 -39.200077 12.458358 -13.676515 32.920376
15490000000 -27.178345 77.777031 -40.206734 -11.306149 -39.777084 -12.419212 -13.586156 33.126255
15500000000 -28.790848 69.959015 -40.648678 -30.36545 -40.386417 -34.490997 -13.490552 33.615517
15510000000 -31.218977 83.206223 -40.539135 -52.716103 -40.452629 -56.061558 -13.46277 34.11657
15520000000 -31.303873 87.348869 -40.294483 -76.542953 -40.449078 -78.550362 -13.423605 34.819443
15530000000 -30.128912 100.4836 -40.358242 -99.51889 -40.153606 -102.14723 -13.395635 35.468357
15540000000 -29.266727 85.353882 -40.332939 -123.78267 -40.349228 -126.85969 -13.450177 36.426884
15550000000 -29.960632 78.416786 -40.375187 -148.48236 -40.581886 -151.52959 -13.544749 37.963547
15560000000 -32.193733 58.221939 -41.065403 -175.6548 -41.133743 -176.45657 -13.579204 39.29356
15570000000 -37.85001 63.562534 -41.557659 163.7072 -41.363617 159.64044 -13.674653 39.337933
15580000000 -42.704376 70.655327 -41.943687 141.54515 -42.506504 135.95419 -13.840967 39.095924
15590000000 -40.376648 115.40778 -41.901821 118.26758 -42.53215 118.75875 -13.934381 38.70739
15600000000 -44.027863 84.818382 -42.281265 97.512589 -42.615284 94.999237 -13.919586 38.098198
15610000000 -48.839924 126.5012 -42.310177 73.447662 -43.011845 72.165382 -13.79652 37.490238
15620000000 -45.624825 -85.984795 -42.589348 48.174259 -43.375523 51.38089 -13.610687 37.385742
15630000000 -37.25375 -147.0544 -43.249828 22.275478 -43.700478 29.760593 -13.34869 37.506836
15640000000 -38.665813 -160.30473 -44.025753 1.9082733 -43.277706 7.8163228 -13.1555 37.753944
15650000000 -38.975567 -168.39983 -44.937759 -18.11301 -44.191986 -17.743481 -13.13645 38.930553
15660000000 -39.329254 -129.15215 -44.765167 -42.258324 -44.455513 -40.308651 -13.123997 40.614388
15670000000 -35.420189 -134.63138 -46.479965 -62.827442 -45.560799 -59.266911 -13.174523 41.293209
15680000000 -32.716629 -122.4052 -47.175476 -79.13308 -45.332344 -82.7248 -13.323452 41.280228
15690000000 -30.142555 -132.06133 -47.138786 -91.557503 -46.454411 -104.7632 -13.411779 40.799843
15700000000 -28.172363 -136.604 -46.710217 -113.27811 -47.333351 -119.75777 -13.443137 40.139362
15710000000 -27.54496 -151.66176 -46.979534 -137.1545 -47.082996 -139.04872 -13.489365 39.809425
15720000000 -28.305271 -152.00131 -47.333706 -153.83696 -47.485413 -160.21048 -13.502846 40.566956
15730000000 -28.620741 -149.20532 -46.644981 -174.54112 -47.116627 -179.21214 -13.425605 40.932499
15740000000 -28.024044 -143.40587 -46.984138 155.91982 -47.536861 154.74355 -13.332695 40.508263
15750000000 -27.226337 -141.94627 -48.789715 134.59612 -49.158012 132.36998 -13.199164 39.913425
15760000000 -25.87022 -140.37346 -49.431087 124.44602 -50.491562 123.51975 -12.982219 40.151447
15770000000 -25.10186 -147.01105 -50.622684 112.76984 -50.471188 116.37653 -12.711192 41.632584
15780000000 -25.264488 -148.63506 -47.891457 103.25607 -47.583809 102.80546 -12.467564 43.74081
15790000000 -24.663443 -148.83093 -47.266121 75.275055 -47.215687 68.22757 -12.366461 45.642014
15800000000 -24.057087 -149.77821 -46.944969 51.079361 -48.231014 48.026821 -12.419288 46.719666
15810000000 -23.414894 -153.45883 -47.609642 22.115231 -48.98439 27.334461 -12.541058 46.596432
15820000000 -23.542919 -155.1122 -48.665115 8.4019861 -48.495632 14.700674 -12.606809 45.480595
15830000000 -23.258503 -153.55403 -48.609379 -9.6483345 -47.84573 -5.5690126 -12.481335 44.055721
15840000000 -23.086679 -152.72984 -47.840302 -29.034121 -47.276844 -28.46426 -12.276964 42.518768
15850000000 -22.925526 -152.92351 -48.067936 -53.37328 -47.578671 -49.32159 -12.042951 41.742443
15860000000 -22.518847 -149.49631 -49.074326 -68.4608 -47.616604 -69.622093 -11.762255 41.160927
15870000000 -21.883081 -152.44812 -48.148109 -77.709404 -47.228661 -85.64547 -11.509771 40.499905
15880000000 -21.837547 -153.37215 -45.680206 -98.186821 -46.031841 -107.54655 -11.290997 39.87257
15890000000 -21.501816 -153.77423 -45.375481 -132.11874 -45.862556 -136.45306 -11.070519 39.692055
15900000000 -21.314032 -157.27675 -45.766758 -160.33189 -45.914795 -161.41832 -10.862822 39.712727
15910000000 -21.571321 -157.42998 -46.69154 -179.61224 -47.183914 179.17087 -10.757945 39.615299
15920000000 -21.070675 -155.92792 -46.444977 161.23982 -46.773712 160.33759 -10.728833 39.453545
15930000000 -20.820978 -156.2552 -45.982628 139.37328 -46.489975 139.37083 -10.741096 38.701763
15940000000 -20.480497 -155.69101 -46.398895 114.17184 -46.426304 115.90876 -10.800521 37.163486
15950000000 -20.087328 -155.44208 -46.220413 92.897423 -46.227978 94.979584 -10.849508 35.196667
15960000000 -19.826746 -156.56898 -46.367592 69.786568 -45.747688 70.189819 -10.848708 32.987679
15970000000 -19.731863 -155.25449 -46.593792 45.498379 -46.125267 44.129044 -10.781042 30.584738
15980000000 -19.477665 -154.2765 -47.281624 22.082575 -47.203739 20.825987 -10.651235 28.498943
15990000000 -19.003738 -153.23883 -47.914474 6.4334917 -47.625996 4.1029353 -10.481332 26.985348
16000000000 -18.739256 -155.50989 -47.521847 -13.527045 -46.889763 -14.9078 -10.334298 26.255796
16010000000 -18.63578 -155.80061 -47.584202 -34.415417 -47.247509 -39.990513 -10.241945 25.846565
16020000000 -18.48456 -156.73862 -47.196209 -51.625721 -47.426132 -56.854 -10.294626 25.465492
16030000000 -18.346376 -155.94435 -46.873989 -77.234222 -47.306107 -81.708839 -10.452947 24.675827
16040000000 -17.964666 -155.52928 -47.811077 -104.77646 -48.373665 -106.4787 -10.65724 23.245779
16050000000 -17.522785 -155.76985 -49.168556 -118.00307 -49.371071 -116.25996 -10.819683 21.341059
16060000000 -17.142941 -156.32611 -47.673138 -132.24229 -47.927158 -135.40659 -10.960565 18.974085
16070000000 -16.825365 -156.01993 -47.510658 -157.90796 -47.567055 -160.65553 -11.121641 16.979649
16080000000 -16.338493 -156.67831 -46.870842 175.02219 -47.635811 175.73511 -11.288692 15.429475
16090000000 -16.162472 -157.68431 -48.213192 149.43942 -47.720863 150.50327 -11.423873 13.551413
16100000000 -15.93987 -157.91574 -48.983398 132.24541 -49.365723 127.38776 -11.534868 11.642132
16110000000 -15.712362 -158.15497 -49.16914 121.58778 -49.657928 124.92465 -11.541977 9.9449377
16120000000 -15.445466 -158.85873 -47.629589 97.851746 -47.691273 102.81792 -11.553656 8.9736691
16130000000 -15.253583 -159.38741 -47.194733 72.642616 -46.55526 75.271378 -11.577472 9.8227234
16140000000 -14.985619 -159.42795 -47.378345 43.474831 -46.762535 41.861736 -11.698853 11.057286
16150000000 -14.633615 -160.01573 -47.977749 21.386513 -48.18092 18.409157 -11.993397 11.908342
16160000000 -14.193392 -160.58662 -49.287762 -3.0399261 -49.123875 -0.81445813 -12.420052 11.697448
16170000000 -13.722784 -162.22574 -49.661419 -24.725513 -48.740643 -21.341257 -12.867917 10.226661
16180000000 -13.431987 -164.00328 -50.506802 -43.403984 -49.00423 -42.567879 -13.205228 8.0897226
16190000000 -13.254524 -165.28908 -51.925465 -62.146538 -50.573978 -69.898125 -13.327169 6.0964522
16200000000 -13.130397 -165.7664 -52.014282 -68.403976 -50.532852 -79.657898 -13.401224 4.6351585
16210000000 -12.960685 -166.29932 -50.709679 -78.182678 -50.905113 -94.822853 -13.444314 3.8234448
16220000000 -12.8114 -165.82011 -48.806644 -111.04807 -49.990376 -120.91061 -13.50996 2.9731569
16230000000 -12.479518 -166.28825 -49.700211 -139.48749 -50.360992 -145.07941 -13.561962 2.3215737
16240000000 -12.164466 -166.4913 -50.084785 -163.89003 -50.850121 -171.90968 -13.580877 2.5445814
16250000000 -11.827207 -168.67281 -52.330578 172.81752 -53.965755 170.19783 -13.539529 3.7526345
16260000000 -11.55448 -170.50195 -53.015354 174.00992 -55.172337 169.8679 -13.585589 5.2446303
16270000000 -11.315911 -172.96179 -50.538155 158.52341 -52.172417 165.59578 -13.834374 6.444953
16280000000 -11.261914 -175.01628 -50.127186 130.73701 -50.531223 138.57434 -14.27265 6.9571714
16290000000 -11.116245 -175.52629 -49.788258 105.89952 -50.195438 111.39532 -14.729022 5.9158082
16300000000 -10.914151 -176.3201 -49.886452 80.095169 -50.028057 89.013229 -15.059454 3.4747605
16310000000 -10.754465 -176.62923 -51.374271 57.364567 -50.869484 66.057816 -15.196126 0.78209597
16320000000 -10.476446 -176.71268 -51.461231 40.462288 -50.358711 48.752621 -15.175101 -1.4425845
16330000000 -10.185971 -177.13487 -51.614563 29.929653 -50.185249 29.968002 -15.132672 -3.1808045
16340000000 -9.861001 -178.33498 -50.713516 3.8013375 -49.637363 5.0300765 -15.144722 -4.6947646
16350000000 -9.6303892 179.67914 -51.25037 -23.887943 -49.910446 -22.757452 -15.225187 -5.3867707
16360000000 -9.4853411 177.53955 -52.149265 -37.548306 -50.498581 -40.571789 -15.255262 -5.3833733
16370000000 -9.474864 175.47092 -51.697941 -53.215237 -51.457577 -63.017204 -15.33683 -5.0776286
16380000000 -9.4862137 173.87227 -51.361649 -67.871361 -50.850616 -69.420944 -15.654863 -4.2834768
16390000000 -9.4980774 173.75624 -51.280018 -90.351601 -50.014381 -100.57167 -16.216562 -3.9710982
16400000000 -9.2118406 173.7939 -50.677334 -108.2281 -50.273727 -117.44228 -16.898567 -4.8093472
16410000000 -8.9376993 172.68973 -49.642067 -134.99733 -49.88319 -146.18713 -17.558992 -7.5258493
16420000000 -8.6594563 171.97502 -50.368328 -155.66737 -51.200859 -163.44325 -17.991922 -11.195844
16430000000 -8.3218803 170.60866 -51.098209 -178.66425 -52.349686 175.2766 -18.293947 -14.610653
16440000000 -8.1446114 168.60004 -50.18924 171.69043 -50.834999 169.96156 -18.600424 -16.302568
16450000000 -8.1051235 167.08134 -49.285336 150.85121 -49.413673 149.41208 -19.004761 -16.70373
16460000000 -8.0587578 166.17197 -48.315216 121.86626 -48.794949 120.13776 -19.47365 -16.54636
16470000000 -8.0303497 165.16011 -48.278553 99.65641 -49.269257 101.76911 -19.787802 -16.241203
16480000000 -8.0044241 164.78853 -48.510086 76.257668 -48.751335 79.36158 -20.004105 -14.917345
16490000000 -7.8373203 164.22307 -47.940147 53.985184 -48.34272 57.06498 -20.233183 -11.423097
16500000000 -7.6562037 163.67319 -47.951405 32.074753 -48.138329 33.624088 -20.65867 -5.9515982
16510000000 -7.3907928 162.18498 -47.272182 8.0526094 -47.659851 9.9837475 -21.47547 -0.49396238
16520000000 -7.2205815 161.06902 -47.591236 -17.858015 -47.940735 -12.250384 -22.667629 4.5335813
16530000000 -6.9506111 159.38498 -47.659321 -44.771336 -47.648251 -38.397495 -23.941807 5.2076669
16540000000 -6.8680191 157.81873 -48.687176 -65.486229 -47.919666 -61.076584 -24.731417 1.8085678
16550000000 -6.782599 156.44931 -48.402184 -84.469292 -47.684437 -82.674179 -24.740717 -2.0491505
16560000000 -6.8054538 156.02359 -47.988663 -107.07348 -47.828224 -105.45072 -24.25967 -3.0380092
16570000000 -6.6793194 155.71576 -47.997543 -134.89067 -47.056797 -128.34038 -24.129236 -1.5210027
16580000000 -6.5612469 155.58141 -48.06411 -158.01671 -46.440151 -159.4939 -24.372866 1.8691838
16590000000 -6.3274059 154.88699 -48.625561 174.39395 -47.602398 170.42152 -24.714836 5.7906594
16600000000 -6.1260538 153.83679 -49.820179 154.56613 -49.053238 147.54245 -24.731064 8.5993509
16610000000 -5.8935237 151.98436 -49.64761 135.97087 -49.075142 130.56418 -24.793922 11.362874
16620000000 -5.8242402 150.14346 -49.408672 116.83926 -49.194981 110.62248 -24.836494 17.283426
16630000000 -5.7033668 148.83307 -49.229153 92.952385 -48.698032 87.284805 -25.157015 27.434458
16640000000 -5.6224685 147.70575 -48.979889 65.896767 -49.262115 57.740841 -25.657169 37.868271
16650000000 -5.4736786 146.96782 -49.605145 39.966957 -49.54995 35.034603 -26.915812 47.72834
16660000000 -5.3422995 146.35034 -50.403683 13.577835 -50.420486 9.0192127 -28.071226 55.793026
16670000000 -5.1251769 145.6978 -50.788982 -3.4524317 -51.066299 -7.9455013 -28.999422 55.644703
16680000000 -4.9392471 144.82077 -50.67831 -29.947859 -50.418648 -37.862846 -29.066168 50.677578
16690000000 -4.7389603 143.62891 -50.918877 -57.33461 -51.84874 -64.078064 -28.201763 49.002396
16700000000 -4.6181874 142.33455 -52.094151 -83.18309 -53.715218 -88.4161 -26.547892 52.073673
16710000000 -4.4459996 141.06966 -53.616959 -99.570862 -55.507107 -99.097313 -25.215878 56.176979
16720000000 -4.3365273 139.54005 -54.263294 -120.85778 -54.998455 -115.01933 -24.086039 60.965294
16730000000 -4.2185373 138.05933 -53.337833 -140.30547 -53.198223 -137.93808 -23.299488 64.333733
16740000000 -4.1310678 136.90034 -52.744579 -166.7914 -53.955479 -172.57864 -22.725258 67.539284
16750000000 -3.9790738 135.79767 -53.521763 158.10825 -55.161655 168.11763 -22.207729 69.731384
16760000000 -3.8370011 134.7317 -54.551708 129.89694 -55.344646 138.18732 -21.74601 72.097862
16770000000 -3.632412 133.62402 -57.12627 97.674599 -58.357128 105.94949 -21.569939 72.160271
16780000000 -3.4558167 132.29619 -59.4841 80.988945 -60.164478 98.291832 -21.75173 72.355988
16790000000 -3.2977762 130.76457 -61.133759 71.917473 -58.537212 82.648102 -21.953417 70.605202
16800000000 -3.1974561 129.29991 -61.535957 48.448143 -61.099995 58.98542 -22.110886 66.260132
16810000000 -3.0858886 127.87133 -61.3195 17.405169 -59.301231 33.880943 -22.121696 60.523087
16820000000 -3.0075901 126.45362 -63.632545 -1.5143082 -60.398346 9.5644054 -21.919226 55.105545
16830000000 -2.8855329 125.04612 -63.248878 -31.005402 -60.272099 -27.029118 -21.361704 51.069164
16840000000 -2.7750239 123.60037 -62.096134 -76.278336 -59.821358 -59.616291 -20.809313 48.605854
16850000000 -2.6279483 122.1157 -63.526527 -139.92657 -60.406319 -110.24996 -20.384701 48.01231
16860000000 -2.5086656 120.53313 -64.12709 156.19734 -63.229977 -173.70256 -20.239473 49.875507
16870000000 -2.3757045 119.10148 -65.942383 89.409103 -67.14093 145.29086 -20.303244 51.828125
16880000000 -2.2564349 117.66684 -68.625061 28.774456 -68.034866 111.18811 -20.879196 54.377125
16890000000 -2.1257112 116.24414 -82.546646 112.32209 -67.855057 103.39247 -21.663504 55.549278
16900000000 -2.0291781 114.82734 -70.447029 96.068878 -63.693752 77.941231 -22.759972 54.777168
16910000000 -1.9289818 113.37862 -61.18758 62.81076 -59.994667 48.934525 -23.892231 51.59436
16920000000 -1.8664507 111.92845 -59.574078 5.9486451 -58.829185 11.797161 -24.896008 47.885799
16930000000 -1.7874253 110.47835 -57.180916 -22.45615 -55.537712 -23.372173 -25.411337 45.674381
16940000000 -1.720812 108.99658 -56.350853 -63.129726 -55.146023 -64.056366 -25.612244 44.665428
16950000000 -1.6104929 107.45008 -56.984421 -89.763054 -55.137089 -97.955086 -25.898218 46.662331
16960000000 -1.5158782 105.71021 -56.432446 -112.98138 -55.705959 -121.77139 -26.079451 53.11404
16970000000 -1.4185884 104.01143 -56.75515 -133.43358 -56.137291 -143.21683 -25.724014 61.848984
16980000000 -1.3362272 102.34673 -54.690224 -153.78416 -54.479542 -163.7619 -25.187975 70.767181
16990000000 -1.2485373 100.76399 -54.276009 175.31883 -54.253613 165.44574 -24.55471 80.583199
17000000000 -1.1766419 99.244858 -53.465534 149.84763 -54.236382 142.33574 -23.858128 89.861183
