!Keysight Technologies,P9374A,MY57211807,A.19.30.04
!Date: Friday, May 08, 2026 15:39:47
!Correction: S11(C  2-Port  ) 
!S21(C  2-Port  ) 
!S12(C  2-Port  ) 
!S22(C  2-Port  ) 
!S2P File: Measurements: S11, S21, S12, S22:
# Hz S  dB   R 50
13000000000 -18.986822 58.638378 -39.204414 5.1045666 -40.16729 2.60445 -8.8425207 26.584023
13010000000 -19.21384 59.496284 -39.440632 -21.531206 -40.364075 -20.942236 -8.9679079 22.47636
13020000000 -19.399588 61.320667 -39.780064 -42.613708 -40.670044 -39.022343 -9.1503468 18.701777
13030000000 -19.48564 62.985668 -39.810295 -70.562469 -40.28907 -65.040466 -9.3095417 15.064194
13040000000 -19.562181 64.988388 -40.633583 -92.760414 -40.433514 -88.387398 -9.4976397 11.307175
13050000000 -19.270235 64.779533 -41.588245 -116.08927 -41.264263 -114.35961 -9.8150444 7.5809679
13060000000 -19.392168 61.313839 -41.728943 -134.81447 -41.527477 -133.87575 -10.319054 3.991061
13070000000 -19.75687 60.689838 -42.022205 -155.41063 -41.60358 -153.33273 -10.916909 1.1936612
13080000000 -19.827457 60.389542 -41.913319 -177.39386 -41.399734 -178.48521 -11.474382 -1.9491838
13090000000 -20.149477 59.491863 -41.916504 157.81555 -41.666264 156.14735 -11.955012 -5.626174
13100000000 -20.016287 63.322453 -43.286453 135.85768 -42.835796 130.52061 -12.456264 -9.5062017
13110000000 -19.692377 62.716019 -43.42474 121.64433 -43.756016 118.17122 -13.138284 -12.355654
13120000000 -19.406469 63.612293 -42.625355 101.47263 -43.122841 97.008606 -13.937417 -13.917523
13130000000 -19.189159 61.75909 -42.040409 75.029045 -42.848251 78.081612 -14.768935 -14.973367
13140000000 -19.221273 61.163136 -42.144978 47.104977 -42.450912 48.191174 -15.674386 -16.426575
13150000000 -19.459064 60.450329 -43.230568 20.332445 -43.458092 23.000206 -16.607792 -18.016909
13160000000 -19.424225 61.7654 -44.41103 0.17167991 -44.873535 4.9476676 -17.549488 -18.449539
13170000000 -19.497311 60.814709 -45.608616 -17.864931 -45.414848 -9.6504974 -18.604017 -17.471384
13180000000 -19.250931 59.964157 -45.639748 -29.582714 -44.393093 -26.011986 -19.856447 -14.30677
13190000000 -19.46018 55.961689 -44.333572 -48.411762 -43.506626 -50.345623 -21.43214 -8.9842396
13200000000 -19.572792 56.439831 -43.995014 -75.103058 -43.268829 -76.40686 -23.137703 -1.2840242
13210000000 -19.654627 55.05294 -44.94685 -101.78924 -44.138489 -101.23837 -24.651443 6.9892554
13220000000 -19.585032 56.539314 -45.254959 -115.60957 -44.091866 -120.42625 -25.536379 16.252909
13230000000 -19.279127 56.281788 -44.701973 -133.15703 -44.199078 -140.58142 -25.811518 26.520578
13240000000 -18.91987 54.665939 -44.220516 -157.13693 -43.637344 -165.17072 -25.087421 41.739689
13250000000 -18.92622 52.288868 -43.814571 -178.82521 -44.144291 172.67986 -23.22316 54.44162
13260000000 -18.951971 50.958588 -43.215878 157.39789 -43.67012 148.6019 -21.574856 62.228828
13270000000 -19.186298 47.759903 -43.134331 131.30414 -44.395847 125.02861 -20.599634 68.153221
13280000000 -19.483679 48.356647 -42.958298 105.43147 -44.149891 104.8572 -19.779964 73.883232
13290000000 -19.733385 46.028767 -43.494766 79.447258 -44.479202 81.543755 -18.833357 76.617012
13300000000 -19.972645 46.381245 -43.752186 59.404613 -44.115932 61.964024 -17.938396 75.940704
13310000000 -20.077559 45.304638 -43.427429 36.759953 -43.351208 36.169491 -17.041222 73.941132
13320000000 -19.835644 45.724945 -42.912811 7.1526995 -43.52634 9.1655941 -16.273211 73.010353
13330000000 -19.615784 43.675209 -43.553341 -18.242292 -43.284065 -16.082266 -15.523602 72.869576
13340000000 -19.33168 40.717228 -44.592236 -42.127243 -44.399326 -41.619305 -14.892095 72.45607
13350000000 -19.510641 36.935631 -44.344498 -59.75658 -44.067135 -62.374451 -14.454741 71.022423
13360000000 -19.795553 33.900635 -43.65712 -82.745102 -44.118599 -84.902664 -14.09707 68.772858
13370000000 -20.508621 34.401981 -43.366936 -111.15536 -43.556774 -109.1389 -13.651486 65.642532
13380000000 -20.413992 36.279659 -43.367386 -136.00191 -43.305813 -137.11775 -13.076794 62.387856
13390000000 -20.475517 34.16748 -43.115612 -163.87379 -43.44994 -161.8087 -12.44836 59.754272
13400000000 -20.646696 31.61125 -43.497135 169.65526 -43.145367 169.68198 -11.910959 57.735783
13410000000 -21.317659 30.256325 -43.491764 142.31073 -43.437569 142.21129 -11.57375 56.709846
13420000000 -21.513613 30.500689 -43.693027 112.87979 -43.211502 114.68446 -11.333686 55.213593
13430000000 -21.477869 31.718193 -44.402534 88.215935 -43.862206 88.981529 -11.201917 52.784595
13440000000 -20.932985 28.97477 -44.482502 63.397678 -43.46196 61.55764 -11.146344 49.476261
13450000000 -20.858467 23.149555 -44.43037 41.172344 -44.168159 36.263153 -11.067561 46.144634
13460000000 -21.393414 18.436893 -43.424961 15.519059 -43.795864 11.836197 -10.851617 43.418991
13470000000 -22.339121 15.913282 -43.087376 -16.481075 -42.929192 -15.581347 -10.60377 40.738277
13480000000 -23.0236 19.06319 -43.30711 -47.490612 -42.713963 -47.900772 -10.502352 37.889153
13490000000 -23.496199 21.518015 -44.049583 -74.950951 -43.0937 -77.274956 -10.565361 35.670174
13500000000 -23.233023 25.342972 -43.398178 -99.99865 -43.159637 -106.24237 -10.691676 33.935081
13510000000 -22.909819 23.958292 -43.010181 -132.7115 -43.07505 -134.84253 -10.766546 32.285572
13520000000 -22.756741 19.245317 -43.68594 -166.66322 -43.005821 -164.04756 -10.791992 30.535038
13530000000 -23.279446 14.813481 -44.95911 166.80748 -43.460449 162.31346 -10.939194 28.569525
13540000000 -23.573326 9.7719154 -45.873096 145.17723 -44.719223 134.58855 -11.155354 27.567505
13550000000 -24.868748 8.086545 -45.677868 127.80963 -45.362869 117.96989 -11.327982 26.84598
13560000000 -25.33938 10.11597 -44.344181 103.59111 -44.230804 93.633987 -11.536426 25.809954
13570000000 -25.786039 14.90246 -43.944668 76.673904 -43.587738 68.451218 -11.709425 24.678162
13580000000 -25.507545 17.406481 -43.221554 48.334816 -42.982262 36.432739 -11.84217 24.058249
13590000000 -25.377575 19.288465 -42.570801 18.349859 -43.000565 6.7083244 -11.882573 23.859728
13600000000 -25.202951 15.929455 -42.516914 -10.704176 -43.218616 -19.291559 -11.828448 23.875187
13610000000 -25.660053 16.041449 -42.586327 -45.8605 -43.248035 -51.469353 -11.757866 23.823864
13620000000 -26.111204 14.325595 -43.779587 -73.289307 -44.082447 -78.658501 -11.800826 23.93515
13630000000 -26.398647 14.818881 -44.488979 -95.983932 -45.201672 -105.03436 -11.793715 24.337641
13640000000 -27.068512 10.089259 -45.065079 -118.05853 -46.091957 -121.02392 -11.769684 24.507032
13650000000 -27.701876 9.7448292 -45.190437 -134.3564 -46.177326 -136.86839 -11.73159 24.005459
13660000000 -29.299246 10.70281 -44.499462 -158.42084 -45.047215 -158.48685 -11.699478 23.118416
13670000000 -29.060312 22.950344 -44.328484 176.27092 -44.716034 176.07051 -11.594333 22.371843
13680000000 -27.972973 29.471174 -44.460693 153.6324 -44.130249 153.98965 -11.427975 21.431101
13690000000 -26.076061 26.185432 -44.245926 127.72292 -43.722393 126.02544 -11.215105 20.311836
13700000000 -25.76083 16.659868 -44.586033 105.78954 -44.41692 99.007133 -11.10037 18.813505
13710000000 -26.333302 9.8519459 -44.890114 82.798378 -45.014736 76.886124 -11.095941 17.6882
13720000000 -28.259525 6.7568321 -45.202782 66.176674 -45.579041 58.729519 -11.068812 16.479486
13730000000 -29.435017 17.265867 -44.192097 51.409557 -44.925274 47.945717 -10.974684 14.834071
13740000000 -29.436373 27.417597 -43.097294 26.185274 -43.79353 23.636429 -10.904293 12.45693
13750000000 -28.4002 28.825052 -42.331425 2.1777129 -42.817528 0.72080249 -10.898042 10.5076
13760000000 -28.223312 24.490452 -41.926208 -26.418543 -42.59988 -25.931973 -10.947203 9.1887856
13770000000 -27.926582 22.813574 -41.857994 -52.224018 -42.3587 -52.090027 -11.07017 7.7581935
13780000000 -27.547033 17.599884 -42.188652 -79.477898 -42.526936 -77.424591 -11.308963 5.92419
13790000000 -27.153734 13.90442 -43.116215 -101.44334 -43.076099 -99.201172 -11.591298 3.6357725
13800000000 -27.047646 5.2136679 -43.023811 -116.05284 -42.529202 -116.13776 -11.833876 1.3157357
13810000000 -27.367956 2.4423037 -42.814102 -137.93922 -42.614834 -141.9169 -11.974926 -0.74899757
13820000000 -28.24403 -4.0065398 -42.270374 -158.50024 -42.38224 -159.5544 -12.134631 -2.0225041
13830000000 -29.125887 4.0350885 -41.654388 -179.93652 -41.466415 176.93649 -12.333575 -2.6070631
13840000000 -29.194345 8.0040712 -41.15263 155.28897 -41.308929 150.76489 -12.64898 -2.7825544
13850000000 -28.086 15.094713 -40.915287 132.12685 -41.376831 128.80473 -12.970192 -2.8769131
13860000000 -27.170668 7.4118795 -40.905544 108.05427 -41.243435 103.44579 -13.294498 -3.6543746
13870000000 -26.928869 2.1652544 -40.907623 84.960457 -41.739876 79.93071 -13.635319 -4.280344
13880000000 -26.808304 -6.7883115 -40.982483 64.041519 -42.132992 62.891003 -13.924746 -3.769938
13890000000 -27.054003 -13.670592 -40.743954 43.744999 -41.732002 45.211945 -14.115385 -2.5410032
13900000000 -27.571318 -23.596947 -40.296822 23.51037 -40.923412 26.136911 -14.312627 -1.3324568
13910000000 -28.522314 -26.378683 -39.510822 -0.0075758938 -39.972622 1.5814725 -14.564775 -0.54837173
13920000000 -29.818056 -30.27733 -39.0681 -25.732094 -39.539349 -23.030596 -14.874252 -0.33458853
13930000000 -30.675812 -20.877607 -39.133514 -51.519993 -39.725967 -51.147003 -15.046899 0.1852107
13940000000 -30.162134 -17.808689 -39.500263 -74.895668 -40.27953 -70.41214 -15.039576 1.0351697
13950000000 -28.87282 -17.523605 -39.846611 -95.978889 -39.819031 -89.905632 -14.900976 1.8742095
13960000000 -28.43355 -29.282766 -39.775829 -115.50828 -39.81414 -112.21331 -14.754652 3.0644677
13970000000 -28.046085 -38.50013 -39.321754 -135.89688 -39.278946 -132.06186 -14.682901 4.4104886
13980000000 -28.103859 -51.955399 -38.803612 -158.31708 -38.576748 -156.33315 -14.667629 5.4361224
13990000000 -28.450026 -61.362549 -38.638126 178.28703 -38.529057 -178.6904 -14.740149 6.1289177
14000000000 -28.460567 -71.26255 -38.717598 155.6122 -38.092602 157.77585 -14.878155 6.3106747
14010000000 -29.119682 -77.566704 -38.583378 135.06029 -38.099468 134.00023 -14.983551 6.7278557
14020000000 -29.673864 -80.199013 -38.053272 113.56421 -37.730469 112.71067 -14.995815 6.3818994
14030000000 -30.71357 -75.491875 -37.638962 90.134552 -37.401104 88.998947 -15.027884 5.5800471
14040000000 -30.274134 -67.583138 -37.372559 66.324059 -37.072018 65.188049 -15.140214 4.6691403
14050000000 -29.016582 -67.779541 -37.459888 43.066647 -37.09927 40.673061 -15.274611 4.3134928
14060000000 -28.447201 -73.117371 -37.136047 21.759583 -36.993229 17.859581 -15.399875 4.116529
14070000000 -27.93766 -83.369995 -36.990822 -2.4670081 -37.321564 -5.510015 -15.525558 3.8944445
14080000000 -28.098131 -98.570305 -36.800232 -24.408533 -37.146648 -26.068575 -15.562872 3.3804917
14090000000 -29.131056 -109.13599 -36.567966 -48.477283 -36.790966 -49.053741 -15.634543 2.7505472
14100000000 -29.31032 -119.19913 -36.373474 -71.239456 -36.62072 -71.201927 -15.655853 2.4274724
14110000000 -29.797104 -125.48517 -36.370434 -94.990395 -36.372875 -95.15435 -15.705745 2.6496291
14120000000 -29.584515 -128.85193 -36.231659 -119.09235 -36.428101 -119.56654 -15.753868 3.8525815
14130000000 -30.000879 -130.84435 -36.353542 -142.49763 -36.446129 -141.91776 -15.85759 4.4478455
14140000000 -29.378164 -126.92074 -36.522053 -164.19286 -36.38612 -163.77286 -16.079222 4.2903948
14150000000 -29.253946 -127.76447 -36.293423 173.99074 -36.134243 172.89224 -16.385616 3.1745751
14160000000 -28.203707 -125.50776 -36.06588 151.18306 -36.139118 150.65936 -16.675489 2.058888
14170000000 -27.068712 -131.09119 -36.151379 126.25367 -36.174839 126.74522 -16.838673 1.7390151
14180000000 -26.740234 -142.82755 -36.377224 104.47614 -36.041279 105.12817 -16.893562 2.6022632
14190000000 -27.178341 -153.14891 -36.45153 84.235405 -36.245167 82.174522 -16.976822 3.5400269
14200000000 -27.600374 -161.08855 -36.146057 62.068901 -36.150448 60.505627 -17.28677 4.6858239
14210000000 -28.411213 -165.45497 -36.082428 39.774734 -36.041824 38.591969 -17.823648 5.8496413
14220000000 -28.798517 -161.6618 -35.802917 17.767233 -35.838341 16.258961 -18.375946 7.5634537
14230000000 -28.274565 -161.14935 -35.699718 -5.7598863 -35.778057 -8.0459042 -18.796713 9.5070829
14240000000 -27.628887 -159.74008 -35.611481 -29.33857 -35.958485 -31.190121 -19.076372 11.736005
14250000000 -27.111263 -162.66934 -35.704647 -51.975872 -36.046593 -52.789452 -19.270287 15.121417
14260000000 -26.682468 -165.17191 -35.735996 -74.847893 -35.979935 -73.579674 -19.472879 18.551538
14270000000 -26.536816 -168.68629 -35.899654 -95.98658 -35.900383 -95.754356 -19.770609 22.884045
14280000000 -26.890026 -172.52127 -35.574638 -118.18405 -35.721069 -118.49271 -19.863977 26.541254
14290000000 -26.77033 -176.56578 -35.675812 -142.64134 -35.866566 -141.85448 -19.814837 29.39415
14300000000 -27.429682 177.66344 -35.884403 -164.38812 -35.874332 -161.93832 -19.598505 31.982798
14310000000 -28.090588 176.76268 -36.133526 174.8342 -35.762447 175.76675 -19.057999 34.779453
14320000000 -28.303404 177.94171 -35.835934 154.62337 -35.648712 153.75777 -18.444878 37.322819
14330000000 -27.889454 -179.96983 -35.691498 132.1792 -35.645191 131.73064 -17.915001 40.458809
14340000000 -27.529728 179.3391 -35.742363 111.31064 -35.685749 111.37667 -17.369308 43.610004
14350000000 -26.755161 178.53369 -35.505569 89.948624 -35.344925 90.208321 -16.954731 46.168968
14360000000 -26.946287 173.44749 -35.220402 66.702248 -35.036266 66.691925 -16.650576 48.226479
14370000000 -27.066216 173.52942 -35.254478 43.652416 -35.053146 43.623615 -16.324535 49.411175
14380000000 -27.378819 171.93401 -35.275272 22.758167 -34.993389 21.859087 -15.974828 49.112328
14390000000 -27.258623 168.90202 -34.865349 0.99264002 -34.813595 0.50174421 -15.679811 48.027107
14400000000 -28.507767 167.33076 -34.764099 -22.359858 -34.61982 -22.133171 -15.30155 47.064762
14410000000 -28.629364 170.77486 -34.803276 -44.353958 -34.532169 -43.768261 -14.832158 46.124287
14420000000 -28.716402 173.31491 -34.654427 -66.076927 -34.191662 -66.516594 -14.375999 45.092239
14430000000 -27.97176 175.53963 -34.496895 -88.269203 -34.146946 -89.645233 -14.041476 44.439472
14440000000 -27.157221 176.49008 -34.317371 -110.07552 -34.01836 -111.44605 -13.733819 43.845753
14450000000 -26.131035 169.83708 -34.0755 -133.25655 -33.772011 -134.72159 -13.481154 42.865017
14460000000 -26.791513 165.21629 -34.07 -155.06137 -33.693771 -157.11368 -13.247925 41.451767
14470000000 -27.378845 166.11461 -33.641773 -177.1839 -33.434902 -179.27028 -13.080703 40.441917
14480000000 -28.029045 172.64992 -33.420185 158.83176 -33.248714 156.88033 -12.962723 39.857983
14490000000 -27.644693 176.1026 -33.384129 135.09589 -33.095024 133.43961 -12.910028 39.252602
14500000000 -26.977549 -177.41486 -33.323929 112.10043 -33.044106 109.07133 -12.956477 38.270573
14510000000 -26.26729 176.64577 -33.247673 89.060417 -33.11343 86.160553 -13.07776 36.949203
14520000000 -26.674942 177.10489 -33.247166 66.272888 -33.187569 63.706718 -13.098426 35.164009
14530000000 -26.36269 175.68118 -33.090702 43.927483 -33.041584 42.312248 -12.974962 33.328236
14540000000 -25.97043 176.50906 -32.970211 21.218624 -32.70697 19.745796 -12.816649 32.195816
14550000000 -25.809948 171.86572 -32.830372 -2.2699697 -32.640408 -4.6806431 -12.66352 32.166077
14560000000 -25.546356 174.64532 -32.767929 -25.549532 -32.611252 -27.800772 -12.555262 32.817093
14570000000 -25.321625 170.20467 -32.821316 -49.161011 -32.677845 -51.631554 -12.560061 33.10725
14580000000 -25.432882 175.17004 -32.882336 -72.096245 -32.692497 -74.441353 -12.591417 33.131283
14590000000 -24.837774 175.45737 -32.912399 -93.799934 -32.741005 -96.872154 -12.624742 32.833565
14600000000 -24.273518 178.06706 -32.705894 -116.1894 -32.682251 -118.83386 -12.617822 32.528809
14610000000 -23.694332 175.03786 -32.639133 -140.40982 -32.510948 -142.83801 -12.570001 32.502998
14620000000 -23.372334 174.10846 -32.806847 -163.07779 -32.63525 -165.45638 -12.493877 32.656036
14630000000 -23.168959 169.94774 -32.773331 176.16953 -32.597855 172.57944 -12.456496 32.199047
14640000000 -23.427439 168.11418 -32.428604 153.75613 -32.454128 150.22592 -12.454619 31.23852
14650000000 -23.361494 169.0451 -32.26368 129.31093 -32.395336 126.72265 -12.376191 30.203121
14660000000 -22.889509 167.59602 -32.370975 106.09042 -32.287941 104.25209 -12.205228 28.908022
14670000000 -22.841787 166.4592 -32.326038 84.623756 -32.255333 81.295174 -12.001158 28.477289
14680000000 -22.434298 167.16133 -32.174763 61.783787 -32.195267 58.209305 -11.727921 28.479395
14690000000 -21.974331 165.68393 -32.081169 38.844162 -32.302948 35.553555 -11.550937 28.132563
14700000000 -21.771046 164.20926 -31.947203 14.81258 -32.138367 13.028397 -11.490557 27.714672
14710000000 -21.357933 163.17175 -32.03928 -7.7885971 -32.130825 -9.8991356 -11.52909 27.005823
14720000000 -21.10438 158.97015 -31.903124 -29.87129 -32.040337 -32.342911 -11.621532 26.297884
14730000000 -21.422115 156.12241 -31.580704 -52.483814 -31.849409 -55.145718 -11.686232 25.341267
14740000000 -21.485563 154.58582 -31.411758 -77.453163 -31.695715 -78.852661 -11.731579 24.132339
14750000000 -21.612181 154.12366 -31.597858 -101.73734 -31.691513 -102.98192 -11.760697 22.187975
14760000000 -21.465984 153.84308 -31.599115 -124.48105 -31.811123 -125.88554 -11.785961 20.213217
14770000000 -20.960442 153.10156 -31.512581 -147.01601 -31.680647 -148.11874 -11.798613 18.451893
14780000000 -20.585789 150.03395 -31.393549 -169.70157 -31.693045 -171.04991 -11.797779 17.666763
14790000000 -20.302332 146.71545 -31.2925 166.20831 -31.523268 165.99883 -11.782619 17.521885
14800000000 -20.376415 144.49631 -31.358986 142.32837 -31.454081 142.65916 -11.810102 17.315254
14810000000 -20.337442 142.92665 -31.390577 119.20623 -31.299469 119.01613 -11.947131 16.935465
14820000000 -20.520466 142.14806 -31.330702 95.736549 -31.332769 94.5439 -12.122129 16.485697
14830000000 -20.509342 142.21382 -31.373457 72.020653 -31.535751 71.512718 -12.324717 15.918216
14840000000 -20.415554 140.61446 -31.472685 48.454655 -31.497185 48.415298 -12.488841 15.729998
14850000000 -20.454744 137.6992 -31.699562 26.999001 -31.588818 26.16774 -12.605327 15.875573
14860000000 -20.735132 135.15266 -31.423717 4.7144651 -31.393486 3.1494753 -12.751843 15.589232
14870000000 -20.914047 133.1674 -31.294636 -19.833504 -31.362696 -21.09403 -13.032869 14.835024
14880000000 -21.010464 132.18987 -31.324057 -43.817051 -31.447062 -44.234936 -13.247736 13.84005
14890000000 -20.725718 130.73895 -31.563175 -67.333725 -31.532036 -67.034431 -13.346911 12.718814
14900000000 -20.661766 126.78883 -31.663836 -87.692818 -31.522242 -89.153839 -13.255925 12.420762
14910000000 -20.517849 125.59747 -31.274185 -110.2678 -31.371691 -112.18482 -13.081404 12.900562
14920000000 -20.672882 121.54926 -31.15937 -135.15123 -31.323645 -136.14529 -13.026034 14.199549
14930000000 -20.98465 122.41653 -31.27939 -159.18565 -31.401569 -159.62669 -13.16449 15.842911
14940000000 -21.128168 121.14346 -31.418253 177.20282 -31.545185 176.9883 -13.452765 17.130749
14950000000 -21.436449 122.43367 -31.624475 155.41678 -31.681934 155.73856 -13.770329 17.36599
14960000000 -21.492563 122.45171 -31.426905 132.89279 -31.487137 132.58244 -14.064912 17.223854
14970000000 -21.367434 121.669 -31.285078 109.7654 -31.386831 110.06645 -14.182429 17.494431
14980000000 -21.746284 117.15339 -31.254715 85.650429 -31.291605 86.04335 -14.193755 18.188955
14990000000 -22.148088 115.33391 -31.299519 62.283951 -31.271666 62.723862 -14.223628 18.568277
15000000000 -22.858442 113.04588 -31.260218 38.861782 -31.313232 39.268784 -14.415611 18.700106
15010000000 -23.204365 115.8838 -31.299341 14.855711 -31.269775 15.377754 -14.579062 18.799919
15020000000 -23.098713 114.93986 -31.436563 -8.5394411 -31.379717 -7.8839173 -14.528107 19.041996
15030000000 -22.996277 114.87369 -31.61516 -31.514578 -31.44422 -30.599251 -14.234352 19.334269
15040000000 -22.994091 113.36716 -31.690252 -52.870697 -31.484226 -53.01403 -13.961649 20.457067
15050000000 -23.225498 112.08974 -31.556049 -75.414398 -31.39109 -75.887047 -13.805754 22.980892
15060000000 -23.62249 113.60914 -31.512289 -98.490845 -31.424046 -98.702133 -13.791407 25.690773
15070000000 -23.971031 113.14236 -31.575436 -122.89037 -31.318224 -122.51325 -13.875361 27.65402
15080000000 -24.514816 118.86805 -31.767393 -145.19356 -31.505587 -145.79172 -14.026266 27.816071
15090000000 -24.164131 119.11349 -31.651674 -167.40962 -31.396749 -168.30598 -14.17146 27.132446
15100000000 -24.514025 119.6789 -31.496508 169.21556 -31.30484 168.28516 -14.142156 26.421165
15110000000 -24.618795 119.34588 -31.518261 145.59305 -31.33427 144.05273 -13.938125 25.848013
15120000000 -24.98279 119.72556 -31.535589 122.79375 -31.424849 121.51773 -13.765152 25.233152
15130000000 -25.145781 120.08903 -31.599045 99.987457 -31.472338 98.367638 -13.684966 25.018435
15140000000 -25.072496 124.11503 -31.521597 77.971016 -31.517996 76.404678 -13.567029 25.038338
15150000000 -24.627878 123.23111 -31.344465 53.867088 -31.317413 53.005478 -13.343211 25.012287
15160000000 -24.21117 124.77657 -31.35317 30.50066 -31.347948 29.411888 -13.14661 24.544104
15170000000 -24.042812 121.82164 -31.489075 7.0414677 -31.505203 6.295506 -13.038377 24.786549
15180000000 -24.157349 123.46572 -31.48774 -15.34038 -31.427305 -15.674654 -13.039186 25.584557
15190000000 -24.24309 123.18025 -31.349577 -38.233673 -31.272734 -39.129852 -13.104619 26.029945
15200000000 -24.433374 128.09363 -31.219404 -62.146294 -31.206739 -62.970581 -13.272679 25.402819
15210000000 -23.889177 129.63861 -31.31035 -86.982834 -31.261415 -87.579765 -13.477894 24.31307
15220000000 -23.513151 130.71854 -31.572577 -109.8691 -31.465302 -110.71049 -13.636003 23.218304
15230000000 -23.162857 127.04574 -31.537552 -131.66328 -31.483374 -132.52779 -13.605661 22.184999
15240000000 -23.210133 125.2225 -31.394499 -154.98474 -31.435068 -156.16357 -13.580545 20.823164
15250000000 -23.407173 121.86532 -31.445534 -178.82877 -31.469707 -178.72797 -13.627748 19.946152
15260000000 -23.568638 122.00875 -31.443678 158.6897 -31.234423 158.11856 -13.629964 19.817194
15270000000 -23.353634 122.09977 -31.511034 135.39012 -31.341208 134.3465 -13.564111 20.219299
15280000000 -23.165615 120.32104 -31.444229 112.15494 -31.380869 110.32637 -13.511775 20.98464
15290000000 -23.04355 119.52531 -31.429468 87.897606 -31.536264 86.977814 -13.537908 22.318037
15300000000 -22.880695 117.7652 -31.805672 64.80368 -31.741493 64.95121 -13.703667 23.781981
15310000000 -23.031218 117.2788 -31.736679 43.918297 -31.655746 42.932625 -13.922312 25.094591
15320000000 -22.824146 117.32795 -31.436041 19.971729 -31.418756 19.654663 -14.120049 25.101326
15330000000 -22.681545 115.00473 -31.526455 -3.9335358 -31.383032 -5.0149384 -14.355262 24.358261
15340000000 -22.811478 113.05663 -31.453627 -27.722071 -31.514599 -29.400686 -14.469345 24.144163
15350000000 -22.958498 110.39045 -31.734146 -51.959003 -31.854502 -52.312637 -14.419504 24.273252
15360000000 -23.127024 107.08685 -31.883862 -73.646858 -31.854671 -73.95108 -14.336546 24.584213
15370000000 -23.928919 106.70229 -31.715666 -96.074013 -31.6998 -96.173393 -14.317772 24.509964
15380000000 -23.802412 105.3945 -31.722111 -119.92419 -31.627005 -120.63799 -14.278949 24.318682
15390000000 -24.324446 105.7424 -31.733788 -143.31107 -31.768528 -144.33351 -14.170265 24.346642
15400000000 -23.850128 105.21321 -31.775337 -167.3399 -31.896265 -167.30139 -13.924148 24.76333
15410000000 -23.958187 100.84999 -31.946302 169.70967 -31.844198 170.66615 -13.726868 25.763746
15420000000 -24.150431 98.039383 -32.084538 147.25244 -31.875467 146.79469 -13.68755 27.62722
15430000000 -24.499233 94.64801 -32.234829 124.05489 -32.071774 123.07247 -13.775882 29.253189
15440000000 -25.224823 91.748108 -32.193066 102.00027 -32.192467 101.47904 -14.009451 29.737476
15450000000 -25.940691 92.330849 -32.134727 77.831116 -31.977749 77.87326 -14.243513 28.533855
15460000000 -26.219292 91.578209 -32.201729 54.322506 -32.03146 53.555634 -14.40721 26.462297
15470000000 -27.058353 92.074104 -32.359993 30.381866 -32.20594 29.685349 -14.40094 24.573803
15480000000 -26.824596 92.37455 -32.624046 7.8687153 -32.448391 6.9434247 -14.287061 24.144573
15490000000 -27.286987 86.79805 -32.790047 -14.626459 -32.493996 -15.525883 -14.102246 24.282331
15500000000 -28.127762 83.44178 -32.76395 -36.153282 -32.530815 -38.455132 -14.039067 24.435894
15510000000 -28.604382 80.350304 -32.796898 -58.898735 -32.712891 -61.013287 -14.044196 24.852594
15520000000 -30.622072 77.27729 -32.75948 -82.707695 -32.658337 -83.689835 -14.080808 25.579418
15530000000 -30.803314 82.508492 -33.040947 -105.62624 -32.830311 -107.07616 -14.060006 26.605394
15540000000 -32.341961 77.252159 -33.174927 -128.1808 -32.911659 -129.96556 -14.08003 27.786386
15550000000 -33.234753 83.937119 -33.191223 -150.61151 -33.012074 -153.89375 -14.218614 29.041531
15560000000 -34.574722 81.657478 -33.321449 -173.12164 -33.356827 -176.01123 -14.397048 30.198059
15570000000 -35.742847 79.228073 -33.303795 163.62668 -33.347767 161.21452 -14.602784 30.539602
15580000000 -39.520653 81.513046 -33.5079 141.2608 -33.538609 139.03209 -14.828306 30.016705
15590000000 -41.498253 69.264084 -33.552601 117.83607 -33.587894 115.69669 -15.015648 29.148684
15600000000 -57.482311 -159.94749 -33.711464 96.239983 -33.843674 94.185699 -15.023205 28.619844
15610000000 -45.198425 154.414 -33.663883 73.409019 -33.810101 71.714584 -14.886072 27.674694
15620000000 -45.955162 -135.14641 -33.713551 50.675991 -33.801113 49.790398 -14.668597 27.327906
15630000000 -39.934536 -157.87741 -33.861069 28.69235 -33.827854 26.557016 -14.475017 27.276125
15640000000 -40.180126 -145.30496 -33.827168 5.4389138 -33.992428 3.0359337 -14.357612 28.689278
15650000000 -37.816975 -141.19762 -34.14225 -17.602795 -34.322739 -18.974081 -14.254645 30.618889
15660000000 -36.078434 -137.83507 -34.279671 -39.197968 -34.513351 -40.635181 -14.320049 32.423187
15670000000 -34.276688 -131.65506 -34.423367 -60.341438 -34.582405 -60.893936 -14.523107 33.393608
15680000000 -30.795589 -132.59373 -34.357262 -82.310158 -34.533188 -83.185005 -14.817182 33.49654
15690000000 -30.103037 -139.66858 -34.13797 -104.79755 -34.326553 -105.78377 -15.047644 32.949352
15700000000 -28.442162 -142.16698 -34.26775 -128.75294 -34.419106 -129.89081 -15.217063 32.564964
15710000000 -28.297461 -148.42744 -34.426041 -150.93777 -34.510281 -151.35913 -15.243312 32.623894
15720000000 -28.023252 -148.40155 -34.488964 -173.76262 -34.574123 -174.92365 -15.311959 32.894302
15730000000 -27.866987 -148.04639 -34.676292 163.97108 -34.772903 162.97661 -15.334998 33.194107
15740000000 -27.749691 -145.77003 -34.834373 142.31816 -34.975258 141.42464 -15.364269 32.914787
15750000000 -26.968372 -140.32391 -34.648064 121.43633 -34.769104 120.34937 -15.246861 33.102169
15760000000 -25.706648 -143.34285 -34.640774 97.797081 -34.784138 97.355484 -14.998518 34.282192
15770000000 -25.149912 -143.38521 -34.657875 75.633675 -34.784706 75.081078 -14.651379 37.155689
15780000000 -24.052343 -148.7323 -34.725468 53.365421 -34.91404 52.308144 -14.406859 40.532265
15790000000 -24.151651 -153.26219 -34.779629 30.588709 -34.903439 30.009392 -14.358427 43.830776
15800000000 -23.629715 -154.42458 -34.863491 7.1777759 -34.95417 7.3219533 -14.480171 46.00819
15810000000 -23.881266 -157.04517 -35.011002 -15.937331 -35.080292 -16.162815 -14.731667 46.69202
15820000000 -23.672091 -154.27882 -35.159157 -37.793076 -35.258217 -37.846294 -14.883715 46.152943
15830000000 -23.487986 -153.16087 -35.260536 -60.112701 -35.290184 -60.382576 -14.790811 45.099255
15840000000 -22.846218 -151.30035 -35.299263 -82.119881 -35.341141 -81.455894 -14.483675 43.793697
15850000000 -22.50106 -150.82979 -35.27861 -104.75133 -35.231728 -104.30199 -14.143871 42.699532
15860000000 -21.81897 -152.31537 -35.504623 -126.08862 -35.472176 -126.80422 -13.785001 42.362808
15870000000 -21.810452 -154.53069 -35.348705 -148.39243 -35.377895 -147.98843 -13.414971 42.019222
15880000000 -21.511923 -155.90959 -35.299259 -170.8037 -35.267643 -170.74025 -13.053308 42.08997
15890000000 -21.616491 -158.03575 -35.438168 164.75916 -35.291214 165.16823 -12.689916 42.493191
15900000000 -21.583511 -158.03145 -35.793877 144.08156 -35.600567 143.3364 -12.392303 43.108063
15910000000 -21.492815 -157.94676 -35.692364 122.02479 -35.638039 121.6006 -12.224462 43.480518
15920000000 -21.160601 -157.18617 -35.885273 99.111572 -35.82243 99.170143 -12.177171 43.639893
15930000000 -20.863863 -156.19687 -35.917938 78.591225 -35.702175 77.942436 -12.218801 42.983349
15940000000 -20.332533 -155.73114 -35.945267 55.944958 -35.671535 54.95562 -12.298519 41.688492
15950000000 -19.924719 -156.23772 -35.873249 34.561066 -35.74387 32.716282 -12.336742 39.661953
15960000000 -19.637054 -156.41928 -35.689522 11.161608 -35.600365 9.8757658 -12.296208 37.185669
15970000000 -19.386395 -157.02484 -35.893154 -11.376786 -35.753342 -12.590898 -12.183386 34.211197
15980000000 -19.321598 -157.43333 -35.823322 -33.580574 -35.673641 -34.771561 -12.011321 31.616529
15990000000 -19.19281 -156.93251 -35.812359 -56.933022 -35.52108 -58.480804 -11.76302 29.950596
16000000000 -19.175573 -156.65453 -36.036385 -78.383713 -35.933533 -81.368668 -11.512759 29.162527
16010000000 -18.945103 -155.66876 -35.940205 -99.348175 -35.946659 -102.148 -11.376756 29.107958
16020000000 -18.68652 -154.9202 -35.71685 -121.61819 -35.915382 -123.53802 -11.381898 29.04792
16030000000 -18.102072 -155.09842 -35.770977 -146.23087 -35.742321 -146.68825 -11.566882 28.336847
16040000000 -17.757105 -156.32907 -35.895733 -167.88451 -35.764191 -169.68573 -11.871391 26.640326
16050000000 -17.355345 -156.98273 -35.753841 168.47012 -35.725117 165.48344 -12.153905 24.382006
16060000000 -16.999065 -157.93593 -35.743099 144.53423 -35.895519 142.93222 -12.341647 21.950939
16070000000 -16.767416 -159.13731 -35.948456 121.63091 -35.997314 119.81158 -12.430094 19.702406
16080000000 -16.637283 -159.16576 -35.981483 98.240265 -36.025234 97.291016 -12.560874 17.291212
16090000000 -16.48208 -158.776 -36.356903 75.91111 -36.164791 74.346588 -12.770884 14.971587
16100000000 -16.297482 -157.68828 -36.093178 54.88829 -36.054253 52.16872 -12.961393 12.829882
16110000000 -15.943825 -156.46257 -36.0368 30.872179 -36.214497 27.370613 -13.026492 11.268108
16120000000 -15.397689 -156.78357 -36.000309 6.8103147 -36.406666 6.8003287 -12.969125 10.890261
16130000000 -14.980414 -158.51466 -36.1576 -16.259024 -36.247898 -16.380659 -12.953886 11.732224
16140000000 -14.644397 -159.97984 -36.451118 -39.859737 -36.421089 -40.35857 -13.143103 13.60309
16150000000 -14.359735 -163.03929 -36.602638 -61.440208 -36.621063 -64.023445 -13.567641 15.011074
16160000000 -14.315517 -164.08461 -36.668507 -84.284447 -36.826927 -86.173637 -14.180891 15.263869
16170000000 -14.169936 -164.78578 -36.584507 -107.89119 -36.96677 -109.39133 -14.769358 13.807531
16180000000 -13.966667 -164.2748 -36.899002 -132.27019 -37.178493 -131.93167 -15.191525 11.01218
16190000000 -13.665541 -163.67435 -37.072273 -154.88008 -37.140854 -153.92336 -15.383808 8.8622513
16200000000 -13.212343 -163.07137 -37.185043 -177.49271 -37.188461 -178.21539 -15.406443 7.7069182
16210000000 -12.774529 -164.24106 -37.237793 159.77249 -37.41328 159.68359 -15.500794 7.4218106
16220000000 -12.399751 -165.39558 -37.477715 138.04939 -37.464588 137.82961 -15.579589 7.2625575
16230000000 -12.199915 -168.08032 -37.228889 113.97169 -37.283478 113.73529 -15.617589 7.1061487
16240000000 -12.073555 -169.33888 -37.313705 89.307701 -37.600735 89.445107 -15.600196 7.3946786
16250000000 -12.028643 -171.76723 -38.053173 65.583977 -37.969246 67.091011 -15.559907 8.9226561
16260000000 -12.036089 -171.87186 -38.036907 45.091835 -38.046021 44.686596 -15.630141 11.70637
16270000000 -11.794081 -172.56688 -38.424171 20.58136 -38.471901 21.671049 -15.861845 14.515359
16280000000 -11.547565 -172.78302 -38.463371 0.033672299 -38.384926 1.83482 -16.351326 15.919206
16290000000 -11.15546 -173.30478 -38.574921 -23.172554 -38.37804 -22.544388 -16.93844 15.12244
16300000000 -10.727167 -174.51303 -38.622215 -45.865612 -38.490952 -45.402702 -17.422981 12.512136
16310000000 -10.437079 -176.3994 -38.725143 -70.463562 -38.555958 -69.322464 -17.592201 9.24512
16320000000 -10.193598 -177.73363 -38.946518 -93.824837 -38.724392 -93.744965 -17.574564 6.7993264
16330000000 -10.07286 -179.93739 -38.922245 -117.26112 -38.934292 -116.22154 -17.569468 4.9321036
16340000000 -10.096831 179.34987 -39.301216 -142.25909 -38.982643 -140.8398 -17.643795 4.1864085
16350000000 -10.012077 178.53914 -39.691109 -164.80074 -39.469578 -164.12985 -17.657705 3.7156024
16360000000 -9.9574242 178.14703 -40.022362 172.33195 -39.711914 173.97624 -17.687897 3.5746207
16370000000 -9.7415648 177.73662 -40.246471 150.92685 -39.978668 151.65437 -17.79991 4.1304531
16380000000 -9.4954309 176.77219 -40.026836 130.35135 -39.90062 130.53258 -18.133236 5.7068806
16390000000 -9.2018633 175.33763 -40.163074 103.46388 -39.871311 105.42341 -18.841263 7.3756337
16400000000 -8.9018641 173.51277 -40.689274 81.848717 -40.137264 82.087807 -19.76288 7.8643031
16410000000 -8.7365656 171.34123 -40.730057 56.339165 -40.350346 56.517899 -20.826017 5.4852233
16420000000 -8.5991039 170.05496 -41.083401 33.74123 -40.767677 33.889614 -21.744442 1.9411247
16430000000 -8.5335541 168.4494 -41.605789 8.7232876 -41.019127 9.5843925 -22.300064 -1.2333012
16440000000 -8.5064363 168.34637 -42.196686 -13.537965 -41.551479 -13.336273 -22.755583 -2.4083643
16450000000 -8.3759336 168.08669 -42.466629 -33.249687 -41.796909 -34.660065 -23.407646 -1.6397721
16460000000 -8.2174864 167.9071 -42.128479 -55.885822 -41.814148 -58.795715 -24.098549 0.075644866
16470000000 -7.9988084 167.34016 -42.254944 -81.686928 -42.062679 -80.645134 -24.690676 3.3220022
16480000000 -7.7606306 166.05461 -42.818832 -106.86416 -42.213306 -106.37698 -24.682877 9.7052708
16490000000 -7.5967278 164.2101 -43.341434 -128.42337 -42.721813 -129.76173 -24.179672 17.004623
16500000000 -7.4482994 162.5298 -43.632149 -150.40695 -42.910114 -152.35452 -24.030079 26.390745
16510000000 -7.3833838 160.46182 -43.873856 -173.80968 -43.389362 -175.99361 -24.055565 38.586498
16520000000 -7.3460021 159.60243 -44.547752 165.70576 -44.141537 161.16495 -24.268854 50.887882
16530000000 -7.2440133 158.71376 -44.692223 143.46761 -44.393269 143.20142 -24.716307 57.840256
16540000000 -7.1398635 158.61166 -45.046444 121.32494 -44.186859 118.15794 -25.475006 59.182598
16550000000 -6.9054599 158.31227 -44.700191 99.633713 -44.610935 95.455284 -25.937813 55.702003
16560000000 -6.6692333 157.75455 -44.806156 73.835571 -44.620564 70.646294 -25.60906 52.066521
16570000000 -6.4673476 156.54015 -45.186794 47.293835 -44.94791 45.734592 -25.014263 50.038982
16580000000 -6.2790956 155.34842 -46.130798 25.881109 -45.595036 24.217434 -24.615124 51.369904
16590000000 -6.192615 153.49843 -46.33263 5.7849226 -45.600407 2.1935256 -24.309343 52.932983
16600000000 -6.1504703 152.31454 -45.923714 -14.218712 -45.906956 -22.667028 -23.98735 54.074474
16610000000 -6.0868359 150.99301 -46.249783 -42.029423 -46.352596 -45.30674 -23.425854 54.227741
16620000000 -6.0283279 150.40991 -46.70747 -63.454262 -46.950089 -68.380791 -22.901726 56.727139
16630000000 -5.8410106 149.65393 -46.761196 -83.45652 -47.108418 -86.414368 -22.395906 62.480473
16640000000 -5.6404023 148.92567 -46.425636 -107.44236 -46.886467 -111.73014 -22.130289 70.524681
16650000000 -5.3834553 147.8828 -46.977802 -132.20598 -47.350029 -133.90433 -21.926546 77.186447
16660000000 -5.1640849 146.59079 -46.793575 -157.15474 -47.144218 -158.36691 -22.414314 81.360886
16670000000 -4.98634 145.26292 -47.522869 178.30702 -47.777912 176.33768 -23.072025 83.30809
16680000000 -4.8686695 143.89894 -47.754906 158.29199 -48.257126 158.41289 -23.328552 82.33989
16690000000 -4.7811012 142.795 -47.717583 134.00238 -47.789497 133.15814 -22.931551 78.562111
16700000000 -4.6940784 141.96657 -47.762749 110.67548 -48.31078 109.2128 -22.185814 74.694145
16710000000 -4.5606093 141.00081 -47.756969 85.47673 -48.236752 87.423065 -21.409981 73.271942
16720000000 -4.4235888 140.00009 -48.235466 62.100143 -48.500721 63.620712 -20.62121 74.153671
16730000000 -4.2387104 138.80699 -48.276371 40.524128 -48.806023 41.985981 -19.808187 75.236137
16740000000 -4.0534177 137.40071 -48.177036 15.66748 -48.433201 18.095366 -19.205048 75.696709
16750000000 -3.8868024 135.8614 -48.017563 -10.661617 -48.324146 -5.8189478 -18.891787 76.443245
16760000000 -3.7283094 134.3644 -48.661667 -37.119949 -48.422176 -32.880123 -18.707184 77.935242
16770000000 -3.6044459 132.89709 -49.117527 -57.021961 -48.882183 -54.410042 -18.63002 78.459763
16780000000 -3.4804788 131.69344 -48.723152 -81.394409 -49.003677 -79.207664 -18.759327 77.582527
16790000000 -3.3673687 130.50552 -48.890106 -104.97604 -49.042397 -101.24443 -19.138506 75.365898
16800000000 -3.2472849 129.39241 -49.158546 -127.9576 -49.030617 -124.11549 -19.5151 71.968803
16810000000 -3.1178701 128.15854 -48.839554 -153.69505 -48.40192 -147.14064 -19.732893 67.251358
16820000000 -2.9824784 126.80999 -49.02866 -179.39209 -48.315266 -175.65881 -19.683264 62.3409
16830000000 -2.8452368 125.1773 -48.982574 158.6552 -48.524612 161.31355 -19.308027 57.390564
16840000000 -2.724117 123.59261 -48.789574 132.16891 -48.056858 134.39331 -19.01865 53.721786
16850000000 -2.6004059 121.87119 -49.519924 106.58348 -48.657387 108.46311 -18.813759 53.378105
16860000000 -2.4919205 120.27343 -49.409344 84.576538 -48.531437 86.163269 -18.617741 54.966167
16870000000 -2.3893418 118.73981 -49.238148 61.824825 -48.471832 61.819557 -18.644793 57.120499
16880000000 -2.2776456 117.43443 -48.956882 36.413734 -48.354042 36.719826 -19.046406 59.133465
16890000000 -2.1636744 116.09947 -49.105267 10.328185 -48.340172 10.659625 -19.897638 61.081837
16900000000 -2.0504935 114.87187 -48.968369 -14.457671 -48.233749 -16.438084 -20.833998 61.758522
16910000000 -1.9408456 113.49755 -49.102512 -41.235306 -48.452835 -41.162033 -21.868715 60.369019
16920000000 -1.8407654 112.08022 -49.730171 -66.115311 -48.790195 -67.186928 -22.967157 57.707729
16930000000 -1.7515477 110.48696 -49.692654 -86.858475 -48.967609 -92.32872 -23.836424 55.722622
16940000000 -1.6752242 108.82012 -48.929718 -110.36636 -48.502331 -114.84168 -24.248604 55.257378
16950000000 -1.6004167 107.10202 -48.913746 -139.85963 -48.528969 -144.58069 -24.298513 55.764427
16960000000 -1.5329701 105.45027 -49.187672 -166.97153 -48.594929 -167.83665 -24.113918 58.192631
16970000000 -1.4497783 103.8793 -49.781647 166.21132 -48.816452 162.64674 -23.851505 64.192596
16980000000 -1.36125 102.31791 -50.100166 145.87868 -49.541466 138.81741 -23.22135 73.131485
16990000000 -1.270119 100.80052 -50.054024 118.73631 -49.747986 115.98135 -22.395973 81.636467
17000000000 -1.1738546 99.346588 -50.247799 96.958481 -49.896919 90.935722 -21.852751 88.557976
