!Keysight Technologies,P9374A,MY57211807,A.19.30.04
!Date: Friday, May 08, 2026 14:11:33
!Correction: S11(C  2-Port  ) 
!S21(C  2-Port  ) 
!S12(C  2-Port  ) 
!S22(C  2-Port  ) 
!S2P File: Measurements: S11, S21, S12, S22:
# Hz S  dB   R 50
13000000000 -18.694826 59.184158 -44.404846 -120.59734 -44.248707 -124.98683 -9.2037735 22.506197
13010000000 -18.92754 57.513069 -43.543163 -137.01332 -43.727585 -140.22649 -9.2421436 18.273439
13020000000 -19.484203 58.584671 -42.008907 -159.36104 -42.076183 -162.16542 -9.3237915 13.977621
13030000000 -19.637217 61.925472 -41.148575 172.52855 -41.298668 170.31429 -9.4573174 9.6927691
13040000000 -19.626087 62.84623 -40.921646 146.44264 -41.351463 143.9566 -9.6496458 5.9117241
13050000000 -19.761614 62.621605 -41.552597 123.21734 -41.735432 122.35513 -9.8949385 2.4839227
13060000000 -19.947544 63.791946 -41.476063 106.87646 -41.61623 105.01323 -10.210404 -1.0849544
13070000000 -19.747593 62.114361 -40.459793 87.649918 -40.681152 87.624306 -10.609577 -5.0473404
13080000000 -20.089008 61.355274 -39.335491 62.694759 -39.325058 62.556904 -11.071149 -9.3524818
13090000000 -19.971209 62.576656 -38.84267 34.335972 -38.90963 33.615513 -11.4791 -13.703764
13100000000 -19.836304 63.262997 -39.360355 7.953301 -39.228527 7.8535581 -11.894629 -17.670502
13110000000 -19.482327 62.493595 -39.403164 -12.163691 -39.444702 -15.603728 -12.376044 -20.648258
13120000000 -19.416414 61.966278 -39.325314 -34.697128 -39.755894 -36.313763 -12.896661 -23.41967
13130000000 -19.116816 59.848537 -38.99942 -56.385044 -39.235516 -54.120724 -13.505414 -26.319721
13140000000 -19.68321 59.560226 -38.750149 -79.354553 -38.452431 -78.69046 -14.171589 -30.088243
13150000000 -19.654661 59.991997 -38.354427 -104.88978 -38.197247 -105.46646 -14.870405 -33.859909
13160000000 -19.942949 62.326202 -38.846756 -127.34993 -38.807697 -128.87218 -15.602276 -36.722809
13170000000 -19.514999 62.155064 -38.66161 -149.13194 -38.557083 -148.99969 -16.444738 -38.522491
13180000000 -19.732555 60.928688 -38.382229 -170.26755 -38.16346 -171.68346 -17.424433 -39.201809
13190000000 -19.352917 61.331642 -38.136456 164.02568 -38.101318 162.53081 -18.610662 -40.872791
13200000000 -19.051809 57.842846 -38.027512 140.96629 -37.995762 139.62785 -20.088499 -44.2215
13210000000 -19.140383 54.337639 -37.962559 116.60614 -38.041115 115.81307 -21.602621 -48.476021
13220000000 -19.284523 53.219841 -38.216778 91.444069 -38.102821 91.264191 -23.029488 -52.326977
13230000000 -19.397957 52.702927 -38.761024 70.498184 -38.533863 70.714531 -24.684864 -53.651947
13240000000 -19.584335 52.526752 -38.717579 52.816559 -38.422188 50.563084 -26.880304 -47.740311
13250000000 -19.530931 53.44125 -38.006027 32.431732 -37.996765 29.683254 -29.962523 -34.551304
13260000000 -19.446583 52.659996 -37.314274 5.6948037 -37.387138 4.1900015 -34.193512 -4.7385697
13270000000 -19.391502 52.654453 -37.314575 -21.676891 -37.471176 -22.711628 -35.189072 53.14259
13280000000 -19.378395 50.664013 -37.679565 -47.403809 -37.624138 -47.584377 -30.929461 84.532211
13290000000 -19.441101 48.658337 -38.308048 -68.987679 -38.144939 -69.99128 -27.644463 91.343666
13300000000 -19.462509 45.987408 -38.228424 -89.848465 -38.206543 -91.05571 -25.543047 88.499756
13310000000 -19.74357 44.677773 -38.293568 -112.19266 -38.064438 -112.96062 -23.609116 85.784622
13320000000 -19.533468 42.668369 -37.971218 -134.82489 -37.807487 -136.30528 -21.680376 83.764488
13330000000 -19.720057 39.426403 -37.827461 -157.84761 -37.894917 -159.02766 -20.121632 82.720329
13340000000 -20.020702 38.690353 -37.91341 177.09599 -37.661804 176.82085 -18.915571 82.014267
13350000000 -20.23465 37.609489 -37.757629 152.56908 -37.658531 150.74741 -18.114689 80.04612
13360000000 -20.460272 38.313812 -37.894947 127.35306 -37.835068 125.58259 -17.522139 76.735733
13370000000 -20.473543 39.712219 -38.47311 104.41654 -38.42572 103.60003 -16.897306 71.67923
13380000000 -20.155373 39.11058 -38.384602 82.585442 -38.088737 81.368408 -16.093763 66.796768
13390000000 -20.180521 36.470726 -38.461571 57.871147 -38.386555 55.508659 -15.201976 62.981503
13400000000 -20.186758 34.301243 -38.635159 35.596882 -38.597584 32.870308 -14.355261 60.266968
13410000000 -20.365686 28.254272 -38.581459 10.301547 -38.512901 9.3199434 -13.80054 58.111446
13420000000 -21.027573 25.737911 -38.779804 -12.115093 -38.754116 -14.299633 -13.504728 55.902576
13430000000 -21.658953 22.444042 -38.642189 -36.689091 -38.601898 -38.428116 -13.355622 52.693817
13440000000 -22.381222 24.006821 -38.863171 -62.523991 -38.623569 -65.042694 -13.247014 48.809967
13450000000 -22.405336 27.239439 -39.35574 -88.629257 -39.407845 -90.487038 -13.030397 44.46249
13460000000 -22.132359 29.03137 -39.699654 -110.84663 -39.682903 -113.7705 -12.71197 40.144543
13470000000 -21.857454 27.867172 -40.046909 -135.00522 -39.925217 -136.89093 -12.513716 36.659348
13480000000 -21.39324 25.10478 -40.163792 -158.42787 -40.211292 -161.47168 -12.422482 33.796169
13490000000 -21.963144 18.124157 -40.380516 176.56046 -40.729408 173.21153 -12.443555 31.341221
13500000000 -22.316589 17.326889 -41.007263 150.18887 -41.421139 150.08095 -12.545398 28.755173
13510000000 -23.04789 13.871003 -41.557285 127.20209 -41.191013 128.12015 -12.648391 25.875755
13520000000 -24.156229 11.914433 -42.14835 103.0464 -41.891869 101.50609 -12.810206 23.419716
13530000000 -25.025513 17.576866 -42.283707 79.376266 -42.074669 75.866272 -12.95795 21.459953
13540000000 -24.358908 17.674427 -43.399319 57.334084 -43.472885 52.984516 -13.196712 19.832638
13550000000 -24.667854 18.29533 -43.3367 36.363949 -43.604828 34.393974 -13.480931 18.896324
13560000000 -24.127003 16.848125 -42.901329 11.708377 -43.512417 9.5548725 -13.774634 18.017681
13570000000 -24.738783 17.133015 -43.589069 -17.262135 -43.641071 -14.672022 -13.969109 16.862928
13580000000 -24.029284 13.580158 -44.515579 -41.968544 -44.182232 -42.781322 -14.191373 15.716104
13590000000 -25.424156 11.44203 -45.039082 -67.16552 -44.990303 -67.049103 -14.280297 15.703156
13600000000 -25.137474 12.423711 -46.468887 -88.2313 -45.40583 -92.037819 -14.291565 15.77949
13610000000 -26.023829 14.171497 -46.79723 -108.12148 -47.227772 -112.32816 -14.278889 16.810896
13620000000 -26.46129 8.8864994 -46.960751 -128.41949 -46.778347 -128.1725 -14.264833 17.798321
13630000000 -28.323793 15.387327 -46.760612 -151.42165 -46.254333 -155.04698 -14.222528 18.698626
13640000000 -27.616407 19.114168 -46.193825 -176.6192 -46.428074 178.99043 -14.218377 18.959583
13650000000 -27.582581 22.813019 -46.507401 152.86325 -46.598808 153.71716 -14.147829 18.911589
13660000000 -27.068596 19.419985 -46.954426 125.97604 -46.428112 125.07478 -13.995034 17.986357
13670000000 -26.693703 21.763645 -47.456875 100.18945 -46.931023 98.775284 -13.745148 17.107086
13680000000 -25.866024 14.232072 -47.585457 80.191208 -47.017551 72.311958 -13.448012 15.54965
13690000000 -26.418158 6.9906273 -46.947327 49.072697 -47.04599 43.762238 -13.190237 14.487477
13700000000 -28.060244 6.843049 -47.517586 20.55364 -47.383205 10.950647 -12.918182 13.075687
13710000000 -28.65699 13.940714 -48.269466 -4.629344 -49.049797 -8.3577662 -12.816253 11.438085
13720000000 -29.41942 19.481327 -47.064796 -27.355589 -47.511623 -29.333914 -12.631185 9.4270439
13730000000 -29.0175 34.039188 -46.357906 -57.944572 -46.633472 -58.135742 -12.516994 6.5152473
13740000000 -26.801325 32.114071 -45.816505 -86.712715 -45.569424 -89.694244 -12.397163 3.539506
13750000000 -26.840092 23.901615 -45.072498 -120.40704 -44.909035 -124.59469 -12.332583 0.79438907
13760000000 -26.448433 18.141254 -45.494526 -155.44589 -45.323227 -158.6644 -12.334549 -1.7421207
13770000000 -26.781038 7.6936908 -45.89222 176.95888 -45.538689 171.14204 -12.530501 -4.3976111
13780000000 -28.089613 -0.47024921 -45.94791 156.15385 -46.500626 149.05255 -12.746966 -7.3880124
13790000000 -29.731388 2.3501217 -44.482441 133.60156 -44.953091 132.06999 -13.000487 -11.40639
13800000000 -29.874628 9.7028847 -43.172375 100.93761 -43.198719 99.491348 -13.218688 -15.623274
13810000000 -28.971016 17.062777 -42.761833 68.089066 -42.745899 67.052361 -13.39033 -19.290092
13820000000 -27.855963 12.744069 -42.863857 39.055042 -42.912575 36.760166 -13.579957 -21.867189
13830000000 -27.268801 16.90299 -42.593071 11.5154 -42.60796 9.0281916 -13.914508 -24.045277
13840000000 -25.93589 5.5507536 -42.286293 -15.069083 -42.225388 -16.724138 -14.413692 -25.694096
13850000000 -27.073517 -0.52690804 -42.449196 -40.206184 -42.445297 -43.083817 -14.981869 -27.619801
13860000000 -26.705114 -5.7500548 -41.67477 -63.359581 -41.661667 -65.773651 -15.598711 -30.118704
13870000000 -27.832541 -12.497044 -40.930222 -90.111427 -40.882877 -94.028381 -16.241478 -32.254787
13880000000 -28.708914 -17.90164 -40.700176 -119.27372 -40.908161 -122.3604 -16.804335 -33.353817
13890000000 -30.054237 -10.329744 -40.420197 -144.88672 -40.642242 -147.1129 -17.423794 -34.307598
13900000000 -28.699224 -14.567253 -40.337315 -170.48331 -40.567474 -171.71324 -18.194988 -34.278706
13910000000 -30.191149 -11.624795 -39.951099 165.01544 -39.964439 163.60706 -19.058289 -33.88139
13920000000 -28.300066 -10.39911 -39.56826 139.14349 -39.684925 138.621 -19.841034 -33.383823
13930000000 -28.22624 -14.624478 -39.241951 111.75863 -38.930988 110.43185 -20.429543 -32.342674
13940000000 -27.197269 -22.677437 -39.097271 86.417 -39.105972 82.576485 -20.818459 -30.323082
13950000000 -27.732002 -34.252388 -39.041142 59.607456 -39.193905 57.614483 -21.075075 -26.409388
13960000000 -27.996698 -43.390469 -39.221882 35.169743 -39.345463 33.254669 -21.174688 -21.275484
13970000000 -28.663334 -55.089123 -38.82383 12.555859 -38.83292 11.617189 -21.34273 -16.024498
13980000000 -29.984905 -65.706604 -38.326077 -13.796457 -38.414215 -14.438294 -21.625708 -11.239955
13990000000 -30.9956 -68.057785 -38.282555 -41.002209 -38.023994 -41.924473 -21.948574 -6.7960362
14000000000 -31.63983 -66.537582 -38.437702 -65.581947 -38.277374 -69.104904 -22.159359 -3.3688524
14010000000 -31.219017 -58.138195 -38.301826 -91.038353 -38.556232 -92.685928 -22.166512 -1.9873018
14020000000 -29.208328 -53.645611 -38.076374 -116.26492 -38.198166 -116.48112 -22.195206 -3.0456812
14030000000 -27.604782 -62.625397 -38.109913 -141.29335 -37.87941 -142.10803 -22.286613 -3.3849669
14040000000 -27.251768 -69.788635 -38.186249 -166.90733 -37.981133 -169.31265 -22.350086 -3.6232843
14050000000 -26.478746 -79.071442 -37.879196 167.93423 -37.977448 165.42046 -22.459913 -3.0952752
14060000000 -27.366583 -94.800217 -38.200794 142.02057 -38.230263 140.5656 -22.586432 -2.287863
14070000000 -28.849577 -105.19228 -38.048244 115.16467 -38.146339 115.46905 -22.761477 -2.326859
14080000000 -30.304043 -117.11444 -38.425076 90.281853 -38.179569 89.684288 -22.805498 -2.9652519
14090000000 -32.909828 -118.55141 -38.350971 65.350471 -38.0914 64.808235 -22.938644 -5.1877303
14100000000 -33.203918 -110.68391 -38.459568 39.150677 -38.228237 37.155487 -23.193003 -4.2366796
14110000000 -32.377647 -98.766678 -39.137581 14.383082 -38.783646 11.358925 -23.036608 -1.6957272
14120000000 -28.877546 -103.03581 -39.004971 -7.4693704 -39.268108 -10.153043 -23.008871 0.30846423
14130000000 -27.526424 -114.37141 -38.599808 -33.746433 -38.439491 -33.93235 -23.328859 1.0920422
14140000000 -26.276407 -124.71994 -38.466606 -63.006077 -38.255939 -64.340446 -24.035858 1.2343159
14150000000 -26.516043 -136.09967 -39.35125 -94.370262 -38.884506 -94.936584 -24.984791 -0.62497908
14160000000 -26.332232 -145.20676 -40.541256 -115.80397 -40.148525 -120.37543 -25.741861 -2.4038322
14170000000 -27.974066 -157.30766 -40.418625 -137.22844 -40.343811 -140.67729 -25.927458 -3.5350163
14180000000 -29.71434 -156.52229 -40.273094 -163.16481 -40.240726 -166.57039 -26.34148 -3.4455709
14190000000 -30.121225 -152.11662 -40.80278 169.36043 -40.5882 165.981 -27.033449 -0.2250803
14200000000 -29.778288 -148.64218 -40.9977 144.46706 -40.911499 138.5802 -28.867596 6.070106
14210000000 -29.005388 -145.52817 -41.486122 116.01265 -41.682774 110.86684 -31.190643 20.488722
14220000000 -27.426102 -147.90872 -41.646038 89.730576 -42.058689 86.377831 -33.227791 43.300343
14230000000 -26.225706 -155.22823 -42.294815 59.386681 -42.630806 58.638615 -33.247555 66.129692
14240000000 -26.040661 -162.39452 -43.700558 34.233067 -43.291058 32.056831 -31.98951 83.587547
14250000000 -25.878611 -169.03389 -44.020267 8.4553709 -43.910484 4.2823086 -29.612267 95.058807
14260000000 -26.528517 -175.64122 -44.759933 -14.96665 -44.953167 -20.152409 -27.202309 102.5651
14270000000 -26.836998 -175.47867 -44.45554 -41.274338 -44.639427 -47.995502 -24.831022 106.52479
14280000000 -27.851694 175.62639 -44.860249 -75.002594 -45.380035 -81.048431 -23.224033 106.69798
14290000000 -28.743979 -175.58786 -45.898975 -103.96345 -46.603291 -105.76117 -22.144905 106.02881
14300000000 -29.411819 -176.26637 -47.133884 -136.90425 -47.587387 -137.94064 -21.223513 104.0737
14310000000 -28.074709 -167.49667 -47.848347 -159.79581 -48.077076 -162.3304 -20.218262 100.78855
14320000000 -27.529978 -175.63605 -48.293945 171.25151 -48.348942 168.56448 -19.123598 96.732475
14330000000 -26.498024 -171.91855 -48.714237 140.09492 -48.678661 137.32501 -18.140253 93.38369
14340000000 -25.803562 177.14238 -48.980465 111.33612 -49.623802 106.60381 -17.219421 91.111145
14350000000 -25.681114 172.43187 -48.144711 78.646996 -48.895554 79.376953 -16.401739 89.665794
14360000000 -26.501755 161.38306 -48.704182 39.81477 -48.215397 40.253906 -15.742395 87.953316
14370000000 -28.082619 165.98955 -48.648815 7.3999114 -48.612202 2.1999977 -15.293222 85.852821
14380000000 -28.716413 161.02296 -49.652351 -30.586424 -49.491798 -32.507114 -14.971947 83.577827
14390000000 -30.073578 177.94632 -50.519791 -55.374931 -50.864071 -63.552666 -14.669337 80.580711
14400000000 -28.868589 179.5838 -50.550941 -77.723213 -51.033749 -80.059227 -14.362968 77.335724
14410000000 -27.956659 -173.54651 -48.77626 -102.41879 -49.248959 -101.37354 -13.982793 74.11779
14420000000 -26.287731 179.85695 -47.343666 -134.90842 -47.639793 -131.81754 -13.618974 70.896248
14430000000 -25.689514 171.82487 -46.663811 -166.97989 -46.11565 -166.25578 -13.360376 68.385597
14440000000 -26.071396 161.98428 -46.87072 158.74898 -46.0443 156.97998 -13.101504 66.095337
14450000000 -26.56023 161.03419 -47.016228 128.73483 -46.701118 120.96857 -12.918594 63.595482
14460000000 -28.166458 155.38934 -47.102654 102.57942 -47.442352 100.73425 -12.805253 61.009457
14470000000 -29.477364 168.14128 -46.830399 78.55043 -47.225819 77.975258 -12.685246 59.063202
14480000000 -29.109898 -176.70042 -46.5341 50.679939 -46.517929 53.968769 -12.596857 57.572586
14490000000 -27.356949 -172.34244 -46.280136 27.970207 -45.872738 25.627689 -12.531919 56.239517
14500000000 -25.726923 -172.86424 -45.735447 -0.21418537 -45.57354 -2.5912313 -12.60362 54.357834
14510000000 -24.92844 177.28008 -45.145679 -30.967798 -45.252823 -33.281441 -12.809985 52.888199
14520000000 -25.61237 173.5502 -45.913258 -63.433086 -45.961094 -61.369209 -12.898926 51.120522
14530000000 -25.270523 164.54309 -46.582096 -89.384293 -45.895355 -85.990074 -12.875834 49.14698
14540000000 -26.940138 165.00867 -48.005795 -110.16759 -46.842762 -112.56029 -12.74384 47.587189
14550000000 -27.051859 167.07408 -47.407246 -131.62938 -46.765991 -136.08292 -12.588532 46.616585
14560000000 -27.812647 -178.89249 -47.243122 -153.69809 -47.079834 -158.68048 -12.476825 46.184845
14570000000 -25.437681 -176.33705 -46.548302 171.36665 -46.227959 168.5421 -12.488413 45.993435
14580000000 -24.44459 -176.05305 -48.723732 139.53603 -48.378429 134.95267 -12.499089 45.796467
14590000000 -23.33885 176.83743 -49.700241 114.25459 -50.684185 114.32221 -12.550425 45.446865
14600000000 -23.245264 174.6338 -53.284229 100.91507 -51.567692 101.65968 -12.463511 44.949104
14610000000 -23.052637 166.26408 -52.131447 96.819946 -51.213715 86.325645 -12.401156 43.947975
14620000000 -24.149237 166.75267 -50.96558 73.757439 -50.431389 65.21489 -12.328292 43.295853
14630000000 -24.215075 166.69147 -51.296185 38.892899 -50.058788 27.610817 -12.320276 42.34911
14640000000 -24.40061 171.12758 -52.331161 9.2889662 -52.802723 -8.1820917 -12.326963 41.256123
14650000000 -23.729378 174.09428 -54.924549 -19.864426 -58.40379 -23.985144 -12.323743 39.930885
14660000000 -22.734713 173.20564 -59.98122 -15.251463 -59.07333 -10.312534 -12.174015 38.984745
14670000000 -22.386299 170.5824 -57.695557 -22.512928 -57.054501 -26.104061 -11.892499 37.203686
14680000000 -21.484743 168.03264 -58.481499 -31.664497 -60.932526 -53.729389 -11.729372 35.559822
14690000000 -21.442322 163.62804 -58.74173 -49.776237 -60.954475 -23.423925 -11.684278 34.428535
14700000000 -21.223467 160.46248 -56.917095 -45.06731 -56.79213 -44.298523 -11.692722 34.21254
14710000000 -21.739944 156.96317 -55.127254 -69.445656 -55.889301 -71.346481 -11.663274 33.697762
14720000000 -21.885359 156.87451 -56.769718 -99.326416 -59.015301 -92.293755 -11.731056 32.500324
14730000000 -22.235567 157.92838 -56.744389 -77.006737 -55.437992 -67.902519 -11.848025 30.882116
14740000000 -21.700945 158.25331 -51.979229 -100.90038 -50.631355 -94.937347 -12.016711 29.144274
14750000000 -21.653437 158.42632 -49.481396 -130.16243 -48.645531 -132.79453 -12.135882 27.035303
14760000000 -20.691261 157.4088 -49.30299 -168.66792 -48.782135 -165.46033 -12.241955 24.974277
14770000000 -20.623409 152.77374 -50.515411 166.48079 -49.393566 169.86082 -12.260711 23.206062
14780000000 -19.958876 149.54185 -50.564224 165.80637 -49.303246 160.25554 -12.321191 21.914877
14790000000 -20.032024 144.86089 -47.411228 146.9532 -47.40131 144.29922 -12.399128 21.746635
14800000000 -20.030708 141.50044 -46.172287 113.72877 -45.476112 114.90517 -12.457377 21.613716
14810000000 -20.839338 138.70459 -45.824928 86.769211 -45.097553 84.640007 -12.588059 20.812973
14820000000 -21.013958 141.41032 -46.266659 58.890324 -45.305309 57.56332 -12.872328 19.849306
14830000000 -21.309082 143.70804 -45.546932 40.951088 -44.764874 37.124252 -13.125907 19.871355
14840000000 -20.66663 144.56619 -44.905636 14.474483 -44.666626 12.671675 -13.278486 19.855238
14850000000 -20.543015 143.01724 -45.33794 -8.6164589 -44.684628 -11.407099 -13.457365 19.503157
14860000000 -19.875439 139.93445 -44.445045 -27.777918 -43.567268 -31.068096 -13.768711 19.312437
14870000000 -19.889446 132.45331 -43.541138 -57.430252 -42.872726 -62.226044 -14.105394 19.168964
14880000000 -20.130266 127.35458 -43.882748 -83.907852 -43.358448 -89.685402 -14.302221 18.125948
14890000000 -20.592575 123.16909 -44.249245 -103.73299 -43.858467 -109.84925 -14.458052 16.522348
14900000000 -21.204628 120.9615 -43.271481 -127.46427 -43.112457 -131.40372 -14.385329 16.287014
14910000000 -21.85611 124.98204 -43.124477 -152.98872 -42.693192 -156.9303 -14.228786 16.652937
14920000000 -21.433182 127.00343 -43.035027 -177.91579 -42.630833 177.90048 -14.271062 18.163744
14930000000 -21.174278 129.11075 -43.01825 156.59784 -42.261208 151.74146 -14.469975 20.520439
14940000000 -20.748945 126.72236 -42.997162 131.80901 -42.55238 123.85075 -14.768568 22.404715
14950000000 -20.31459 126.21313 -43.139004 108.03824 -43.004402 101.96558 -15.156976 23.279434
14960000000 -20.34367 117.11264 -43.25803 83.149513 -43.181263 77.94191 -15.419893 23.835707
14970000000 -21.289545 114.82854 -42.906174 62.0112 -42.849586 57.196671 -15.507477 23.887716
14980000000 -22.211981 110.61654 -42.763016 31.698872 -42.286201 27.499237 -15.610335 24.045557
14990000000 -23.083933 114.78531 -43.556168 8.3140488 -43.198624 -0.25787857 -15.848949 25.276178
15000000000 -23.366159 114.25641 -43.025055 -12.425643 -43.003513 -17.939871 -16.017715 27.428448
15010000000 -23.664356 119.57463 -43.142735 -44.345814 -42.773037 -50.285076 -15.957757 27.943161
15020000000 -23.018066 119.93251 -43.895855 -68.395844 -43.949387 -76.944893 -15.914709 27.21612
15030000000 -22.568695 119.45031 -44.558456 -90.790359 -44.823189 -99.385742 -15.680458 28.024717
15040000000 -22.343533 114.20293 -44.373203 -114.2443 -44.900238 -120.9216 -15.19888 29.616404
15050000000 -22.549877 111.91603 -45.385288 -137.7253 -45.057671 -139.34094 -14.890795 31.310711
15060000000 -23.23093 109.12178 -44.48959 -158.69279 -44.489548 -166.9445 -14.869431 34.226452
15070000000 -24.147228 108.66603 -44.606419 170.56706 -44.608173 164.01994 -14.896482 37.135662
15080000000 -25.074076 115.05251 -45.245232 141.0343 -44.952888 132.5869 -14.909734 37.797363
15090000000 -24.970688 119.47125 -46.25531 116.84801 -46.314487 103.59585 -15.028117 36.956814
15100000000 -25.158056 124.16891 -46.149181 93.499413 -47.29295 80.639328 -15.000721 36.07938
15110000000 -24.66106 125.41943 -47.10915 59.684261 -47.693527 51.725151 -14.807202 35.087242
15120000000 -24.267292 127.06447 -48.128597 37.048435 -48.983303 27.445505 -14.595781 34.211082
15130000000 -23.877089 120.97002 -48.855705 7.2199726 -50.393425 -0.4378736 -14.466329 33.924606
15140000000 -24.109821 121.02148 -50.949963 -13.705609 -50.392673 -16.596643 -14.25087 33.591244
15150000000 -23.89312 116.34252 -50.193859 -34.974304 -49.805672 -46.30901 -14.027536 32.583477
15160000000 -25.286018 115.65062 -49.168201 -63.679863 -49.571323 -81.439552 -13.901464 32.182999
15170000000 -25.436689 123.06563 -49.51149 -109.07434 -50.1763 -126.26039 -13.756111 32.55373
15180000000 -24.906395 127.57249 -50.695271 -145.19975 -51.364403 -161.88075 -13.654735 32.791126
15190000000 -24.541243 129.87857 -51.647949 174.07655 -51.187119 158.60928 -13.771039 32.688171
15200000000 -23.922474 134.6487 -53.281628 142.58441 -53.371101 117.20461 -13.96072 32.820004
15210000000 -22.619677 130.93057 -51.563522 110.31826 -52.761238 99.784882 -14.092627 32.013714
15220000000 -22.74333 125.74709 -50.22039 64.855881 -50.262035 58.123928 -14.293129 30.16398
15230000000 -22.722569 121.59614 -51.192501 20.457907 -50.725311 20.115496 -14.491632 28.941099
15240000000 -23.331202 118.43002 -52.35387 5.2044988 -50.194828 -8.0607834 -14.522956 28.168985
15250000000 -24.082312 117.87964 -49.691532 -19.348158 -49.812756 -25.318104 -14.470328 26.817177
15260000000 -24.716536 122.55645 -48.834335 -51.788204 -46.896812 -56.827587 -14.494435 25.852619
15270000000 -23.983545 127.74537 -47.435501 -79.337463 -46.06588 -91.247711 -14.474508 26.703363
15280000000 -23.191309 127.19511 -45.965435 -110.50659 -46.009857 -123.0953 -14.296666 28.061352
15290000000 -22.525427 125.42369 -45.254532 -139.30972 -45.763042 -147.47667 -14.307805 29.286524
15300000000 -21.790094 119.88109 -44.479393 -170.58881 -44.545612 -171.73326 -14.532501 31.155502
15310000000 -22.119169 114.6504 -44.61158 157.58395 -43.95969 155.01549 -14.73287 33.08688
15320000000 -22.220568 110.1523 -44.165825 137.29187 -43.484627 131.41302 -14.918709 33.01738
15330000000 -23.192907 108.79837 -43.850327 107.92884 -43.726997 104.95107 -15.22893 32.685081
15340000000 -23.365711 106.74001 -43.432262 87.211258 -43.064648 81.756912 -15.239266 33.032288
15350000000 -24.63884 112.6511 -43.126755 60.113956 -42.91148 57.000626 -15.101514 32.767342
15360000000 -23.663145 114.32904 -42.356483 40.134056 -41.753193 35.347343 -15.07585 32.673294
15370000000 -23.912037 115.4955 -40.859463 12.621609 -40.493343 5.6047788 -15.102637 33.177616
15380000000 -22.676022 110.71244 -40.626881 -24.246014 -40.723267 -29.340755 -14.99345 33.167828
15390000000 -23.295145 106.76067 -41.624458 -49.81311 -41.746281 -52.449329 -14.823269 32.539246
15400000000 -22.869316 100.38246 -42.093372 -70.653107 -41.901379 -73.640884 -14.586176 32.694828
15410000000 -23.768232 97.107147 -41.687485 -91.855728 -41.126076 -93.856575 -14.312008 34.034618
15420000000 -24.090981 90.204956 -40.900848 -115.93606 -40.600906 -119.48124 -14.11066 35.368141
15430000000 -25.440855 92.67955 -40.854164 -143.6881 -40.169441 -149.4834 -14.201792 36.46701
15440000000 -25.786217 91.00779 -40.824226 -168.25284 -40.475449 -175.11578 -14.482631 37.285542
15450000000 -26.970327 96.491562 -40.61409 166.619 -40.621922 159.571 -14.698913 36.359581
15460000000 -26.425785 99.088242 -40.604145 141.24635 -40.779522 137.41646 -14.931267 34.493385
15470000000 -26.499363 100.01075 -40.48008 115.36348 -40.304478 111.36988 -14.900809 33.235615
15480000000 -25.91357 94.530464 -40.182518 90.296509 -40.276981 86.199089 -14.696873 32.185425
15490000000 -26.381973 90.285736 -40.621006 62.054203 -40.366135 59.341682 -14.555386 31.587273
15500000000 -26.642317 81.079971 -41.207733 38.903183 -40.805504 33.777332 -14.5858 31.784504
15510000000 -27.656887 74.9207 -41.429325 16.242655 -41.108292 10.459622 -14.570923 32.626411
15520000000 -29.37356 60.386692 -41.058739 -4.8770547 -40.895458 -12.714343 -14.541599 33.021656
15530000000 -33.347252 70.13916 -40.682774 -32.481178 -41.062576 -39.573948 -14.529907 33.847775
15540000000 -34.830051 70.198479 -41.143116 -58.508755 -41.66188 -62.942905 -14.532509 35.399319
15550000000 -35.87505 110.13645 -41.364098 -82.074135 -41.652317 -85.303162 -14.505331 36.830849
15560000000 -33.652607 104.22477 -41.322132 -108.91813 -41.291561 -110.64415 -14.643864 37.596581
15570000000 -32.671982 106.80213 -41.639198 -134.74785 -41.249058 -139.17642 -14.906151 38.625214
15580000000 -32.944752 84.30471 -41.856361 -161.23315 -42.103729 -168.7748 -15.015059 39.167309
15590000000 -34.789986 76.600433 -42.503914 171.25204 -43.019711 167.07803 -15.10284 38.093044
15600000000 -36.29464 26.95451 -43.691742 149.79231 -43.870571 145.34555 -15.144554 36.878429
15610000000 -42.177753 -60.219707 -43.543781 128.2291 -44.031097 125.24413 -15.04394 36.260456
15620000000 -38.593548 -86.977829 -43.551201 103.80706 -44.017078 99.947144 -14.825811 35.590958
15630000000 -33.548458 -133.55225 -43.908817 76.611176 -44.133518 73.325523 -14.620281 35.706032
15640000000 -34.454914 -151.3847 -44.456142 50.972073 -44.588753 48.375214 -14.412972 36.976364
15650000000 -33.025093 -166.19722 -45.059509 23.828356 -45.52705 19.875618 -14.193499 38.244389
15660000000 -37.399815 -175.256 -46.118938 -1.6898022 -46.560619 -0.81357729 -14.216372 38.940132
15670000000 -35.7006 -161.71927 -47.87151 -22.33721 -47.172295 -24.35865 -14.414959 39.94622
15680000000 -38.668713 -127.01318 -46.899731 -45.168327 -47.006062 -51.062092 -14.591437 40.363277
15690000000 -31.655972 -120.08839 -47.682873 -76.16848 -48.289288 -84.498741 -14.722367 39.999901
15700000000 -28.782511 -126.80852 -49.289555 -103.54395 -49.948692 -100.12865 -14.812353 39.629208
15710000000 -27.137548 -139.42253 -51.219986 -129.65739 -50.659161 -132.57381 -14.780375 39.60643
15720000000 -26.715078 -145.6707 -53.103176 -154.1333 -53.367603 -147.98625 -14.780452 39.34502
15730000000 -26.63418 -152.02885 -56.01804 -166.1745 -53.884861 -169.21767 -14.90288 39.0467
15740000000 -27.037319 -152.03561 -55.009998 178.56294 -53.145058 172.33353 -14.953547 39.125385
15750000000 -27.036543 -151.11438 -54.139919 142.81543 -53.366478 134.93767 -14.786648 39.27462
15760000000 -26.719833 -148.20399 -57.691811 107.70654 -57.308964 106.00394 -14.480574 39.575134
15770000000 -26.399471 -145.87833 -57.663982 62.379032 -56.676506 75.914131 -14.133841 41.106861
15780000000 -25.247553 -144.76932 -63.041531 -19.093878 -60.276905 14.99964 -13.892676 43.334923
15790000000 -24.564722 -147.57986 -66.33432 -123.55721 -65.790764 -40.944435 -13.812348 45.85207
15800000000 -23.982866 -149.33081 -66.948647 155.07442 -74.80735 -150.42625 -13.922752 47.624878
15810000000 -23.498688 -152.33508 -66.88472 153.95744 -69.358223 -118.3203 -14.1383 48.382252
15820000000 -23.209654 -152.51236 -63.521656 149.43704 -66.67318 145.31981 -14.206511 47.663067
15830000000 -22.823795 -153.86642 -62.308483 117.78326 -71.109398 134.02666 -14.156846 45.826408
15840000000 -22.430128 -153.79672 -60.739735 92.803802 -70.488876 -164.17702 -13.933077 44.259563
15850000000 -22.317329 -159.1091 -61.496151 81.925514 -59.099461 136.45355 -13.645638 43.104828
15860000000 -22.957481 -156.38072 -58.211567 77.130524 -56.578716 93.398109 -13.332348 42.578629
15870000000 -22.813183 -154.91064 -56.062603 47.207973 -56.217857 57.001572 -13.053462 42.184483
15880000000 -22.635433 -149.17949 -54.679295 17.740818 -55.951557 30.943356 -12.764915 42.060833
15890000000 -21.61482 -150.09355 -52.841999 -5.6447277 -54.264828 17.236689 -12.490401 41.910484
15900000000 -21.083696 -152.41711 -51.911488 -43.386925 -52.696911 -21.105459 -12.258715 42.007954
15910000000 -20.677687 -155.43501 -54.058037 -78.894814 -53.920536 -55.652 -12.119689 42.131485
15920000000 -20.282057 -158.27452 -56.871017 -108.95048 -56.820267 -69.510406 -12.062494 42.039612
15930000000 -20.428864 -162.72546 -61.114262 -82.527412 -55.871517 -60.557934 -12.094868 41.345562
15940000000 -21.004393 -161.0928 -53.129807 -92.18512 -51.270706 -87.818962 -12.19441 40.191261
15950000000 -20.768421 -157.44135 -51.008312 -135.07225 -49.87289 -125.48 -12.241411 38.270199
15960000000 -20.602133 -153.58391 -51.532387 -174.57854 -50.465038 -156.92865 -12.240943 35.681625
15970000000 -19.617739 -150.77307 -53.106926 159.29608 -50.926308 176.68614 -12.184382 32.780426
15980000000 -19.107021 -152.1189 -54.330364 151.2009 -51.436077 156.53339 -12.022348 30.323172
15990000000 -18.391365 -154.17043 -52.621288 127.25196 -51.005802 135.29414 -11.788782 28.514376
16000000000 -18.615774 -158.19455 -53.29398 103.38052 -51.042053 113.04493 -11.595159 27.599188
16010000000 -18.548697 -157.9892 -54.769321 84.795006 -50.894363 94.592476 -11.498707 27.486633
16020000000 -18.777964 -159.29893 -54.511269 75.76091 -50.24789 73.765335 -11.52694 27.548056
16030000000 -18.707165 -155.83578 -53.12661 62.470825 -49.982296 52.388504 -11.668538 26.635225
16040000000 -18.219496 -154.31055 -50.878822 32.432594 -48.876236 28.503223 -11.940448 24.776367
16050000000 -17.418833 -153.73387 -50.152256 -0.5834313 -48.496189 -1.6284888 -12.246015 22.321423
16060000000 -16.912582 -155.87392 -51.028214 -32.998631 -48.358818 -31.157486 -12.445392 20.124836
16070000000 -16.540905 -157.3333 -54.474525 -55.508629 -50.511593 -55.03891 -12.524589 17.747795
16080000000 -16.444792 -158.82382 -53.408665 -50.314575 -49.831566 -71.435356 -12.695367 15.148029
16090000000 -16.295897 -157.78073 -51.135464 -79.014557 -50.304924 -94.706001 -12.856651 12.81112
16100000000 -16.1229 -158.4366 -51.532505 -106.65952 -49.670544 -113.14266 -13.029021 10.379823
16110000000 -15.896376 -157.25188 -51.561604 -127.53305 -49.242268 -136.31479 -13.099298 8.8999453
16120000000 -15.445475 -157.20537 -50.8097 -150.05952 -48.735008 -161.91341 -13.046699 8.4772367
16130000000 -14.989575 -158.63637 -51.050461 -175.04115 -49.112949 168.08977 -13.073133 8.927103
16140000000 -14.742329 -160.16917 -50.851086 167.78862 -49.538174 151.83055 -13.308039 10.307425
16150000000 -14.437446 -162.16513 -50.201317 135.29965 -49.087292 120.49551 -13.758177 11.383121
16160000000 -14.428015 -163.24657 -52.015644 107.19601 -49.776035 96.220459 -14.362279 11.114581
16170000000 -14.05495 -162.39264 -52.979412 91.188972 -51.24247 69.918427 -14.964125 9.2769413
16180000000 -13.706225 -162.83408 -53.174458 74.306854 -52.051414 53.180801 -15.343525 6.3397684
16190000000 -13.297359 -163.37532 -52.882854 61.787338 -52.324177 35.088169 -15.557586 3.683177
16200000000 -12.940992 -163.99496 -52.334988 35.398705 -52.157417 12.193872 -15.644559 1.9638941
16210000000 -12.599749 -166.42616 -51.877708 8.9632416 -51.625713 -9.1007271 -15.767889 1.3148021
16220000000 -12.610701 -166.9274 -52.150738 -12.807416 -51.539726 -32.781494 -15.882437 1.0489813
16230000000 -12.35333 -168.41487 -52.56588 -41.551899 -51.760006 -65.95742 -15.960251 0.99045867
16240000000 -12.406237 -168.44415 -53.877819 -69.853134 -53.516747 -99.267876 -15.945084 0.8866936
16250000000 -12.057621 -169.40855 -55.243496 -80.146736 -56.330383 -114.2595 -16.012711 1.8098493
16260000000 -11.897216 -169.79691 -57.148586 -106.39013 -58.808434 -129.22696 -16.254076 4.1138339
16270000000 -11.384048 -171.22601 -55.461784 -105.88776 -58.380402 -136.3064 -16.64603 6.7350063
16280000000 -11.179444 -173.35078 -56.356503 -132.15361 -60.396412 -170.86531 -17.132168 8.137248
16290000000 -10.845691 -175.06871 -53.984455 -147.20836 -58.180023 -162.20247 -17.689205 6.8157129
16300000000 -10.751851 -176.82803 -54.875515 171.82272 -58.020679 158.00551 -18.205488 3.4686241
16310000000 -10.559328 -177.86035 -57.324318 160.55795 -62.74971 136.0923 -18.510973 -0.50688183
16320000000 -10.531565 -178.23615 -57.159767 146.2715 -62.971207 127.933 -18.599367 -3.4174805
16330000000 -10.217681 -178.13019 -57.178864 132.78926 -70.7509 124.99308 -18.563501 -5.0228753
16340000000 -10.0924 -179.24451 -56.464294 104.50986 -61.726158 139.73755 -18.510422 -6.4564171
16350000000 -9.8122578 -179.82874 -59.810284 88.943489 -65.155472 123.11588 -18.463875 -7.1277881
16360000000 -9.6717072 178.35359 -59.838398 91.11248 -60.137318 121.82972 -18.594557 -7.5633221
16370000000 -9.4540501 177.11684 -56.535812 75.150978 -56.702328 92.455879 -18.898609 -6.541379
16380000000 -9.3366241 175.19815 -55.950443 54.734734 -56.69453 70.98999 -19.452772 -5.1230111
16390000000 -9.1359529 173.72517 -54.823818 28.800678 -55.773258 49.609432 -20.324512 -4.5682364
16400000000 -9.0678282 172.13893 -55.530766 3.1017246 -55.516705 26.873371 -21.402161 -6.9657989
16410000000 -8.8824263 171.21933 -55.23579 -11.526185 -54.537926 11.482364 -22.54038 -12.967917
16420000000 -8.7649851 170.24857 -55.069134 -25.95665 -52.814438 -16.354319 -23.4734 -19.927574
16430000000 -8.5713282 169.85893 -53.63821 -45.403786 -53.028839 -38.908321 -24.076456 -24.161327
16440000000 -8.4194498 169.18634 -52.798946 -69.611649 -52.175629 -60.059891 -24.638889 -26.862299
16450000000 -8.191431 168.69414 -53.310173 -90.777847 -51.80257 -82.025055 -25.544191 -28.822657
16460000000 -7.9884143 167.64633 -51.518784 -110.83247 -49.798229 -104.48293 -26.679167 -31.451122
16470000000 -7.8234854 166.04485 -50.480099 -136.34273 -49.459156 -139.15622 -27.953915 -32.505959
16480000000 -7.7393708 164.56807 -50.384499 -166.02652 -50.213799 -163.84616 -29.151936 -28.043291
16490000000 -7.6266117 162.88159 -50.217594 167.0464 -49.71452 174.20982 -30.419014 -14.934349
16500000000 -7.6225109 161.52858 -51.579338 142.04395 -50.042267 149.43613 -32.005577 7.1778073
16510000000 -7.5831866 160.47766 -52.138157 130.19609 -49.962475 127.80702 -32.948959 41.77972
16520000000 -7.4977884 160.87923 -51.004509 116.29465 -49.582291 107.03698 -32.714588 74.826332
16530000000 -7.140059 160.17986 -48.604931 87.439369 -48.758472 78.931671 -32.562283 98.150742
16540000000 -6.9467244 159.23456 -48.979244 51.200024 -49.351555 52.584671 -32.844612 114.17497
16550000000 -6.666482 157.91425 -49.66309 26.599754 -49.061386 28.102365 -33.274734 115.61381
16560000000 -6.5413923 156.52393 -50.011757 6.6167374 -49.689899 4.2413459 -33.038876 107.4257
16570000000 -6.4415569 154.88852 -49.848736 -22.752428 -49.19429 -22.707907 -31.568634 100.20112
16580000000 -6.4577565 154.01379 -49.851448 -43.333412 -49.537052 -47.191334 -30.047745 97.883835
16590000000 -6.3964267 153.20468 -50.329445 -71.951134 -50.109879 -72.451004 -29.033627 98.504761
16600000000 -6.3249917 152.82816 -51.24181 -91.966385 -50.866692 -92.583755 -28.415895 100.51353
16610000000 -6.1376557 152.23518 -50.520016 -112.69492 -50.024227 -116.28399 -27.393545 101.37994
16620000000 -5.9072452 151.34225 -50.645081 -141.75867 -50.230789 -142.35715 -25.90136 101.34924
16630000000 -5.6540947 149.71912 -50.751274 -161.2104 -50.582397 -165.23705 -24.480597 102.42271
16640000000 -5.5111861 148.19981 -50.2663 169.98849 -50.637169 165.4567 -23.307861 108.04449
16650000000 -5.3068705 146.84305 -51.162498 141.25424 -51.311256 144.32761 -22.399466 113.25007
16660000000 -5.2440467 145.411 -51.928841 118.44264 -51.861851 117.57268 -22.085978 118.25298
16670000000 -5.1320791 144.82831 -52.411781 93.843857 -52.061703 94.453758 -22.019114 120.70785
16680000000 -5.003963 144.09221 -52.283684 69.313423 -51.761761 68.656029 -21.990833 119.4975
16690000000 -4.8278041 143.45163 -52.880604 45.512856 -52.985733 38.643829 -21.817888 114.8303
16700000000 -4.687686 142.34364 -52.374828 16.946684 -53.149033 13.029363 -21.344379 110.39092
16710000000 -4.4867849 141.34468 -53.811596 -15.9932 -54.733604 -16.008173 -20.450291 106.51874
16720000000 -4.350378 139.76945 -55.307583 -40.811684 -56.217751 -40.159542 -19.606249 104.29646
16730000000 -4.1701522 138.3683 -55.393822 -59.030464 -55.575043 -58.261673 -18.855875 102.65285
16740000000 -4.077498 136.72086 -55.524761 -80.822594 -57.400459 -83.258476 -18.293571 101.4958
16750000000 -3.9315405 135.63158 -54.565777 -116.17262 -55.366997 -105.92651 -17.825603 101.06802
16760000000 -3.7861094 134.22699 -56.023643 -144.58987 -55.674168 -144.02673 -17.533747 100.25051
16770000000 -3.6469181 133.04224 -54.963688 -177.30724 -55.924267 176.32779 -17.432373 99.848907
16780000000 -3.5067375 131.93698 -56.343582 143.58255 -59.802101 145.19272 -17.420877 98.974014
16790000000 -3.3520479 130.67604 -57.244312 118.57986 -58.082561 133.20119 -17.544645 96.974594
16800000000 -3.2393734 129.3741 -56.803661 89.615677 -57.643692 91.370255 -17.803909 93.462677
16810000000 -3.1035998 128.0842 -57.575916 55.138603 -58.102573 55.590988 -18.086235 89.514717
16820000000 -2.9878199 126.6278 -57.201893 29.928949 -60.843266 25.776279 -18.244377 85.245956
16830000000 -2.842042 125.0541 -55.876728 3.1378775 -58.934273 13.264134 -18.194998 80.502808
16840000000 -2.7306101 123.38271 -55.834423 -35.308475 -57.822372 -30.564852 -18.00659 76.60952
16850000000 -2.612093 121.71434 -55.304806 -54.626179 -55.470501 -47.596996 -17.788763 74.511909
16860000000 -2.5159402 120.19975 -53.441505 -89.279037 -54.523273 -87.326096 -17.602806 73.827744
16870000000 -2.3917873 118.77422 -53.272491 -117.75565 -54.135452 -117.95383 -17.595922 75.288712
16880000000 -2.2857833 117.47108 -52.362267 -148.58864 -53.675217 -153.14699 -17.805618 77.04924
16890000000 -2.1647041 116.16911 -52.742218 178.68483 -54.17701 -176.36095 -18.448946 79.015198
16900000000 -2.052022 115.00324 -53.655575 156.62988 -53.723454 157.94212 -19.248053 80.281967
16910000000 -1.9213305 113.49436 -51.720619 141.05984 -52.760933 136.54953 -20.199789 80.602844
16920000000 -1.8384148 112.00499 -50.675957 108.92563 -51.816326 109.24922 -20.999788 79.898506
16930000000 -1.747368 110.31439 -50.008511 81.633018 -50.536839 84.833611 -21.599882 78.993553
16940000000 -1.6958607 108.67216 -49.654095 53.150131 -49.942066 52.608982 -22.028255 79.089737
16950000000 -1.6144615 106.9938 -49.300014 24.338186 -49.965492 23.813526 -22.144953 81.947144
16960000000 -1.5508232 105.45517 -49.008934 -2.6051846 -49.692482 -2.9192393 -21.830946 84.936081
16970000000 -1.4517287 103.90388 -49.327206 -28.813721 -49.923611 -30.351124 -21.453699 88.759811
16980000000 -1.3608847 102.39358 -49.153095 -52.673115 -49.854675 -52.14352 -20.930988 93.578049
16990000000 -1.249017 100.83678 -49.171173 -78.053383 -49.743446 -75.752144 -20.207376 99.040054
17000000000 -1.1621985 99.297058 -48.640587 -100.7328 -49.058743 -100.34389 -19.494967 103.59299
