!Keysight Technologies,P9374A,MY57211807,A.19.30.04
!Date: Friday, May 08, 2026 14:12:28
!Correction: S11(C  2-Port  ) 
!S21(C  2-Port  ) 
!S12(C  2-Port  ) 
!S22(C  2-Port  ) 
!S2P File: Measurements: S11, S21, S12, S22:
# Hz S  dB   R 50
13000000000 -18.914389 61.704777 -46.037842 -123.925 -46.071548 -125.80986 -9.4236097 19.582821
13010000000 -18.56675 61.415157 -45.314411 -139.42458 -45.022282 -139.31509 -9.3776522 15.269018
13020000000 -18.837879 59.473778 -43.647865 -159.1035 -43.395412 -160.46057 -9.3856325 10.825606
13030000000 -19.020365 59.323402 -41.969326 171.78545 -42.037464 170.11325 -9.4691286 6.4761057
13040000000 -19.680258 58.398308 -42.356785 143.93187 -42.439575 141.80675 -9.6068239 2.6766074
13050000000 -20.145832 61.361633 -43.04068 121.96066 -43.138954 121.29998 -9.7715569 -0.99892926
13060000000 -20.321144 64.106544 -42.537216 106.18153 -42.341782 106.25259 -10.024535 -4.9602003
13070000000 -19.863779 65.536194 -41.50362 86.079819 -41.389809 84.150269 -10.357137 -9.2807522
13080000000 -19.768332 64.378731 -40.515266 60.308125 -40.533356 59.325207 -10.760045 -13.879668
13090000000 -19.437864 62.8895 -40.239315 33.144749 -40.232258 32.369488 -11.098112 -18.389767
13100000000 -19.442083 61.33807 -40.351589 7.9906316 -40.321129 7.1355987 -11.425649 -22.820246
13110000000 -19.399115 60.401104 -40.419216 -15.287457 -40.3097 -16.113022 -11.844288 -26.619295
13120000000 -19.591732 60.96032 -40.724457 -37.220142 -40.818405 -37.640629 -12.32475 -30.051811
13130000000 -19.15716 60.845894 -40.357109 -57.808353 -40.232121 -58.232239 -12.875324 -33.712162
13140000000 -19.464869 60.139072 -40.112091 -81.338951 -40.13644 -82.017784 -13.485024 -38.045681
13150000000 -19.302608 60.085667 -39.865047 -104.5427 -39.65435 -105.54553 -14.115721 -42.510181
13160000000 -19.716736 60.070728 -40.271976 -127.68578 -40.185295 -128.75034 -14.791146 -46.431171
13170000000 -19.589109 60.207668 -39.838291 -148.08585 -39.672745 -149.57492 -15.583045 -49.553436
13180000000 -19.889866 60.862991 -39.54504 -172.4622 -39.542645 -173.93704 -16.524277 -52.255695
13190000000 -19.301023 62.384434 -39.582569 162.03319 -39.567192 161.03093 -17.679157 -56.19043
13200000000 -18.899389 58.630299 -39.622261 140.03255 -39.598545 139.78847 -19.004709 -62.085213
13210000000 -18.738731 55.125221 -39.519016 117.24696 -39.481064 116.76167 -20.280291 -69.36013
13220000000 -18.821302 52.020756 -39.748932 93.309364 -39.629803 92.047104 -21.466141 -76.231903
13230000000 -19.058823 48.233536 -39.888184 71.39756 -39.863594 70.40715 -22.928246 -81.919182
13240000000 -19.817322 48.641594 -40.021812 51.863152 -39.972908 50.958534 -25.162537 -85.083214
13250000000 -19.914379 51.605484 -39.703987 30.883305 -39.70541 30.331221 -28.631845 -90.506897
13260000000 -19.90007 54.323311 -38.73576 8.8771935 -38.648079 7.4841151 -34.223682 -114.07848
13270000000 -19.28614 54.761452 -38.529266 -19.948561 -38.488968 -21.200569 -35.037533 176.69489
13280000000 -18.883387 52.055958 -38.543339 -47.321224 -38.57032 -48.318916 -30.056149 144.66861
13290000000 -18.85434 46.658092 -39.608311 -72.01252 -39.673412 -72.838448 -27.108711 131.17474
13300000000 -19.07991 42.967815 -39.69001 -90.720718 -39.674358 -91.628204 -25.292795 119.53375
13310000000 -19.655174 39.374702 -39.704338 -111.9816 -39.732761 -112.57584 -23.510902 109.099
13320000000 -19.980547 39.241627 -39.195515 -134.59502 -39.202705 -135.18945 -21.627806 101.30484
13330000000 -20.097889 37.995876 -38.948166 -159.01173 -38.915974 -159.28613 -20.041784 96.39402
13340000000 -20.281727 40.029755 -39.075691 174.47522 -39.006077 173.85326 -18.776522 93.448975
13350000000 -20.112501 38.571396 -39.119343 150.02031 -39.043736 149.47687 -17.921576 90.118034
13360000000 -20.141443 38.355873 -39.39592 124.89378 -39.398003 123.91861 -17.307858 85.332497
13370000000 -20.269371 37.277451 -39.905998 102.08231 -39.826199 102.13483 -16.737717 79.020203
13380000000 -19.955524 36.680679 -39.698303 79.451073 -39.55378 78.230843 -15.982885 73.241341
13390000000 -20.327524 32.649567 -39.809784 52.920769 -39.765903 52.851898 -15.108718 68.427628
13400000000 -20.224428 32.620285 -40.237335 28.159811 -40.194317 27.824661 -14.288302 64.938736
13410000000 -20.454462 25.69323 -40.486187 6.0097904 -40.364037 5.1048169 -13.746339 62.185997
13420000000 -21.165411 23.946251 -40.628479 -16.921438 -40.54068 -17.509901 -13.458776 59.495129
13430000000 -21.846535 19.675735 -40.288609 -41.375126 -40.1912 -42.452457 -13.298193 55.907448
13440000000 -22.629124 22.668447 -40.483345 -68.80809 -40.351177 -69.14753 -13.182157 51.522747
13450000000 -22.713753 26.934566 -41.058147 -95.673515 -40.933292 -96.837616 -13.023165 46.845337
13460000000 -22.028051 29.320623 -41.1759 -117.75314 -41.06284 -119.43438 -12.730742 42.47818
13470000000 -21.736916 25.910028 -41.524757 -144.81586 -41.467587 -145.6523 -12.523154 38.805199
13480000000 -21.048941 23.372297 -41.84053 -169.92583 -41.880711 -171.31038 -12.429539 35.735096
13490000000 -21.771648 12.004717 -42.619534 163.99129 -42.541359 162.96623 -12.439631 33.073814
13500000000 -22.659103 11.47019 -42.84761 141.01413 -42.890938 140.10025 -12.580509 30.311243
13510000000 -23.8692 8.764946 -42.962601 116.70259 -43.038879 115.83997 -12.726722 27.62388
13520000000 -24.933176 11.880371 -43.349442 88.502594 -43.317852 87.524124 -12.88382 25.228037
13530000000 -25.691612 16.56657 -43.492226 62.436733 -43.4888 62.19632 -13.012239 23.110527
13540000000 -24.714565 20.815609 -44.359756 36.462498 -44.365837 34.098534 -13.241032 21.18667
13550000000 -24.417273 18.086241 -44.551052 11.611801 -44.701122 10.616338 -13.52824 20.288738
13560000000 -23.59523 14.700706 -45.11491 -14.910599 -44.95158 -14.149737 -13.799623 19.551844
13570000000 -24.871222 8.3550529 -44.678234 -41.941151 -44.633621 -41.830997 -13.967867 18.631828
13580000000 -24.587425 8.5286198 -44.759945 -72.935951 -44.849541 -74.203323 -14.149069 17.369263
13590000000 -26.323549 4.0405006 -46.106304 -104.92328 -46.060852 -106.54237 -14.226989 17.05958
13600000000 -26.254059 11.573628 -46.906528 -125.29235 -47.05909 -126.30712 -14.262992 17.15296
13610000000 -27.469887 12.222224 -47.386036 -150.42191 -47.301521 -151.36298 -14.201766 18.206051
13620000000 -27.534605 14.40151 -46.561005 -173.97346 -46.640102 -173.85558 -14.16935 18.916338
13630000000 -28.47118 18.070932 -46.57658 156.46396 -46.476105 155.49579 -14.134862 19.766558
13640000000 -27.595337 20.121241 -45.904034 127.33393 -46.140343 127.17235 -14.116687 19.811729
13650000000 -28.255222 19.657393 -46.89386 98.807175 -47.088482 97.859383 -14.051859 19.433599
13660000000 -26.957481 20.104576 -46.195698 73.38015 -46.119503 72.454964 -13.883583 18.223921
13670000000 -27.39958 11.664527 -46.213863 46.835526 -46.339172 45.892612 -13.623976 17.205879
13680000000 -27.310337 10.018496 -45.592701 19.482206 -45.620228 18.749674 -13.351106 15.634894
13690000000 -28.489445 4.1471438 -44.975391 -7.0966997 -44.988743 -6.7953415 -13.075488 14.695172
13700000000 -30.115833 13.317734 -44.547054 -36.400143 -44.681137 -37.531517 -12.826821 13.148655
13710000000 -30.275183 27.221861 -44.733852 -64.515068 -44.841137 -63.750896 -12.73757 11.482072
13720000000 -28.630709 32.298695 -44.067657 -89.180206 -43.954491 -89.934082 -12.559582 9.3709364
13730000000 -28.399406 35.261147 -44.131859 -114.62306 -44.143196 -115.21339 -12.442364 6.4378309
13740000000 -26.374203 30.605843 -43.342579 -138.64459 -43.283714 -138.99512 -12.345416 3.4141438
13750000000 -27.272148 17.657322 -42.444057 -165.48253 -42.420055 -165.85042 -12.287701 0.65665853
13760000000 -27.577871 12.686299 -42.065319 163.99727 -42.094917 163.67809 -12.30869 -1.9880846
13770000000 -29.54842 4.1831436 -42.424603 137.71837 -42.419735 137.37761 -12.492836 -4.6733646
13780000000 -30.573284 11.685192 -42.35281 115.35873 -42.298645 115.48451 -12.666791 -7.7113647
13790000000 -30.776108 20.970257 -41.746403 93.455681 -41.549828 92.881889 -12.918174 -11.761169
13800000000 -29.399958 22.526928 -40.854717 67.238564 -40.8484 66.382729 -13.135811 -15.720586
13810000000 -28.200308 23.95059 -40.687344 40.55822 -40.542759 39.144897 -13.306402 -19.245693
13820000000 -26.923426 14.777164 -40.434288 14.560787 -40.506771 14.198012 -13.485024 -21.839542
13830000000 -27.252865 12.332514 -40.270573 -11.830008 -40.161964 -11.919237 -13.793389 -24.154224
13840000000 -26.688917 2.574923 -40.115501 -35.48418 -40.037865 -36.051785 -14.298377 -26.030916
13850000000 -28.520407 0.77863002 -40.276691 -60.612438 -40.266022 -61.555782 -14.872815 -27.898554
13860000000 -27.702251 -0.48568985 -40.048248 -81.375641 -39.906288 -82.095184 -15.458855 -30.266785
13870000000 -28.782501 -5.9966545 -39.462372 -105.54665 -39.306484 -106.62421 -16.024521 -32.658566
13880000000 -29.674751 -8.7036667 -38.791187 -131.83232 -38.847233 -133.35124 -16.564165 -34.349316
13890000000 -30.076218 -0.6468944 -38.907177 -157.4621 -38.911015 -158.15152 -17.188581 -35.341339
13900000000 -28.892874 -7.1175113 -38.861713 177.24136 -38.874111 176.83037 -17.9142 -35.300972
13910000000 -29.649799 -5.4334702 -38.953712 155.4427 -38.927654 154.2567 -18.709721 -35.15543
13920000000 -28.184944 -6.2603774 -38.318031 133.01186 -38.358017 131.67227 -19.480799 -34.77803
13930000000 -27.834705 -13.790833 -37.927231 105.43153 -37.962276 105.05875 -20.068071 -34.219299
13940000000 -27.370928 -24.309732 -38.169872 80.506592 -38.118828 79.61113 -20.539007 -32.391136
13950000000 -28.138622 -37.125504 -38.086102 56.201221 -38.129372 55.746193 -20.778767 -28.777332
13960000000 -29.390108 -48.450584 -37.901386 31.653898 -37.914921 30.787727 -20.90708 -24.508734
13970000000 -31.010046 -53.818905 -37.894142 8.2952137 -37.897408 7.8003058 -21.170887 -19.847185
13980000000 -32.866131 -56.430374 -37.999741 -16.594362 -38.025238 -17.340425 -21.528023 -15.226309
13990000000 -32.491089 -44.915573 -37.800125 -40.462379 -37.869156 -40.977528 -21.88187 -10.928354
14000000000 -30.670069 -49.08606 -37.629162 -64.397469 -37.641228 -64.520622 -22.127357 -8.0772524
14010000000 -29.235117 -50.150154 -37.561146 -89.786446 -37.472427 -89.802704 -22.220201 -7.0367184
14020000000 -27.997026 -60.964062 -37.471592 -115.55692 -37.452984 -115.90674 -22.240149 -7.6896396
14030000000 -27.558023 -71.044518 -37.741219 -139.53416 -37.701481 -140.11458 -22.330521 -7.9561615
14040000000 -28.270094 -80.829193 -37.665054 -164.21776 -37.742416 -165.04025 -22.459782 -7.768373
14050000000 -28.885817 -82.919395 -37.734993 171.38167 -37.696743 171.34811 -22.573902 -6.8551192
14060000000 -30.118307 -93.341217 -37.897846 147.37926 -37.848061 146.70616 -22.764574 -6.7790484
14070000000 -31.761818 -88.481377 -37.872906 121.92743 -37.839527 121.61391 -23.031111 -7.0655746
14080000000 -30.977812 -98.214798 -37.879288 96.24231 -37.854866 95.858238 -23.104698 -7.6494484
14090000000 -31.778194 -97.097466 -38.289314 72.34893 -38.287457 72.373817 -23.15461 -9.3544683
14100000000 -30.644333 -110.60727 -38.208622 47.404194 -38.20649 46.68066 -23.35725 -8.8922663
14110000000 -31.14686 -108.85252 -38.721397 22.251839 -38.742973 21.885115 -23.258654 -6.3318067
14120000000 -29.676556 -116.92274 -38.675404 -0.75514638 -38.583088 -2.2583458 -23.270803 -4.5944834
14130000000 -29.103674 -119.67764 -38.615814 -26.874985 -38.702171 -27.445339 -23.680531 -3.7157669
14140000000 -28.012245 -127.17482 -39.002266 -53.904709 -39.034126 -54.415668 -24.384111 -3.2964725
14150000000 -28.164873 -130.50414 -39.129433 -80.06974 -39.189831 -79.456581 -25.154428 -5.2337098
14160000000 -27.075085 -140.00407 -39.969204 -106.96222 -39.859268 -107.36887 -25.877348 -7.7645216
14170000000 -28.345921 -151.31741 -40.783535 -131.46988 -40.699142 -133.09541 -26.122252 -9.7473021
14180000000 -29.440395 -154.05342 -41.050659 -153.62601 -40.957863 -154.78192 -26.607176 -9.9581356
14190000000 -30.24287 -153.56209 -41.378113 -178.82849 -41.496456 179.99489 -27.451323 -8.037096
14200000000 -29.874958 -150.50722 -41.687668 154.61153 -41.638054 154.81999 -29.468201 -3.6688259
14210000000 -29.500788 -148.52518 -42.453701 126.05113 -42.501545 126.03297 -32.322147 8.7738714
14220000000 -27.740124 -147.31918 -43.407631 102.16991 -43.383034 101.50426 -35.463509 28.868481
14230000000 -26.523254 -158.15794 -44.101818 75.3041 -44.104336 73.464668 -36.996037 61.678486
14240000000 -26.480543 -165.58803 -45.470757 50.834328 -45.537907 50.451992 -34.940956 88.730949
14250000000 -26.712078 -170.7995 -46.01685 25.351833 -45.946987 26.372763 -31.641151 102.16183
14260000000 -27.382462 -175.44202 -47.072556 -0.37257093 -46.892433 0.11404311 -28.462299 109.14652
14270000000 -28.104673 -175.27657 -48.118225 -27.540323 -47.757687 -29.574009 -25.807344 111.52982
14280000000 -28.761478 -175.7332 -48.942364 -52.141159 -48.944706 -55.276691 -24.037283 111.49577
14290000000 -28.341986 -170.50163 -50.935406 -78.489014 -51.056679 -79.580452 -22.829529 110.98417
14300000000 -28.282099 -175.08212 -52.717934 -107.84975 -52.827137 -108.42483 -21.860626 108.7718
14310000000 -27.781645 -174.9201 -54.340965 -131.06657 -53.661266 -128.67619 -20.868328 104.79397
14320000000 -27.974649 178.01495 -53.88755 -155.04097 -53.453423 -157.88391 -19.754337 100.16196
14330000000 -27.479212 -178.72502 -55.66217 154.05667 -54.780464 152.83429 -18.690733 96.157372
14340000000 -27.356192 176.28911 -58.137398 109.11973 -57.882633 106.38998 -17.714802 93.482376
14350000000 -26.945717 177.07852 -60.707874 77.119766 -60.610699 66.826988 -16.869122 91.695221
14360000000 -27.179014 169.99162 -59.334755 42.407795 -60.917934 33.10508 -16.215633 90.155487
14370000000 -27.483273 170.46817 -56.635395 1.144364 -57.138496 8.1473541 -15.703874 88.143623
14380000000 -28.275644 162.94327 -56.543552 -51.524673 -55.866867 -46.952301 -15.358212 85.494835
14390000000 -29.780653 172.09808 -56.104305 -80.369141 -55.065029 -81.167313 -15.051281 82.363754
14400000000 -29.254204 177.86383 -55.905159 -100.82274 -55.582596 -107.20068 -14.728542 78.958015
14410000000 -28.66107 -178.98029 -52.756321 -120.71691 -53.538521 -124.31116 -14.384047 75.630806
14420000000 -27.522959 -179.93454 -51.485077 -157.5237 -51.519718 -158.86758 -14.030961 72.586334
14430000000 -26.348597 173.83612 -50.967407 176.92088 -50.728104 178.91692 -13.735874 69.877289
14440000000 -26.700954 165.01573 -50.461643 153.22986 -50.28656 151.49968 -13.465999 67.288818
14450000000 -26.897009 161.97313 -49.082504 126.52908 -49.109158 124.65072 -13.276605 64.637085
14460000000 -28.747263 160.42281 -48.446022 99.211632 -48.684704 98.232635 -13.15786 61.978512
14470000000 -29.441807 173.3065 -48.767002 73.549866 -48.794785 73.389969 -13.052298 60.196617
14480000000 -28.251698 -174.7802 -48.584877 53.790653 -48.478333 54.404552 -12.93252 58.594833
14490000000 -27.230616 -176.59618 -47.3353 28.940468 -47.101494 27.484718 -12.912447 57.186142
14500000000 -26.125637 -173.94766 -47.201168 1.0801193 -47.005917 -0.46043843 -12.970909 55.389534
14510000000 -25.452938 175.03242 -46.260654 -23.210688 -46.405388 -25.498545 -13.195261 53.802361
14520000000 -26.483137 173.01472 -46.643219 -55.308224 -46.790894 -57.180992 -13.290422 51.900715
14530000000 -26.344994 166.5939 -47.436405 -75.222366 -47.525375 -73.765182 -13.290923 49.968204
14540000000 -27.678141 174.9911 -47.669884 -97.406746 -47.544456 -98.967705 -13.13651 48.420261
14550000000 -26.604799 175.7531 -47.617882 -113.16903 -47.371555 -114.90265 -12.995077 47.209259
14560000000 -26.66045 -179.3477 -45.644981 -134.4951 -45.73193 -137.17387 -12.89811 46.848495
14570000000 -25.11166 -179.51697 -45.527988 -172.12749 -45.533878 -173.27345 -12.915671 46.808937
14580000000 -24.546921 -179.73463 -46.655056 159.52679 -46.623604 159.42058 -12.91652 46.894211
14590000000 -23.946291 173.99036 -47.929783 135.61194 -47.628437 135.87947 -12.959029 46.377171
14600000000 -24.150511 176.20508 -50.651474 123.30708 -50.068989 116.75333 -12.905167 46.004063
14610000000 -23.540144 171.30508 -47.928307 122.8796 -48.761543 119.84656 -12.852128 45.126556
14620000000 -24.129755 171.37384 -45.919056 90.085396 -45.980858 88.868607 -12.779937 44.61058
14630000000 -23.751043 169.23425 -45.75156 56.206417 -45.728477 56.519138 -12.739871 43.593037
14640000000 -24.141624 170.94292 -46.660336 26.428858 -46.254047 24.584162 -12.747495 42.550571
14650000000 -23.648626 172.86877 -48.560471 5.671391 -48.354191 1.5372541 -12.725017 41.018784
14660000000 -23.015083 173.24251 -48.730968 -11.451801 -49.121002 -14.69082 -12.624529 40.020966
14670000000 -22.547625 172.12483 -48.509911 -32.041698 -49.096397 -30.98139 -12.352279 38.583992
14680000000 -21.529577 169.07774 -48.630177 -46.28701 -48.779854 -46.745777 -12.123039 37.1549
14690000000 -21.372669 164.56343 -47.420727 -70.984962 -47.423573 -72.252899 -12.047597 35.839104
14700000000 -21.219563 160.41527 -48.422394 -101.75793 -48.145054 -102.4762 -12.076218 35.554871
14710000000 -21.67658 156.69286 -48.048672 -125.09389 -48.195606 -125.17166 -12.061454 35.16407
14720000000 -22.322647 155.78204 -49.480534 -153.3011 -49.680107 -152.03778 -12.108768 33.979248
14730000000 -22.575607 160.50691 -51.024448 -169.56929 -50.743618 -167.5542 -12.256854 32.154346
14740000000 -21.885393 161.8877 -50.934566 179.05934 -50.69474 177.27864 -12.471212 30.38464
14750000000 -21.281069 162.06001 -50.693344 156.65329 -50.366547 157.1353 -12.585502 28.637299
14760000000 -20.296656 157.80467 -50.453285 131.93608 -50.765083 130.07408 -12.630767 26.493362
14770000000 -20.142939 151.7912 -49.349827 111.1334 -49.515915 112.3437 -12.651115 24.446142
14780000000 -19.847727 145.99939 -51.079453 78.066284 -50.720234 81.314674 -12.723318 23.099169
14790000000 -20.482967 141.1192 -53.572124 60.335247 -52.564644 57.624142 -12.850827 23.052362
14800000000 -20.964457 141.64793 -54.285217 44.398636 -53.770496 39.899761 -12.907736 23.219261
14810000000 -21.377916 143.97462 -54.208622 46.589012 -54.429657 42.252823 -13.058272 22.690109
14820000000 -21.105715 146.99321 -52.671764 15.819891 -53.387211 13.624547 -13.330302 21.879871
14830000000 -20.533773 148.32127 -52.736843 -8.5859079 -52.233906 -8.4097242 -13.601466 21.685602
14840000000 -19.951305 144.06584 -54.558601 -40.08353 -54.013062 -38.934242 -13.784222 21.722834
14850000000 -20.053699 139.45656 -57.458641 -52.5051 -56.343998 -60.896309 -13.965758 21.594727
14860000000 -20.007359 135.48294 -55.313385 -33.553616 -56.935024 -36.743484 -14.23829 21.683903
14870000000 -20.478365 130.31165 -52.500732 -72.699265 -53.308559 -69.141388 -14.598162 21.25318
14880000000 -20.872414 127.55045 -54.038776 -107.15285 -54.047184 -105.72717 -14.85048 20.699102
14890000000 -21.25042 127.91729 -55.569962 -116.03109 -55.95295 -121.09245 -14.95304 19.537247
14900000000 -21.144648 127.05662 -54.913662 -136.03964 -55.204937 -136.5988 -14.852778 19.314686
14910000000 -21.207426 128.48326 -56.842545 -140.18381 -57.029102 -137.82506 -14.67559 19.716244
14920000000 -20.832024 126.28754 -53.328632 -153.26593 -53.542366 -148.38779 -14.714631 21.367399
14930000000 -20.958735 127.16143 -50.621372 169.4707 -50.336079 173.4525 -14.911293 23.90313
14940000000 -20.708595 124.1737 -51.800884 123.0294 -51.1973 124.71109 -15.240119 26.374201
14950000000 -20.80632 124.50542 -56.143532 98.30352 -55.685818 94.628471 -15.555245 27.758907
14960000000 -20.698788 119.0989 -60.68512 126.13685 -59.522373 123.33993 -15.754614 28.056801
14970000000 -21.491655 117.26875 -53.987328 103.09103 -53.061096 103.73174 -15.853072 28.258842
14980000000 -22.090532 112.47034 -53.149334 65.02047 -52.398773 62.073013 -15.920466 28.590046
14990000000 -23.147158 115.33254 -54.623547 21.091787 -53.128128 21.429008 -16.087906 30.203749
15000000000 -23.506542 115.64723 -56.910809 9.450717 -56.319439 1.8979049 -16.133614 32.407009
15010000000 -23.57198 122.74886 -61.404232 -15.304179 -60.57571 -28.955345 -16.058475 32.941254
15020000000 -22.719473 121.25994 -63.418648 -13.760538 -62.711143 -25.526533 -15.970606 32.551785
15030000000 -22.2742 119.76069 -61.792278 8.9487381 -61.833447 -5.4808679 -15.69439 32.97509
15040000000 -21.95496 113.11891 -58.799385 -22.451225 -59.940464 -19.560246 -15.230889 34.404392
15050000000 -22.625772 109.47341 -59.363354 -28.455614 -59.909855 -39.908993 -14.851148 36.157211
15060000000 -23.438776 106.71351 -57.98016 -49.80402 -59.929138 -48.330978 -14.721521 38.639763
15070000000 -25.158878 109.63791 -57.620529 -58.97781 -58.670551 -60.448494 -14.725627 40.878662
15080000000 -25.593546 120.9844 -59.623711 -76.361351 -60.398903 -69.038078 -14.733972 41.446774
15090000000 -24.754677 127.48257 -55.622257 -79.709908 -56.264561 -74.567566 -14.780774 40.554798
15100000000 -24.071783 127.77131 -54.999866 -100.87422 -54.565205 -95.331825 -14.718178 39.366196
15110000000 -23.591719 124.68298 -52.468834 -113.1036 -51.92683 -110.62709 -14.530583 38.288292
15120000000 -23.792549 120.01489 -50.59621 -143.08487 -50.497803 -142.05397 -14.316956 37.506638
15130000000 -24.094387 115.82852 -50.088444 -168.55278 -49.871571 -166.07097 -14.106457 36.943672
15140000000 -25.126049 116.46318 -49.518715 166.17854 -49.161167 168.84283 -13.931143 36.062298
15150000000 -25.15204 121.14136 -49.250317 147.43491 -48.81831 149.24577 -13.804086 35.154652
15160000000 -25.30361 125.04705 -48.610256 123.03506 -48.550575 124.48399 -13.653455 34.775749
15170000000 -24.734922 129.20122 -48.38063 103.26962 -47.739632 105.51509 -13.498684 34.857716
15180000000 -23.988319 129.17271 -48.711361 87.020218 -47.713226 82.607498 -13.394569 34.755615
15190000000 -23.646212 128.70865 -46.801971 72.079788 -46.684353 67.865509 -13.477574 34.444382
15200000000 -23.602629 128.69702 -45.702309 44.883057 -45.462624 40.618076 -13.637695 33.894726
15210000000 -23.028412 127.66975 -44.417553 20.447926 -44.531929 19.131453 -13.872145 33.072319
15220000000 -23.27286 125.14788 -44.239407 -5.0068107 -44.149498 -7.1133442 -14.047825 32.108849
15230000000 -23.160444 123.70554 -44.22567 -29.789713 -44.025967 -32.066338 -14.131209 30.918463
15240000000 -23.496748 122.17691 -44.15834 -49.108631 -44.232845 -52.566639 -14.14735 29.607433
15250000000 -23.896225 122.23912 -43.369419 -69.617622 -43.601608 -71.245766 -14.151776 27.986177
15260000000 -23.936079 123.87857 -42.631023 -93.688835 -42.588348 -94.652885 -14.250799 27.284882
15270000000 -23.793669 127.519 -42.146286 -116.4314 -42.149788 -120.57736 -14.202106 28.367283
15280000000 -22.724936 126.79646 -41.982052 -139.17964 -42.285839 -141.7764 -14.029151 29.415798
15290000000 -22.329268 123.42126 -41.544785 -162.9637 -41.774956 -164.53923 -14.013014 30.404533
15300000000 -21.769342 119.16332 -40.951565 175.75169 -41.174656 175.20432 -14.23208 31.629248
15310000000 -22.12422 113.44383 -40.340389 148.61427 -40.313061 148.278 -14.496364 33.15921
15320000000 -22.431185 109.41376 -40.214142 123.9389 -40.341324 122.68694 -14.687098 33.940308
15330000000 -23.540188 109.2292 -40.310726 98.330948 -40.508808 97.765724 -14.808152 33.701168
15340000000 -23.634735 111.18406 -40.720669 78.965057 -40.927586 78.713509 -14.787275 33.201794
15350000000 -24.084217 116.90614 -40.020172 59.565849 -40.151493 59.130306 -14.751158 32.756638
15360000000 -23.128361 115.46635 -39.052387 37.232929 -39.130955 37.681343 -14.764848 32.918854
15370000000 -23.222719 114.39648 -38.333168 9.877862 -38.320126 9.7715044 -14.799641 33.406094
15380000000 -22.2973 108.95171 -38.393417 -18.852161 -38.449341 -19.293625 -14.71477 33.552059
15390000000 -22.994968 101.75483 -39.096622 -43.367016 -39.113567 -43.182209 -14.489997 33.007896
15400000000 -23.372707 98.487244 -39.380978 -62.805054 -39.336693 -63.403774 -14.267758 32.510967
15410000000 -24.051514 95.158699 -39.101086 -82.676674 -38.976444 -82.729439 -14.069616 33.441429
15420000000 -25.00667 93.54451 -38.387867 -105.5656 -38.316864 -106.32641 -13.936327 34.991055
15430000000 -25.277121 98.879349 -38.187805 -131.47244 -38.126213 -131.05859 -13.937844 36.427998
15440000000 -25.2073 96.630417 -38.005379 -156.23779 -38.001278 -156.35785 -14.147492 36.479809
15450000000 -25.634693 96.385384 -38.283382 177.6461 -38.183498 177.87375 -14.448535 35.575443
15460000000 -25.871681 94.601601 -38.832344 156.55394 -38.584106 155.74585 -14.645365 34.082325
15470000000 -26.279799 95.0896 -38.520271 138.02428 -38.461395 136.64177 -14.622952 32.789059
15480000000 -26.206461 90.787529 -37.683456 113.41641 -37.583828 113.20029 -14.443996 31.980515
15490000000 -26.835438 88.194405 -37.831989 85.002449 -37.760067 84.737411 -14.27703 31.616547
15500000000 -27.294661 82.299316 -38.251007 61.618492 -38.045315 60.858536 -14.279549 31.431719
15510000000 -27.853859 77.751091 -38.871006 39.147583 -38.6497 37.654095 -14.333258 31.975975
15520000000 -29.817888 67.666718 -38.764713 20.497622 -38.683357 19.056787 -14.343863 32.566177
15530000000 -31.588255 78.035431 -38.439083 -1.1664193 -38.298347 -3.3730915 -14.295583 33.466427
15540000000 -33.265266 71.42881 -38.10358 -25.392145 -38.058834 -26.801348 -14.235903 34.856083
15550000000 -34.456898 98.755943 -38.052383 -50.377827 -37.896721 -52.23098 -14.211758 35.96114
15560000000 -33.792984 95.526024 -38.252636 -76.419159 -38.221676 -78.989899 -14.342813 36.636883
15570000000 -33.143875 99.351715 -38.746861 -99.936234 -38.816551 -101.65025 -14.620891 37.342194
15580000000 -34.129711 77.27182 -39.179646 -121.57674 -39.179173 -122.74752 -14.800085 38.224838
15590000000 -36.916569 75.655869 -39.199451 -143.28046 -39.138931 -145.40369 -14.798462 37.530441
15600000000 -40.710892 35.810333 -39.313732 -165.37506 -39.434814 -167.54315 -14.763239 35.956459
15610000000 -55.07235 -61.537842 -39.2197 171.38278 -39.400578 169.09903 -14.710979 34.718998
15620000000 -42.826027 -89.44989 -39.596924 149.45517 -39.773098 147.9297 -14.563615 34.406033
15630000000 -36.516079 -137.86002 -39.584976 126.3043 -39.783295 125.61662 -14.31977 34.677807
15640000000 -37.412983 -146.76372 -39.586132 103.89457 -39.735424 103.84361 -14.119389 35.797844
15650000000 -35.21608 -154.73209 -40.137142 79.944412 -40.288651 78.762665 -13.912455 36.948265
15660000000 -37.025024 -155.67911 -40.185635 59.521385 -40.383152 57.575115 -13.938824 37.500401
15670000000 -34.849533 -149.06293 -40.698124 37.083942 -40.899857 37.23587 -14.139383 38.269932
15680000000 -34.574905 -141.19104 -40.507175 12.74714 -40.762966 12.793262 -14.316366 38.681034
15690000000 -32.320126 -137.64388 -41.30703 -9.2509651 -41.455433 -8.8107595 -14.429173 38.349644
15700000000 -30.447113 -132.79449 -41.814247 -29.100554 -41.888447 -29.032137 -14.50478 37.859768
15710000000 -28.789671 -135.81235 -41.719906 -45.386723 -41.99057 -45.372742 -14.460902 37.65749
15720000000 -27.32262 -139.21463 -41.154564 -70.143639 -41.19783 -67.793846 -14.461867 37.144367
15730000000 -26.63217 -143.32365 -41.367046 -94.509018 -41.203484 -93.888008 -14.583531 36.868637
15740000000 -25.95945 -148.5681 -41.846104 -117.17796 -41.694931 -117.6662 -14.614058 36.846352
15750000000 -26.294239 -153.71428 -42.23455 -141.3078 -42.125454 -140.54018 -14.477575 36.968914
15760000000 -26.530632 -151.77295 -43.648304 -158.81393 -43.505817 -158.08363 -14.158398 37.293606
15770000000 -26.6551 -151.5844 -43.008736 -175.46992 -42.728294 -174.46758 -13.826881 38.711369
15780000000 -26.183588 -146.29376 -42.99456 161.00102 -42.487747 161.22928 -13.60295 40.724842
15790000000 -25.568878 -143.95096 -43.34433 142.2493 -42.774761 140.32289 -13.591195 43.160805
15800000000 -23.82921 -142.75212 -43.316334 121.1284 -43.040993 118.34753 -13.707173 44.767021
15810000000 -22.857433 -149.36275 -42.820675 100.25474 -42.832195 99.618614 -13.938812 45.080364
15820000000 -22.505814 -154.30511 -42.892635 74.491417 -42.452209 74.113411 -14.032765 44.124718
15830000000 -22.627081 -157.91942 -43.736366 51.387215 -43.209255 48.110683 -13.97609 42.265957
15840000000 -22.838993 -157.77194 -44.271919 32.801857 -44.211689 27.23448 -13.744946 40.686878
15850000000 -23.065508 -157.44194 -43.824921 13.770339 -43.849586 11.97041 -13.429688 39.649055
15860000000 -23.155619 -151.76173 -43.805702 -9.126297 -43.977283 -9.9361429 -13.124966 39.118576
15870000000 -22.428242 -151.18813 -43.614056 -29.182106 -43.635418 -30.757025 -12.8617 38.843643
15880000000 -22.090654 -149.27185 -43.695435 -52.789745 -43.703308 -54.07925 -12.618316 38.716747
15890000000 -21.238792 -152.75786 -44.281204 -74.496704 -44.243862 -76.339867 -12.398912 38.707584
15900000000 -21.275593 -155.44899 -44.07893 -93.694046 -44.218548 -95.780754 -12.204039 38.900742
15910000000 -20.944939 -157.11058 -44.424839 -117.98786 -44.4799 -119.11485 -12.076101 38.881573
15920000000 -20.93001 -158.37103 -44.855305 -137.33186 -44.704845 -138.3864 -12.036162 38.838783
15930000000 -20.668573 -158.44466 -44.613049 -158.91562 -44.796131 -159.56287 -12.073384 38.004948
15940000000 -20.64113 -158.01671 -45.016254 -178.62422 -45.10511 -179.40863 -12.190346 36.759998
15950000000 -20.271736 -157.58627 -44.749832 160.06055 -44.721336 158.55554 -12.237535 34.716225
15960000000 -20.308191 -156.37717 -44.924 137.5731 -44.793713 135.04099 -12.246219 32.155342
15970000000 -19.732986 -153.22859 -45.353134 117.09631 -45.464775 115.62656 -12.166122 29.415552
15980000000 -19.470144 -153.82281 -45.252842 97.547455 -45.353516 97.30349 -11.978411 27.014902
15990000000 -18.849768 -152.70869 -44.840546 77.444565 -44.49662 75.942024 -11.757594 25.406921
16000000000 -18.73245 -155.15744 -44.4627 50.399452 -44.433704 49.070461 -11.576863 24.736237
16010000000 -18.264315 -155.50409 -45.531223 25.092667 -45.484165 21.633165 -11.505499 24.614439
16020000000 -18.368979 -159.59883 -46.292835 7.9753361 -46.340397 7.6125131 -11.565243 24.501837
16030000000 -18.496494 -157.5519 -46.562397 -8.8316975 -46.439449 -9.1258955 -11.733267 23.482651
16040000000 -18.281469 -156.97092 -45.789639 -24.916716 -45.528156 -27.367092 -11.982572 21.612251
16050000000 -17.805643 -154.96912 -44.734653 -53.565811 -44.736702 -55.927517 -12.261124 19.13973
16060000000 -17.2885 -154.68222 -45.487823 -81.687164 -45.520172 -83.504417 -12.447222 16.778658
16070000000 -16.591166 -154.44521 -46.719196 -104.55901 -46.684696 -106.57996 -12.526842 14.40154
16080000000 -16.173597 -157.35062 -47.139515 -120.56079 -47.176693 -120.36887 -12.656715 11.9731
16090000000 -16.000418 -158.07552 -46.66048 -140.31789 -46.569763 -140.59528 -12.800575 9.4987659
16100000000 -15.943847 -159.63515 -46.008377 -162.44771 -46.057938 -164.02805 -12.953762 7.131814
16110000000 -15.863615 -159.10088 -46.493618 170.59796 -46.634556 168.49353 -13.042913 5.7453585
16120000000 -15.732566 -158.52565 -47.66655 149.0916 -47.859467 146.77094 -13.018003 5.3278985
16130000000 -15.204699 -157.9091 -47.712296 132.32861 -47.535439 132.52646 -13.09409 5.6591125
16140000000 -14.906285 -159.07355 -48.042442 112.42011 -47.919537 109.39845 -13.361793 6.82655
16150000000 -14.407602 -160.49362 -47.751465 91.861237 -47.60461 89.129875 -13.785427 7.7172694
16160000000 -14.202066 -162.43623 -47.558689 65.447075 -47.830853 62.72744 -14.369904 7.0351334
16170000000 -13.880232 -163.21672 -48.367382 37.626541 -48.871559 38.846394 -14.939669 4.9674163
16180000000 -13.698523 -163.86809 -50.151352 18.336704 -49.84967 19.865082 -15.322233 1.9073906
16190000000 -13.316434 -163.97533 -50.383949 6.0974231 -50.357224 3.9344225 -15.529372 -0.73165387
16200000000 -13.094337 -164.69241 -50.729244 -14.635486 -50.732937 -15.868707 -15.601167 -2.395597
16210000000 -12.719084 -165.97493 -50.739952 -30.118191 -50.644699 -29.137157 -15.71618 -2.9013908
16220000000 -12.685549 -166.39705 -50.59396 -53.661903 -50.259232 -49.711948 -15.86526 -3.1455021
16230000000 -12.318052 -167.89473 -50.656673 -70.870232 -50.052197 -72.413956 -15.988433 -3.0886836
16240000000 -12.392585 -168.19028 -50.206696 -96.694389 -49.51437 -98.647766 -16.031786 -3.1873205
16250000000 -12.012655 -169.04181 -50.861553 -116.90511 -51.042507 -121.53051 -16.133547 -2.2982447
16260000000 -11.810736 -169.88832 -51.971062 -143.83746 -52.220978 -140.90709 -16.383247 -0.29811883
16270000000 -11.351632 -171.61147 -53.005146 -145.89702 -52.256699 -144.5441 -16.783176 1.8765697
16280000000 -11.190862 -173.71021 -51.886833 -167.77676 -50.875729 -168.17857 -17.302191 3.0450613
16290000000 -10.874381 -175.44035 -51.099743 176.4864 -50.480251 170.90764 -17.853241 1.7965142
16300000000 -10.870881 -177.04497 -51.31488 141.33142 -51.220352 140.03047 -18.367554 -1.5347519
16310000000 -10.629633 -177.33818 -52.150925 123.27805 -52.016109 123.8995 -18.579569 -5.2084961
16320000000 -10.549444 -177.57616 -52.218281 113.19124 -51.136353 114.97048 -18.604164 -8.1175013
16330000000 -10.176188 -177.72969 -50.798004 91.125244 -50.107494 86.07782 -18.568668 -9.8794765
16340000000 -10.036881 -178.96941 -50.472599 62.422459 -49.963955 57.678627 -18.583906 -10.900563
16350000000 -9.7439814 179.99742 -51.604038 36.909992 -51.731384 31.744818 -18.596741 -11.379185
16360000000 -9.6125622 178.01378 -52.561642 16.011282 -52.535816 15.751919 -18.756973 -11.748142
16370000000 -9.4620152 176.39613 -53.154705 9.1321402 -52.586651 6.3775144 -19.017155 -11.111828
16380000000 -9.4271145 174.82109 -52.138504 -9.7252808 -52.232784 -15.43751 -19.544409 -10.387591
16390000000 -9.2598066 173.93234 -51.070114 -33.526649 -51.398121 -39.777977 -20.395449 -10.486242
16400000000 -9.0798111 172.74077 -50.815159 -65.671967 -51.467312 -67.908264 -21.417486 -13.394896
16410000000 -8.8734655 171.52684 -52.800972 -88.521172 -52.833389 -88.862305 -22.42511 -19.327219
16420000000 -8.7353153 170.64427 -53.70232 -101.32276 -53.694706 -103.45624 -23.236309 -26.560404
16430000000 -8.5164347 169.75122 -53.610855 -115.71656 -53.650749 -121.8095 -23.852974 -31.289268
16440000000 -8.3786411 169.22018 -52.289986 -136.79433 -53.474926 -141.19403 -24.374979 -33.797276
16450000000 -8.172286 168.2281 -53.146423 -164.55916 -53.492386 -160.13605 -25.188164 -36.470871
16460000000 -8.0223808 167.47961 -53.738808 -178.96249 -53.606541 -176.78734 -26.298029 -39.456833
16470000000 -7.848762 165.98329 -53.323723 161.39447 -53.085579 163.74409 -27.573786 -42.271801
16480000000 -7.772191 164.51268 -52.652206 143.75978 -52.337471 144.09921 -28.927393 -40.276367
16490000000 -7.7087569 162.77036 -52.397423 120.09143 -52.847698 121.78476 -30.666641 -30.425388
16500000000 -7.6851311 162.2379 -52.118385 96.005287 -51.560799 102.62317 -33.21637 -10.595447
16510000000 -7.5365434 161.11852 -52.30492 70.126175 -51.324581 72.610435 -35.798264 30.832529
16520000000 -7.4064803 161.10583 -53.543056 51.014469 -52.751442 50.789059 -35.817425 76.386284
16530000000 -7.0819187 159.84811 -53.332363 39.894558 -52.295643 37.040401 -34.746914 107.6441
16540000000 -6.9058814 158.98947 -52.021278 18.411303 -51.403275 16.716295 -34.194424 126.28339
16550000000 -6.686614 157.26323 -51.516861 -8.063098 -50.840275 -9.1080561 -34.37212 126.96379
16560000000 -6.635582 156.28729 -51.474342 -30.162802 -50.449928 -33.533039 -34.183788 118.91804
16570000000 -6.5363097 155.08817 -50.907764 -61.040848 -50.304848 -66.661507 -32.381062 107.72328
16580000000 -6.5013428 154.70074 -52.442104 -84.06041 -51.954323 -91.398941 -30.752737 103.12846
16590000000 -6.3782101 153.85419 -51.848965 -104.18977 -51.419487 -111.68221 -29.681421 102.9564
16600000000 -6.2348151 153.35324 -52.022503 -131.31779 -51.687096 -137.24687 -28.996445 105.80299
16610000000 -6.0111027 151.95386 -52.40358 -153.68578 -52.051228 -162.38414 -27.856323 105.06015
16620000000 -5.8796263 150.61824 -52.815117 177.11261 -52.326317 171.87772 -26.436981 103.53764
16630000000 -5.7145925 149.22115 -53.356106 160.32339 -53.36375 149.24637 -24.925291 103.69807
16640000000 -5.5701284 148.16464 -52.672127 135.63997 -53.352135 123.98264 -23.650003 108.90749
16650000000 -5.3988214 146.92509 -55.008804 109.61049 -55.844528 99.017708 -22.652491 113.772
16660000000 -5.2687759 146.17816 -54.06633 93.773926 -54.598217 85.701225 -22.309526 118.81633
16670000000 -5.072258 145.2393 -53.540485 59.976635 -54.997787 53.765301 -22.208281 121.07225
16680000000 -4.928504 144.09879 -55.132591 29.420309 -56.143837 22.158916 -22.265526 119.59459
16690000000 -4.8052793 143.13339 -56.577393 4.2328453 -58.672932 0.26939896 -22.083469 114.58579
16700000000 -4.6799045 142.2094 -57.488342 -25.64958 -59.413795 -19.016033 -21.599409 109.94391
16710000000 -4.5125232 141.15431 -61.83659 -40.528511 -61.455765 -39.287132 -20.684294 106.10127
16720000000 -4.3680954 139.80597 -59.176563 -56.309563 -60.842682 -61.814224 -19.829927 103.75653
16730000000 -4.2032957 138.4906 -60.666485 -98.734833 -63.976963 -85.062538 -19.098488 102.19848
16740000000 -4.0518765 137.01392 -66.645409 -107.14444 -64.34494 -83.740097 -18.562424 100.7794
16750000000 -3.9150491 135.50162 -63.804924 -120.31034 -63.254917 -111.54433 -18.107012 100.03698
16760000000 -3.7904487 134.2144 -65.122711 -142.90063 -63.346916 -123.59306 -17.814428 99.050774
16770000000 -3.6578789 133.08972 -62.132671 171.85164 -60.927185 -179.5833 -17.689184 98.827271
16780000000 -3.5005105 132.01106 -67.245163 116.59209 -64.079559 130.75499 -17.669266 97.974915
16790000000 -3.3493173 130.77318 -70.617516 101.41306 -68.546295 97.973938 -17.833971 95.843918
16800000000 -3.2095435 129.43491 -75.521255 25.388739 -75.321922 46.434879 -18.126917 92.35408
16810000000 -3.083066 127.97738 -79.407951 -138.44142 -72.943306 128.85472 -18.396385 88.072784
16820000000 -2.9809284 126.40401 -72.416481 110.31634 -67.583786 71.087318 -18.522068 83.341873
16830000000 -2.8761799 124.90627 -68.294159 25.534845 -65.488197 6.9877062 -18.452005 78.85183
16840000000 -2.767195 123.47719 -66.798958 -53.359962 -63.16695 -52.121063 -18.256907 74.986107
16850000000 -2.6284964 121.96638 -68.633255 -92.408379 -66.093231 -84.826485 -18.025591 72.979095
16860000000 -2.4985409 120.42809 -64.666191 -108.06678 -61.672138 -111.31194 -17.819597 72.14566
16870000000 -2.3628943 118.88196 -62.224342 -144.11465 -60.840515 -153.51875 -17.849812 73.494766
16880000000 -2.255722 117.39199 -60.234619 174.56783 -60.438339 -174.4093 -18.10898 75.347702
16890000000 -2.1486011 115.98544 -60.991661 132.8472 -58.973557 141.35075 -18.746786 77.322327
16900000000 -2.065073 114.78637 -63.930149 119.71426 -60.880348 115.02158 -19.614326 78.619484
16910000000 -1.9499875 113.45277 -62.042233 118.7927 -61.104889 113.09415 -20.575804 79.165451
16920000000 -1.8610029 112.07592 -58.491539 90.689301 -57.795067 86.587517 -21.421417 77.691422
16930000000 -1.7545476 110.48727 -56.410717 65.217255 -56.51392 60.518345 -22.108849 76.301468
16940000000 -1.6808119 108.79898 -55.953701 34.195965 -54.766037 29.656269 -22.459435 76.797447
16950000000 -1.5962292 107.06355 -54.684738 2.9708416 -54.041367 -4.9549017 -22.514942 79.611763
16960000000 -1.5342532 105.41135 -54.585411 -29.044605 -54.688316 -33.866138 -22.205286 83.072968
16970000000 -1.4448231 103.82294 -55.717533 -53.155125 -55.401382 -58.798359 -21.864546 87.208153
16980000000 -1.3668879 102.3035 -55.288326 -70.926758 -54.970284 -77.368126 -21.360512 92.519028
16990000000 -1.2565125 100.82387 -54.719391 -94.626038 -54.962559 -98.729599 -20.625622 98.361115
17000000000 -1.168211 99.278549 -54.012722 -119.19092 -54.02092 -122.09846 -19.877615 103.17246
