!Keysight Technologies,P9374A,MY57211807,A.19.30.04
!Date: Friday, May 08, 2026 15:39:27
!Correction: S11(C  2-Port  ) 
!S21(C  2-Port  ) 
!S12(C  2-Port  ) 
!S22(C  2-Port  ) 
!S2P File: Measurements: S11, S21, S12, S22:
# Hz S  dB   R 50
13000000000 -19.288021 53.934845 -41.342945 10.678613 -41.326199 9.9580994 -8.7980423 24.779198
13010000000 -19.645014 58.774578 -41.604061 -10.987743 -41.567989 -10.916904 -8.8789196 20.550211
13020000000 -19.972675 62.07233 -41.809059 -33.133087 -41.781689 -34.439442 -9.0424824 16.709463
13030000000 -19.432415 66.423172 -42.102982 -55.88488 -42.149578 -56.252209 -9.1915989 13.086517
13040000000 -19.592451 65.536034 -42.002079 -76.711159 -41.96249 -77.211723 -9.3559914 9.4968319
13050000000 -19.087776 66.884583 -42.90089 -104.89209 -42.885674 -104.49048 -9.6138287 5.8821235
13060000000 -19.268707 62.098995 -43.229897 -119.06771 -43.026005 -119.86147 -10.043746 2.1984165
13070000000 -19.247812 61.103767 -43.517086 -141.32851 -43.460178 -142.05595 -10.60078 -0.98791653
13080000000 -19.812437 57.350197 -43.136726 -164.91045 -42.845787 -164.71393 -11.147348 -4.2029991
13090000000 -20.047184 58.850269 -43.502953 173.76913 -43.512001 170.4381 -11.605867 -7.6501336
13100000000 -20.173021 60.572094 -44.325768 147.09523 -44.331291 146.34132 -12.019433 -11.22389
13110000000 -19.915272 62.652908 -45.384182 136.46396 -45.396618 134.8774 -12.582059 -14.38694
13120000000 -19.971657 64.017448 -44.439922 116.59116 -44.336636 116.40942 -13.30636 -16.618998
13130000000 -19.238863 66.058289 -43.934956 94.564995 -43.835278 93.588737 -14.094101 -18.108589
13140000000 -18.980013 63.281582 -43.580139 66.404198 -43.614346 66.367249 -14.935719 -19.813541
13150000000 -18.790878 61.830185 -44.387154 40.566944 -44.35603 40.260365 -15.727161 -21.761728
13160000000 -19.046518 58.727448 -45.698814 20.631496 -45.653484 20.568577 -16.54998 -23.038321
13170000000 -19.352158 58.637222 -46.725483 9.1918831 -46.591267 6.7574782 -17.512342 -23.286827
13180000000 -19.480774 56.650372 -45.574566 -3.640327 -45.423382 -6.2631989 -18.669867 -21.69265
13190000000 -19.883963 55.761192 -43.980965 -31.592785 -43.876358 -32.036385 -20.152763 -18.966707
13200000000 -19.984694 57.710339 -44.135437 -56.352673 -44.237743 -57.997227 -21.917624 -15.31254
13210000000 -19.546608 58.373196 -44.841446 -82.971603 -44.969112 -82.35302 -23.629883 -10.86242
13220000000 -19.370136 57.227516 -45.20042 -99.582809 -44.971954 -101.68234 -24.944056 -4.8245406
13230000000 -18.991497 55.759949 -44.580517 -120.55051 -44.556332 -121.3217 -25.760153 3.1286676
13240000000 -18.858461 53.874752 -44.602322 -145.13028 -44.736748 -147.17926 -26.187864 19.011629
13250000000 -18.84263 51.295029 -44.802097 -166.20641 -44.884422 -166.99713 -25.153278 38.542423
13260000000 -18.947138 49.135548 -44.492523 169.66397 -44.430519 168.67175 -23.566145 52.917217
13270000000 -19.457615 46.731247 -44.747547 146.46863 -44.763515 146.16028 -22.351006 61.966461
13280000000 -19.696999 48.171875 -44.692959 123.83366 -44.550873 122.24021 -21.530119 68.761749
13290000000 -19.945948 46.818523 -44.8433 103.25455 -44.885555 102.57869 -20.607672 73.40699
13300000000 -19.969906 48.320324 -44.672302 82.599693 -44.596634 80.374237 -19.52356 74.074242
13310000000 -19.874514 46.130066 -43.915874 60.748291 -43.974628 59.518803 -18.380835 72.695549
13320000000 -19.668146 45.183247 -43.193497 31.399244 -43.312775 29.72773 -17.409643 71.780258
13330000000 -19.547588 42.248993 -43.59618 4.6819563 -43.648937 3.4156017 -16.586571 71.848122
13340000000 -19.500694 39.824219 -43.873035 -21.168617 -44.027615 -21.717943 -15.930533 72.178329
13350000000 -19.752354 36.647137 -44.599915 -46.031708 -44.675129 -45.247841 -15.38885 71.231018
13360000000 -19.811483 36.561783 -44.327461 -60.313221 -44.335003 -61.773842 -14.940627 68.671761
13370000000 -20.300558 32.292236 -43.149014 -85.499634 -43.089264 -86.036308 -14.436197 65.249969
13380000000 -20.513695 35.676727 -42.522949 -116.66608 -42.635761 -118.02144 -13.802187 61.776424
13390000000 -20.837391 33.128513 -42.783756 -146.65652 -42.890629 -146.97318 -13.127865 59.351662
13400000000 -20.922396 34.742306 -43.03302 -173.10643 -42.981186 -173.56635 -12.512057 57.585331
13410000000 -21.026487 32.99868 -43.005341 160.47284 -43.104446 159.13506 -12.114412 56.415672
13420000000 -20.830256 31.837564 -43.105087 132.7829 -43.018074 133.3694 -11.878863 54.928638
13430000000 -21.19771 26.975798 -43.344776 104.7258 -43.067932 104.6714 -11.701588 52.633133
13440000000 -21.073418 27.051632 -43.197273 80.969734 -43.117222 79.55986 -11.593129 49.094231
13450000000 -21.524242 20.668352 -43.084019 51.887871 -43.150726 49.559452 -11.500863 45.478069
13460000000 -21.736921 22.08102 -42.764996 28.860128 -42.958614 28.322052 -11.316268 42.516697
13470000000 -22.589117 17.741297 -41.981129 -2.2356226 -41.87376 -2.3331349 -11.063584 40.230423
13480000000 -22.577593 24.17819 -42.183163 -33.062492 -42.183571 -35.299896 -10.879029 37.368935
13490000000 -22.936499 19.974686 -42.216881 -60.353874 -42.385918 -61.816868 -10.910892 34.791481
13500000000 -22.909443 23.288036 -41.847782 -89.855904 -41.828892 -90.46814 -11.053227 32.718353
13510000000 -23.180439 20.909285 -41.618759 -119.30891 -41.72723 -120.52837 -11.166212 31.012012
13520000000 -22.767546 19.50403 -41.200409 -150.40514 -41.116962 -151.09311 -11.208693 29.571167
13530000000 -23.741955 13.102713 -41.734173 176.49557 -41.857681 175.20314 -11.308982 27.571541
13540000000 -23.530478 13.026326 -42.519749 152.0061 -42.492352 150.92558 -11.539542 26.202839
13550000000 -24.897104 5.8554974 -42.736343 126.92902 -42.858482 126.47543 -11.767624 25.416708
13560000000 -25.046291 14.986099 -41.774563 105.50573 -41.928993 105.02924 -11.987905 24.590681
13570000000 -25.446667 12.164224 -41.464603 78.101257 -41.525696 77.667053 -12.173214 23.515133
13580000000 -25.340818 18.076635 -40.839596 50.164349 -40.738945 50.326958 -12.320545 22.806887
13590000000 -25.633032 16.977394 -40.392998 20.718422 -40.284138 19.880493 -12.374175 22.581062
13600000000 -24.989937 18.665043 -40.156082 -7.0625081 -40.139606 -8.4057331 -12.343023 22.70392
13610000000 -25.321392 13.374879 -40.175358 -39.559654 -40.237427 -40.87328 -12.287267 22.895922
13620000000 -26.014381 12.822971 -40.796284 -66.363503 -40.977631 -67.561218 -12.339782 23.299576
13630000000 -27.078234 9.0129404 -41.231136 -91.534088 -41.23632 -92.109375 -12.317427 24.107063
13640000000 -27.510098 14.424269 -41.594852 -113.24773 -41.672432 -114.26911 -12.294237 24.267729
13650000000 -28.800709 10.755071 -41.571964 -134.97485 -41.496471 -135.43291 -12.246551 23.920769
13660000000 -28.279715 21.974993 -41.273544 -157.03046 -41.251881 -157.95486 -12.200679 23.101038
13670000000 -27.886497 19.142065 -40.510494 177.77211 -40.570126 176.8403 -12.081971 22.495062
13680000000 -27.270266 22.530071 -40.031097 154.0567 -40.108086 153.12645 -11.881901 21.716055
13690000000 -26.921198 19.771561 -39.613899 123.82835 -39.613083 123.07745 -11.646013 20.679638
13700000000 -26.617933 17.327126 -39.938282 96.382561 -39.937092 95.930824 -11.49361 19.263809
13710000000 -27.225395 15.533493 -40.58028 69.757736 -40.531784 68.673813 -11.452488 17.921036
13720000000 -27.546171 15.337146 -40.923996 48.837234 -40.941406 47.892239 -11.422566 16.497721
13730000000 -28.763319 16.034451 -41.32756 29.98908 -41.389935 29.550644 -11.347125 14.79626
13740000000 -28.868839 23.927399 -40.515141 8.5882692 -40.455311 8.1608086 -11.266738 12.497896
13750000000 -28.958357 25.872742 -40.108192 -13.378194 -40.082138 -15.011226 -11.268921 10.500062
13760000000 -28.268122 25.237623 -39.537056 -41.535339 -39.611893 -42.05069 -11.314103 9.063138
13770000000 -27.945904 22.76495 -39.827194 -68.727409 -39.836613 -69.454201 -11.455518 7.4310598
13780000000 -27.327057 17.677792 -39.981899 -94.540642 -40.015289 -94.671219 -11.718709 5.4582834
13790000000 -27.027002 12.905215 -40.761234 -117.66782 -40.858887 -118.91328 -12.024408 3.1567333
13800000000 -27.594456 3.9643707 -41.11771 -135.55092 -41.18589 -134.60561 -12.288772 0.79158765
13810000000 -27.661394 6.9286757 -40.826271 -158.39545 -40.703594 -157.82376 -12.445378 -1.3830392
13820000000 -28.05755 -0.1055646 -40.639961 -179.65535 -40.592972 -179.9407 -12.667253 -2.7428885
13830000000 -28.431652 7.0451941 -40.237495 157.73079 -40.258839 156.48991 -12.902268 -3.1584444
13840000000 -28.502993 4.8923483 -40.313889 132.6946 -40.289341 132.24194 -13.26307 -3.1791582
13850000000 -27.976278 9.6441298 -40.557083 110.64924 -40.476288 109.66563 -13.653373 -2.9580803
13860000000 -27.758894 2.8216164 -40.401375 87.388123 -40.45932 86.557556 -14.044925 -3.3476808
13870000000 -27.325243 4.4119496 -40.613243 61.890415 -40.633541 61.731754 -14.411108 -3.4707818
13880000000 -27.065052 -7.5228653 -41.25333 40.255272 -41.292988 39.733559 -14.721152 -2.6720829
13890000000 -27.297743 -10.926587 -41.695171 20.746529 -41.681099 21.235027 -14.945317 -0.96252114
13900000000 -27.861702 -21.451218 -41.466167 3.725095 -41.39101 2.3506658 -15.129052 0.84088862
13910000000 -28.100519 -19.495022 -41.105694 -17.347254 -41.016712 -17.618256 -15.358645 2.476742
13920000000 -28.845177 -29.474333 -40.631775 -39.601738 -40.778671 -41.012215 -15.598039 3.3051775
13930000000 -30.040329 -22.438246 -40.409779 -64.380951 -40.542122 -65.063972 -15.728192 4.1880107
13940000000 -29.596533 -25.587387 -40.764942 -88.843109 -40.846134 -89.119087 -15.671275 5.2941127
13950000000 -29.698668 -21.296656 -41.293369 -109.19426 -41.056446 -108.16704 -15.475266 6.38516
13960000000 -29.303305 -32.376694 -41.442719 -131.27478 -41.206379 -131.94261 -15.240164 7.9470115
13970000000 -28.770611 -34.613873 -41.701878 -147.84831 -41.579403 -147.98947 -15.072413 9.5129166
13980000000 -28.469349 -50.412964 -41.061672 -167.51974 -40.848282 -169.67105 -14.966291 10.613134
13990000000 -28.607943 -54.396862 -41.177624 172.78758 -41.193863 171.88757 -14.972116 11.256686
14000000000 -27.885077 -71.208931 -40.167347 152.06335 -40.154209 151.33542 -15.06854 11.418582
14010000000 -29.359133 -73.154343 -40.328297 126.43932 -40.34753 125.42584 -15.143147 11.653934
14020000000 -28.916943 -79.072495 -40.124626 106.14188 -40.110901 106.35224 -15.123661 11.448381
14030000000 -29.902782 -73.577522 -40.01622 84.966339 -39.88274 84.381302 -15.08135 10.759798
14040000000 -29.616947 -77.330688 -39.484329 63.343941 -39.463997 62.219009 -15.122083 9.9850159
14050000000 -30.022427 -70.843231 -39.467884 40.691986 -39.37199 39.56213 -15.214628 9.3913879
14060000000 -28.704769 -76.88501 -39.163204 18.048786 -39.256737 18.170921 -15.311614 9.2228699
14070000000 -29.370747 -82.080536 -39.056202 -5.1528649 -39.068455 -5.5669694 -15.441754 8.8859529
14080000000 -28.616341 -95.882256 -39.004269 -25.453518 -38.917141 -24.750723 -15.46095 8.6537485
14090000000 -29.538767 -99.20694 -38.795887 -48.371964 -38.60323 -49.608459 -15.460148 7.9443731
14100000000 -28.351364 -115.19169 -38.472519 -69.221313 -38.380428 -71.038017 -15.440949 7.5535574
14110000000 -29.406797 -123.67476 -38.196514 -92.472725 -38.185593 -93.848778 -15.448789 7.3626928
14120000000 -28.88682 -128.06503 -38.144352 -116.1571 -38.1959 -117.91281 -15.527333 8.5233698
14130000000 -29.754044 -131.91014 -37.740162 -139.57437 -37.746243 -140.06645 -15.583121 9.2319918
14140000000 -28.614328 -128.39134 -38.087627 -164.39023 -38.054661 -165.38875 -15.719178 9.484724
14150000000 -29.172234 -133.67502 -37.925613 174.62354 -37.910408 174.13036 -15.933331 8.2723665
14160000000 -28.447762 -130.75716 -38.223858 152.88866 -38.086468 151.16687 -16.173265 7.1718507
14170000000 -28.402842 -135.24945 -37.724766 131.30115 -37.722492 130.49385 -16.318789 6.9262452
14180000000 -27.471386 -137.96353 -37.505959 108.02068 -37.556812 106.84118 -16.343746 7.8879123
14190000000 -27.713806 -149.90964 -37.728935 83.169968 -37.69677 82.889404 -16.335411 8.7884407
14200000000 -27.376814 -152.49814 -37.742329 60.331028 -37.77459 59.115795 -16.535418 10.014656
14210000000 -27.688101 -161.73322 -38.175907 36.827011 -38.191223 36.779728 -16.901917 11.155697
14220000000 -27.354992 -161.27187 -38.161129 18.855276 -38.109283 18.081261 -17.316055 12.601523
14230000000 -27.744335 -170.49316 -37.947525 -4.3440423 -37.91246 -5.4385872 -17.58927 13.904282
14240000000 -28.038279 -163.62299 -37.885849 -26.051954 -37.975063 -26.725679 -17.774345 15.488358
14250000000 -27.630194 -167.37291 -37.914703 -49.330055 -37.851315 -49.9505 -17.843521 17.842583
14260000000 -27.513313 -163.05408 -37.925579 -72.124146 -37.981934 -73.047249 -17.886929 20.095192
14270000000 -26.997168 -167.15092 -38.155968 -92.873978 -38.150932 -93.470428 -18.087509 22.58881
14280000000 -27.024904 -168.51814 -38.201527 -115.04115 -38.194057 -116.02724 -18.175795 25.124327
14290000000 -26.704899 -174.56526 -38.404263 -135.65726 -38.469929 -136.55954 -18.131374 26.668484
14300000000 -27.091806 -179.213 -38.046417 -155.4395 -37.987774 -156.81541 -17.978647 27.863016
14310000000 -27.168791 176.7242 -38.03878 -178.80211 -38.053764 179.89668 -17.648254 29.696888
14320000000 -27.707001 175.90529 -37.981838 159.33826 -37.958805 159.25621 -17.186569 31.742208
14330000000 -27.561512 172.88388 -38.047588 138.01714 -38.027092 136.64435 -16.804283 34.124771
14340000000 -28.256744 175.87219 -38.137676 116.71857 -38.254284 116.14013 -16.436514 36.663113
14350000000 -27.424713 178.35728 -38.011139 97.696945 -37.92157 96.584564 -16.199825 38.642338
14360000000 -27.461121 176.69281 -37.73259 75.186707 -37.729504 73.878174 -16.063745 40.307507
14370000000 -27.086664 176.7355 -37.581303 53.613304 -37.516106 52.515751 -15.89922 41.330242
14380000000 -27.311378 174.66066 -37.337494 31.819277 -37.450905 30.879568 -15.6542 41.417927
14390000000 -26.974287 170.71117 -37.300079 10.067065 -37.242886 8.9403515 -15.392838 40.608795
14400000000 -27.990068 168.59341 -37.155197 -11.762473 -37.18124 -12.845983 -15.074233 39.935192
14410000000 -28.021378 166.92554 -37.233402 -33.323334 -37.240952 -33.8074 -14.686495 39.300507
14420000000 -28.628 170.30141 -36.821392 -53.560181 -36.770294 -54.902493 -14.303194 38.740852
14430000000 -28.102236 168.66467 -36.657001 -76.010803 -36.631664 -77.030624 -14.020229 38.192341
14440000000 -28.402418 173.7805 -36.27177 -96.890327 -36.252163 -98.534637 -13.794206 37.885029
14450000000 -27.054594 173.94676 -35.97916 -121.14764 -35.9426 -121.69462 -13.584433 37.368137
14460000000 -27.124926 173.15923 -35.756325 -144.13535 -35.730091 -145.08279 -13.342277 36.475018
14470000000 -26.548512 172.51065 -35.723251 -166.37834 -35.700092 -167.29012 -13.171989 35.49353
14480000000 -26.849693 171.08038 -35.532539 170.92667 -35.512802 169.91324 -13.089094 34.967999
14490000000 -26.907576 171.62909 -35.549374 148.60747 -35.395863 147.38257 -13.077727 34.608223
14500000000 -27.308752 173.97513 -35.029041 125.44511 -35.055042 123.7917 -13.114967 33.790752
14510000000 -27.116295 174.54558 -34.979797 101.16006 -34.991634 99.737946 -13.252592 32.284687
14520000000 -27.578461 179.7238 -35.126877 78.504959 -35.181927 77.59417 -13.291783 30.724087
14530000000 -26.431921 179.85526 -35.000671 57.160805 -34.937511 55.798782 -13.170402 29.105967
14540000000 -26.095795 178.65474 -34.793064 34.206543 -34.78207 33.014973 -13.014367 28.076529
14550000000 -25.433552 175.3344 -34.543438 10.012714 -34.565247 8.6367683 -12.889638 28.090223
14560000000 -25.246502 173.97359 -34.676071 -13.941753 -34.648937 -14.629291 -12.822296 28.924444
14570000000 -24.678677 171.52925 -34.827122 -37.177433 -34.780785 -38.399212 -12.820958 29.349281
14580000000 -25.143131 169.76006 -34.952179 -59.288353 -34.91782 -60.22596 -12.870131 29.505697
14590000000 -24.915714 173.57314 -35.066833 -81.301529 -35.015999 -82.382339 -12.898794 29.184235
14600000000 -24.724571 174.6451 -34.888725 -101.77641 -34.866776 -103.186 -12.918685 28.855726
14610000000 -24.288765 176.93053 -34.681801 -124.90887 -34.6856 -126.20466 -12.901803 29.00127
14620000000 -23.852345 176.1145 -34.713871 -148.40039 -34.705688 -149.05406 -12.862738 29.404924
14630000000 -23.108707 175.39305 -34.782448 -169.10316 -34.773811 -170.25711 -12.830966 29.331171
14640000000 -22.944113 170.64972 -34.705948 167.9931 -34.616806 166.84428 -12.795966 28.574333
14650000000 -22.589981 168.23682 -34.481407 146.39552 -34.5215 145.3472 -12.700192 27.329346
14660000000 -22.675896 163.70441 -34.454174 123.80497 -34.433704 123.24567 -12.54836 25.98765
14670000000 -22.787798 164.595 -34.268772 102.7896 -34.272648 101.76352 -12.354123 25.585619
14680000000 -22.662476 163.41452 -34.103268 80.42704 -34.026478 79.474434 -12.115499 25.891603
14690000000 -22.366678 165.48573 -34.062305 57.553825 -34.016296 56.450302 -11.926452 25.949724
14700000000 -22.115974 164.40265 -33.838963 35.023331 -33.846786 33.652359 -11.831849 25.724028
14710000000 -21.548149 166.07959 -33.780151 12.57507 -33.676109 11.7191 -11.836238 25.053329
14720000000 -21.073143 161.83987 -33.532162 -8.7505674 -33.544613 -10.15402 -11.909096 24.048565
14730000000 -21.051426 158.18674 -33.186859 -32.292004 -33.16077 -33.264156 -11.999749 23.05409
14740000000 -21.007168 154.56606 -32.94323 -55.56197 -32.835114 -56.802738 -12.09494 21.870785
14750000000 -21.179945 151.68501 -32.898788 -80.022812 -32.859657 -81.078568 -12.123878 20.350183
14760000000 -21.351028 149.96193 -32.716633 -102.32816 -32.684299 -103.56145 -12.111207 18.453196
14770000000 -21.236172 149.25552 -32.636398 -125.32828 -32.585899 -126.3019 -12.076591 16.614613
14780000000 -21.23782 148.66966 -32.345371 -148.4579 -32.251331 -149.78696 -12.04911 15.420226
14790000000 -20.877035 149.59642 -32.192936 -172.03793 -32.211334 -173.35231 -12.071814 14.984313
14800000000 -20.324818 148.55067 -32.135303 164.33415 -32.077492 163.28055 -12.155199 15.075037
14810000000 -20.018017 145.84483 -31.873888 141.46317 -31.858921 140.13643 -12.265996 15.050406
14820000000 -19.902401 142.66626 -31.713879 117.05123 -31.70643 116.07834 -12.410343 14.536985
14830000000 -20.132133 139.4639 -31.5436 92.583603 -31.5532 91.331886 -12.600989 13.547435
14840000000 -20.333096 138.10086 -31.581694 67.376175 -31.577171 66.668571 -12.812426 13.217647
14850000000 -20.745434 134.71085 -31.709923 44.732796 -31.638597 43.878746 -12.972204 13.385449
14860000000 -21.059515 135.27525 -31.617023 21.734612 -31.558809 20.78598 -13.140243 13.491308
14870000000 -21.267118 133.62144 -31.399677 -2.7749803 -31.381002 -3.8637309 -13.370451 12.670558
14880000000 -21.042175 133.99982 -31.331158 -26.793831 -31.362965 -27.817471 -13.585912 11.361456
14890000000 -20.747505 131.9007 -31.458874 -51.519474 -31.471685 -52.286404 -13.70432 9.9088049
14900000000 -20.413481 128.06332 -31.521975 -73.824821 -31.538195 -74.599258 -13.660105 9.5273657
14910000000 -20.467682 125.59232 -31.364185 -96.801041 -31.326839 -97.669632 -13.518497 10.343294
14920000000 -20.304449 122.90569 -31.214003 -121.66737 -31.19652 -122.74094 -13.469388 11.938966
14930000000 -20.71981 119.61497 -31.272249 -146.25639 -31.301723 -147.27986 -13.615683 13.76142
14940000000 -21.09458 119.85855 -31.515732 -171.6636 -31.511684 -172.34909 -13.898285 14.97837
14950000000 -21.629293 119.64695 -31.823557 166.41301 -31.789165 165.51543 -14.261665 15.033075
14960000000 -21.751892 121.77259 -31.717775 143.5533 -31.75256 142.77293 -14.590908 14.793418
14970000000 -21.970461 121.16817 -31.662622 119.99277 -31.665005 119.47583 -14.777982 15.220384
14980000000 -22.039076 122.05285 -31.707928 96.427559 -31.708361 95.368347 -14.79729 16.282488
14990000000 -21.905668 118.99551 -31.66535 72.723518 -31.646835 71.898148 -14.831043 16.859747
15000000000 -22.062885 115.31258 -31.819258 48.293644 -31.775927 47.591457 -15.013412 17.033514
15010000000 -22.579334 112.22312 -31.85758 24.349348 -31.859388 23.84609 -15.213634 16.954744
15020000000 -22.874836 111.6461 -32.117664 0.98031926 -32.076569 0.39094666 -15.195873 17.31374
15030000000 -23.312138 109.87022 -32.205818 -21.479939 -32.18737 -22.115671 -14.91317 18.093254
15040000000 -23.598093 113.0087 -32.357399 -44.266117 -32.41267 -44.774494 -14.593946 19.736734
15050000000 -23.945606 112.74955 -32.378075 -67.060966 -32.434032 -67.67704 -14.404201 22.448296
15060000000 -23.759298 119.62222 -32.491837 -89.783554 -32.510109 -90.270905 -14.39433 25.400257
15070000000 -23.62146 116.14174 -32.41132 -113.14844 -32.448692 -113.71272 -14.530737 27.456137
15080000000 -23.730644 120.39234 -32.565208 -136.95947 -32.529987 -137.3007 -14.685382 28.121155
15090000000 -23.861094 114.67477 -32.668556 -159.10703 -32.639023 -159.97791 -14.782036 27.481747
15100000000 -24.589209 117.93571 -32.577305 177.35709 -32.621014 176.68616 -14.729861 26.751263
15110000000 -24.688126 116.7496 -32.768246 154.09641 -32.8652 153.81001 -14.509074 26.117638
15120000000 -25.241804 118.96642 -32.904373 131.68219 -32.906277 131.57631 -14.310331 25.625547
15130000000 -25.786179 118.98426 -32.90498 109.57645 -32.873512 108.65175 -14.220269 25.398411
15140000000 -25.038706 127.39593 -32.921959 86.969742 -32.893211 85.993309 -14.084192 25.534082
15150000000 -24.716805 123.9202 -32.832184 64.0821 -32.767323 63.233543 -13.830433 25.584635
15160000000 -24.120283 127.70274 -32.918156 41.575901 -32.866947 40.722885 -13.615193 25.283148
15170000000 -23.992147 122.21424 -32.869473 18.321642 -32.899223 17.380758 -13.484122 25.513203
15180000000 -23.774738 125.55366 -32.835159 -4.870369 -32.889984 -5.2716126 -13.513903 26.098183
15190000000 -23.66963 121.86548 -32.871284 -28.149012 -32.909569 -28.69997 -13.588901 26.871807
15200000000 -24.194241 123.94537 -32.938972 -51.372681 -32.972061 -51.850121 -13.695581 26.305143
15210000000 -24.265907 125.25443 -33.100044 -74.779297 -33.022263 -75.399803 -13.874618 24.950842
15220000000 -24.224098 129.98068 -33.069401 -96.902565 -33.15044 -98.548775 -14.022634 23.594727
15230000000 -23.774097 129.30911 -33.129658 -118.74622 -33.085117 -119.87317 -14.041166 22.290958
15240000000 -23.288942 130.17152 -32.880066 -142.75797 -32.892471 -143.77238 -14.0361 21.069389
15250000000 -23.210154 125.23069 -33.098515 -165.64343 -33.110859 -166.31082 -14.071172 20.105274
15260000000 -22.693562 125.31741 -32.983658 171.40623 -32.910549 170.8846 -14.081219 20.337425
15270000000 -22.675091 118.83224 -33.072796 148.62691 -33.101933 147.83968 -13.967838 20.897678
15280000000 -23.024282 116.45699 -33.031082 125.19532 -32.975849 123.91018 -13.895303 21.577038
15290000000 -23.196735 116.55319 -33.095417 101.89378 -33.143303 100.14184 -13.967267 22.702
15300000000 -23.38464 115.68678 -33.380142 78.852425 -33.372158 77.366417 -14.175723 24.312651
15310000000 -23.527788 118.98011 -33.37307 57.383911 -33.338863 56.031548 -14.408788 25.821365
15320000000 -22.940454 118.9082 -33.266766 34.721226 -33.152351 33.486446 -14.564561 25.883642
15330000000 -22.876745 118.44264 -33.198608 11.359879 -33.085304 10.261719 -14.789072 25.044104
15340000000 -22.383926 115.8162 -33.131699 -12.340634 -32.998997 -13.752364 -14.920322 24.553947
15350000000 -22.4765 111.76646 -33.439747 -35.585159 -33.348534 -36.703125 -14.953218 24.848785
15360000000 -22.738705 106.83039 -33.460476 -57.290745 -33.477428 -58.622215 -14.881737 25.643215
15370000000 -23.297489 104.11957 -33.437714 -80.22155 -33.51255 -81.253349 -14.796163 25.695536
15380000000 -23.85627 100.71593 -33.462337 -102.46825 -33.467468 -103.24097 -14.729178 25.411514
15390000000 -24.496672 103.32162 -33.392776 -125.55754 -33.372658 -126.4712 -14.607655 25.295124
15400000000 -24.693556 101.61419 -33.531815 -149.12329 -33.422062 -150.18245 -14.392761 25.888338
15410000000 -24.659492 106.20213 -33.52351 -169.7236 -33.458042 -171.9265 -14.204255 27.060999
15420000000 -24.245636 101.79783 -33.385487 166.91977 -33.372902 165.68153 -14.161619 28.932034
15430000000 -24.318287 99.518272 -33.533253 144.27898 -33.415878 143.25667 -14.238852 30.662209
15440000000 -24.443157 95.364052 -33.34153 121.94089 -33.297489 121.10194 -14.487502 31.144625
15450000000 -24.794989 91.266754 -33.38406 98.53698 -33.261684 97.790283 -14.730623 30.159992
15460000000 -25.678476 85.351074 -33.346584 75.284554 -33.337021 74.163643 -14.89781 28.075901
15470000000 -26.789402 86.092842 -33.351463 52.27285 -33.278843 51.205761 -14.903564 26.223845
15480000000 -28.019588 82.213112 -33.3964 29.911106 -33.46307 28.322622 -14.789481 25.755974
15490000000 -28.677979 91.89003 -33.428734 7.7310586 -33.482849 6.7802382 -14.619163 25.861311
15500000000 -29.196465 87.596642 -33.26717 -14.566738 -33.240463 -15.810617 -14.534274 26.433319
15510000000 -28.813669 90.985588 -33.207088 -37.320358 -33.189796 -38.650467 -14.497777 26.916718
15520000000 -29.674212 85.397354 -32.965595 -60.809761 -32.897316 -61.836571 -14.568873 27.609901
15530000000 -29.174095 85.839798 -33.021042 -84.726044 -32.997295 -86.17363 -14.587044 28.782974
15540000000 -30.519468 72.829254 -33.076202 -107.93537 -33.034012 -109.11027 -14.60242 30.468973
15550000000 -32.118526 72.58625 -33.206459 -130.50311 -33.232792 -131.52708 -14.682844 31.773422
15560000000 -35.403351 58.089714 -33.164417 -153.36353 -33.149498 -153.78571 -14.877477 32.978481
15570000000 -38.41058 79.395256 -32.956898 -176.70348 -33.007336 -177.41991 -15.070777 33.861481
15580000000 -44.720459 67.679871 -33.023006 159.82727 -33.012234 158.68599 -15.289123 33.719147
15590000000 -43.583004 123.94785 -32.983849 135.76207 -33.092384 134.51511 -15.454066 33.082703
15600000000 -45.183907 154.58315 -33.235538 113.44144 -33.242592 112.03973 -15.470048 32.560371
15610000000 -39.774788 144.36966 -33.047237 90.491043 -33.129871 88.808304 -15.300429 31.705616
15620000000 -49.958946 156.40323 -33.065899 67.056419 -33.031307 65.553024 -15.055455 31.346827
15630000000 -46.857548 166.9834 -32.933628 43.180855 -32.96254 41.862976 -14.802357 31.386587
15640000000 -41.672516 -107.5763 -33.167698 19.433235 -33.116707 17.363319 -14.663234 32.656265
15650000000 -37.70108 -128.20076 -33.289055 -3.7884862 -33.214165 -4.9724946 -14.565461 34.772583
15660000000 -34.324081 -122.35153 -33.460167 -26.14954 -33.47224 -27.963572 -14.586594 36.786415
15670000000 -32.183014 -134.70164 -33.501595 -49.329803 -33.40155 -50.131283 -14.710786 37.923943
15680000000 -29.870272 -137.73149 -33.46986 -71.903679 -33.457726 -73.267181 -14.932742 38.05859
15690000000 -29.68149 -149.43866 -33.399574 -95.568863 -33.294258 -96.483002 -15.136008 37.55452
15700000000 -29.12709 -148.12592 -33.396755 -119.84918 -33.374138 -120.90774 -15.287019 37.322987
15710000000 -29.515568 -150.62218 -33.669193 -143.32739 -33.611065 -145.06259 -15.318088 37.473389
15720000000 -28.724226 -145.73563 -33.780602 -167.37872 -33.812576 -168.59708 -15.352942 37.698856
15730000000 -28.279999 -141.46596 -33.978886 169.94009 -34.016628 168.37036 -15.367676 38.145626
15740000000 -27.247055 -139.43935 -34.276249 147.16879 -34.277908 145.94504 -15.330009 37.851391
15750000000 -26.092989 -139.82018 -34.312416 125.40034 -34.294945 123.57291 -15.186043 37.963161
15760000000 -25.168186 -144.66248 -34.462643 102.31241 -34.430065 100.42986 -14.906338 39.090946
15770000000 -24.854975 -147.78951 -34.408894 79.31636 -34.413383 77.398964 -14.50828 41.591343
15780000000 -24.269974 -152.6469 -34.625076 56.037663 -34.607407 53.871426 -14.20808 44.783634
15790000000 -24.530771 -153.92094 -34.729626 32.956375 -34.798359 30.994013 -14.065747 47.780243
15800000000 -23.999971 -155.6179 -35.123146 10.207127 -35.096661 7.9567289 -14.126353 49.772156
15810000000 -24.373135 -155.17462 -35.24485 -13.153261 -35.267368 -14.98292 -14.313998 50.227085
15820000000 -23.692673 -150.81714 -35.417088 -34.481171 -35.391529 -36.261433 -14.434581 49.608807
15830000000 -23.031954 -151.12276 -35.459953 -58.854237 -35.483234 -59.739944 -14.343741 48.316528
15840000000 -22.47229 -152.35547 -35.811275 -80.344894 -35.739944 -81.493607 -14.057689 46.966366
15850000000 -22.353813 -151.49911 -36.026424 -102.20872 -35.860584 -104.07215 -13.696308 45.603809
15860000000 -21.666422 -153.78502 -36.145943 -124.38647 -36.112289 -126.15682 -13.351299 44.77639
15870000000 -21.76685 -156.651 -36.299431 -145.82788 -36.220833 -147.07983 -12.99157 44.155109
15880000000 -21.730284 -157.51262 -36.121075 -166.82005 -36.072453 -168.44989 -12.660442 43.887779
15890000000 -22.126158 -157.50784 -36.075615 168.19064 -36.136375 167.2782 -12.32215 43.931828
15900000000 -21.572489 -156.08522 -36.382153 145.59 -36.429699 145.12854 -12.048129 44.301079
15910000000 -21.55311 -156.72482 -36.731194 122.81583 -36.661526 122.14149 -11.882207 44.555481
15920000000 -20.978971 -156.59929 -37.020416 101.74544 -36.977116 100.35025 -11.830713 44.456661
15930000000 -20.630398 -155.5471 -37.059074 80.255516 -37.021378 78.738739 -11.867205 43.707035
15940000000 -20.050905 -156.44118 -37.065693 58.078438 -37.072807 57.061371 -11.953288 42.378975
15950000000 -19.789221 -158.0907 -37.117886 37.462517 -37.066586 36.005878 -12.014762 40.262062
15960000000 -19.719404 -158.66899 -36.856537 13.659775 -36.936371 12.589553 -12.002358 37.76683
15970000000 -19.736448 -157.04124 -37.304016 -10.146279 -37.301796 -11.230846 -11.914744 34.8255
15980000000 -19.321575 -157.46542 -37.341351 -30.356079 -37.274151 -31.365608 -11.749924 32.281071
15990000000 -19.470737 -155.86484 -37.314892 -53.366096 -37.259686 -54.852406 -11.517732 30.48403
16000000000 -19.12369 -155.35159 -37.394112 -74.589172 -37.367561 -76.457413 -11.304439 29.587048
16010000000 -18.810627 -154.07137 -37.486431 -97.859322 -37.444439 -99.19883 -11.203774 29.52544
16020000000 -18.349726 -155.62904 -37.54224 -119.80234 -37.526997 -121.53996 -11.207222 29.486036
16030000000 -18.09758 -155.94794 -37.615692 -143.34897 -37.674355 -144.66101 -11.378732 28.767706
16040000000 -17.669388 -157.65955 -37.753792 -164.63568 -37.702717 -165.52692 -11.663761 27.02272
16050000000 -17.477024 -158.40312 -37.70055 172.0929 -37.66613 171.05675 -11.976097 24.732626
16060000000 -17.208643 -159.00777 -37.897114 149.48575 -37.76392 148.10501 -12.205577 22.504124
16070000000 -17.098835 -157.88914 -37.80785 126.92064 -37.807743 125.45272 -12.305661 20.585182
16080000000 -16.632813 -157.69153 -37.82077 102.47115 -37.828789 101.5776 -12.428673 18.320398
16090000000 -16.459963 -157.10387 -38.117935 80.350616 -38.067783 78.954155 -12.621994 16.044413
16100000000 -15.967498 -156.9729 -38.300888 58.62746 -38.255466 57.434711 -12.802054 13.828649
16110000000 -15.75238 -157.30835 -38.186356 35.723885 -38.193222 34.563908 -12.891442 12.282694
16120000000 -15.286927 -158.43507 -38.420284 13.189311 -38.292183 11.415829 -12.843878 12.061728
16130000000 -15.074684 -160.11896 -38.421551 -8.5560112 -38.402908 -10.585615 -12.816704 12.995132
16140000000 -14.862869 -160.9726 -38.49279 -31.865917 -38.571125 -34.237484 -12.987637 14.781003
16150000000 -14.68663 -162.30531 -38.617386 -55.543579 -38.700756 -56.86898 -13.386677 16.292103
16160000000 -14.360618 -162.51619 -38.917179 -78.791687 -38.885521 -79.690407 -13.967535 16.56592
16170000000 -14.147903 -163.43297 -39.118931 -102.4619 -39.064827 -103.56387 -14.556137 15.319411
16180000000 -13.740588 -163.43216 -39.435909 -126.10622 -39.498898 -126.95181 -14.956081 12.98319
16190000000 -13.517772 -164.00385 -39.706787 -145.75618 -39.681438 -147.55418 -15.115516 10.912693
16200000000 -13.059122 -164.10117 -39.693661 -169.05681 -39.628288 -170.38792 -15.120466 9.6917658
16210000000 -12.797796 -165.62573 -39.888577 168.28166 -39.884537 167.56212 -15.200848 9.1178551
16220000000 -12.593186 -165.92903 -39.838364 147.55138 -39.872612 146.0676 -15.282619 9.2635813
16230000000 -12.344349 -168.0929 -39.94294 122.30194 -39.947552 122.35489 -15.302867 9.2785683
16240000000 -12.206365 -168.66164 -39.975609 100.39949 -39.92033 98.615166 -15.249096 9.473443
16250000000 -12.093907 -170.47256 -40.598797 75.412338 -40.503925 74.213837 -15.171401 10.887718
16260000000 -11.881051 -170.86154 -40.849213 55.107033 -40.731598 53.425121 -15.222025 13.186642
16270000000 -11.686138 -172.51254 -41.336578 32.003082 -41.271084 31.322992 -15.453563 15.918743
16280000000 -11.384942 -172.81215 -41.253632 13.346184 -41.344082 11.878341 -15.879632 17.305792
16290000000 -11.109365 -174.57228 -41.318497 -9.4052639 -41.303444 -10.958062 -16.42651 16.693317
16300000000 -10.770249 -174.99232 -41.14682 -31.454445 -41.214653 -32.091843 -16.847902 14.366467
16310000000 -10.530139 -177.01196 -41.407082 -56.946178 -41.260628 -57.971943 -17.010031 11.121779
16320000000 -10.330946 -177.47493 -41.664589 -77.742889 -41.620125 -78.896614 -16.981472 8.462451
16330000000 -10.144505 -179.27367 -41.611984 -101.95997 -41.589462 -103.49187 -16.949389 6.7794347
16340000000 -10.062602 -179.83344 -41.876503 -125.57001 -41.932835 -126.21349 -17.006962 5.9956665
16350000000 -9.9827852 178.78201 -42.120258 -146.70464 -42.118328 -148.3071 -17.013971 5.5565319
16360000000 -9.8150253 178.66692 -42.495026 -170.07913 -42.427227 -170.42676 -17.046515 5.4369431
16370000000 -9.6821413 177.2229 -42.64851 170.49852 -42.730591 169.11574 -17.144651 5.9314985
16380000000 -9.4152689 176.29108 -42.526546 148.47084 -42.413868 148.41028 -17.407528 7.4117637
16390000000 -9.242238 174.37978 -42.372124 125.18763 -42.249531 125.68176 -18.033127 8.615695
16400000000 -8.9985638 173.24573 -42.359352 102.20814 -42.198452 100.35201 -18.824366 9.2120991
16410000000 -8.8241539 171.27937 -42.296074 76.943626 -42.358704 76.08989 -19.758022 7.0603037
16420000000 -8.6873093 170.52103 -42.4394 54.092121 -42.467209 52.527321 -20.557152 4.2083635
16430000000 -8.5507336 169.03297 -42.83289 28.351654 -42.942757 27.085167 -20.984419 1.2958108
16440000000 -8.4307585 169.00537 -43.186546 6.449584 -43.240868 5.4537854 -21.300875 0.10841052
16450000000 -8.2831469 168.03465 -43.416374 -16.543667 -43.471031 -15.998434 -21.792833 0.4733583
16460000000 -8.1277761 167.80957 -43.069397 -36.873592 -43.012817 -37.752819 -22.310535 2.3855255
16470000000 -7.9571624 166.60153 -43.271187 -62.109631 -43.339474 -63.958138 -22.671143 5.0632782
16480000000 -7.7949209 165.49632 -43.337105 -86.002899 -43.414398 -87.632599 -22.649178 9.2206039
16490000000 -7.683166 163.62935 -43.477077 -110.27452 -43.543282 -111.30925 -22.266848 15.030712
16500000000 -7.5709834 162.68303 -43.398743 -133.18205 -43.418526 -133.60071 -22.077385 21.947269
16510000000 -7.4438758 160.93971 -43.590149 -160.75861 -43.676273 -160.3616 -22.293457 30.553133
16520000000 -7.3661771 160.26933 -44.053055 176.74416 -44.027325 174.8423 -22.815819 39.985516
16530000000 -7.1768861 159.12424 -44.651718 152.43741 -44.56506 150.39896 -23.406027 44.384258
16540000000 -7.0443058 158.89397 -44.703381 130.91833 -44.975552 130.06905 -24.18882 43.364769
16550000000 -6.8092837 157.8252 -44.771896 109.9228 -44.849236 108.79192 -24.462519 38.835915
16560000000 -6.6465888 157.2048 -44.064381 83.727997 -44.18927 84.15062 -24.172691 35.60146
16570000000 -6.5131807 155.91231 -44.205948 55.909492 -44.149277 55.090309 -23.643847 34.420612
16580000000 -6.3886814 155.12854 -44.817524 29.764538 -44.52198 27.298098 -23.412231 35.7164
16590000000 -6.2716627 153.74329 -45.137531 4.2685814 -45.209103 2.7671604 -23.27142 37.029781
16600000000 -6.2144752 152.8363 -45.489254 -20.520884 -45.672371 -21.925562 -23.202274 38.279785
16610000000 -6.0708194 151.68771 -45.805248 -45.1614 -45.677933 -46.459965 -22.819719 39.347076
16620000000 -5.960525 150.85304 -46.151829 -69.628822 -46.415451 -71.527885 -22.457718 41.562096
16630000000 -5.7320809 149.54774 -46.720692 -89.688553 -46.907085 -91.04567 -22.325546 47.38269
16640000000 -5.5790691 148.52173 -46.404842 -115.79385 -46.405796 -117.20587 -22.467754 55.320511
16650000000 -5.3711739 147.26221 -46.48959 -141.95035 -46.422676 -143.33955 -22.679382 62.657234
16660000000 -5.2222042 146.18179 -46.585152 -169.18221 -46.568661 -170.72266 -23.417202 66.448502
16670000000 -5.0581779 145.1544 -47.403175 164.51501 -47.367573 163.01044 -24.376808 66.6987
16680000000 -4.9521375 144.17174 -47.852535 140.7011 -47.65004 139.67503 -24.785295 65.420311
16690000000 -4.7967663 143.32478 -48.25042 112.50494 -48.277058 110.7999 -24.233721 62.370152
16700000000 -4.6757832 142.41525 -48.928406 87.432648 -48.619816 86.358452 -23.302742 59.811283
16710000000 -4.4864707 141.23643 -49.512424 67.782928 -49.439968 64.550613 -22.434938 59.853333
16720000000 -4.3645563 139.85365 -49.438099 43.519382 -49.316326 39.207558 -21.784794 61.891602
16730000000 -4.1888809 138.4678 -49.560627 17.171833 -49.614677 14.002328 -21.102625 64.953156
16740000000 -4.0669408 136.9418 -49.840755 -7.7407184 -49.845768 -10.293894 -20.538227 66.947807
16750000000 -3.9149454 135.56071 -50.297508 -31.087118 -50.372322 -32.167717 -20.175102 68.451408
16760000000 -3.8004956 134.24478 -50.221977 -58.889706 -50.220325 -60.051849 -20.089285 70.132462
16770000000 -3.6448464 133.21074 -51.239487 -82.332779 -51.24448 -83.77375 -20.070406 71.363808
16780000000 -3.4970803 132.00139 -51.331928 -103.76077 -51.494602 -103.53042 -20.317564 70.864998
16790000000 -3.3325052 130.89966 -50.980042 -127.49435 -51.142017 -129.39061 -20.72588 68.56897
16800000000 -3.2130275 129.50302 -51.43195 -152.48206 -51.803078 -153.70746 -21.094843 64.46048
16810000000 -3.0517416 128.13693 -52.22121 -177.59224 -51.587959 -176.9201 -21.295036 59.24744
16820000000 -2.9604595 126.4441 -52.041798 160.48744 -52.107689 157.02335 -21.171551 54.4594
16830000000 -2.8529251 124.86177 -51.879528 135.75464 -52.289364 135.0284 -20.684105 49.894363
16840000000 -2.7682757 123.32986 -51.802189 110.09536 -51.595165 107.13152 -20.284517 46.361973
16850000000 -2.6414666 121.9352 -52.499622 83.623779 -52.76001 83.565544 -20.082558 46.363396
16860000000 -2.5310495 120.36301 -52.639095 64.002831 -52.956234 64.08287 -19.889837 48.726475
16870000000 -2.3908112 119.10298 -52.802208 39.807312 -52.562035 40.815052 -20.002697 51.47213
16880000000 -2.259793 117.63967 -52.778725 19.714752 -52.415421 16.902075 -20.517303 53.787868
16890000000 -2.1110892 116.22994 -52.625759 -7.7776055 -52.856674 -7.6180959 -21.493864 55.748188
16900000000 -2.0204809 114.70438 -52.645824 -29.752348 -52.3218 -29.360292 -22.638901 55.963924
16910000000 -1.922915 113.30586 -52.616173 -53.815422 -52.797131 -58.944607 -23.934961 54.542782
16920000000 -1.8627949 111.83482 -52.750546 -80.765594 -52.79937 -81.676048 -25.126904 50.401939
16930000000 -1.7788718 110.40694 -53.329849 -104.1195 -53.112629 -106.46612 -26.168299 46.8918
16940000000 -1.7149746 108.83205 -53.329376 -127.26935 -53.140423 -125.81273 -26.71459 46.198608
16950000000 -1.6201332 107.31805 -52.798279 -150.00227 -52.973911 -151.11995 -26.905975 47.935482
16960000000 -1.5282538 105.64967 -52.726994 -176.76556 -52.841805 -177.30504 -26.723593 51.50983
16970000000 -1.42117 104.00084 -53.019218 157.55267 -53.37693 154.69586 -26.51474 59.931351
16980000000 -1.3374957 102.27856 -53.5345 131.2375 -53.797565 129.95869 -25.817072 71.766327
16990000000 -1.2465477 100.71802 -53.890846 109.18932 -54.152542 111.80276 -24.787811 83.474022
17000000000 -1.1720216 99.156868 -54.088848 88.944977 -53.999603 92.252083 -23.935011 92.556252
