!Keysight Technologies,P9374A,MY57211807,A.19.30.04
!Date: Friday, May 08, 2026 14:11:06
!Correction: S11(C  2-Port  ) 
!S21(C  2-Port  ) 
!S12(C  2-Port  ) 
!S22(C  2-Port  ) 
!S2P File: Measurements: S11, S21, S12, S22:
# Hz S  dB   R 50
13000000000 -19.257793 61.971844 -44.398033 -122.18032 -44.377224 -122.57157 -9.1938076 21.391729
13010000000 -18.799042 62.599628 -43.459915 -139.13034 -43.430813 -141.22565 -9.211318 17.119291
13020000000 -18.885923 61.61216 -42.10273 -159.57596 -42.106873 -161.01173 -9.2648907 12.860233
13030000000 -18.805641 60.619644 -41.079403 172.58931 -41.111172 171.47227 -9.3619003 8.5777082
13040000000 -19.385017 58.300522 -40.794159 146.1537 -40.920292 145.21603 -9.530055 4.6665883
13050000000 -19.83231 58.702396 -41.362144 121.324 -41.380905 120.39948 -9.768672 1.1014122
13060000000 -20.48176 60.135841 -41.728413 104.31863 -41.863018 103.51929 -10.058856 -2.4528518
13070000000 -20.55361 62.90176 -40.629692 89.148201 -40.648937 87.765144 -10.39916 -6.4452977
13080000000 -20.465076 65.781303 -39.276875 64.310356 -39.368313 63.015457 -10.802892 -10.827431
13090000000 -19.782022 66.041634 -38.829304 35.63134 -38.840954 34.641068 -11.189827 -15.26998
13100000000 -19.374123 65.173836 -39.197109 9.389617 -39.170235 9.0149536 -11.570271 -19.244732
13110000000 -19.013752 61.631817 -39.451572 -12.987584 -39.379642 -13.514188 -12.002489 -22.470772
13120000000 -19.233747 59.867237 -39.345657 -31.499706 -39.376751 -32.642483 -12.475209 -25.490759
13130000000 -19.211948 58.256733 -38.784115 -53.205246 -38.804184 -54.492462 -13.037996 -28.598898
13140000000 -19.722952 58.12101 -38.268673 -77.117195 -38.358444 -78.407143 -13.639256 -32.410259
13150000000 -19.997633 59.248516 -38.252941 -102.06751 -38.242573 -102.69618 -14.276 -36.399044
13160000000 -20.071461 63.450928 -38.529892 -124.3966 -38.534901 -124.69336 -14.933567 -39.665001
13170000000 -19.708071 62.888844 -38.202198 -144.12178 -38.071606 -145.83409 -15.68757 -42.20686
13180000000 -19.669502 62.724892 -37.658241 -167.63312 -37.615425 -168.66374 -16.625591 -43.715054
13190000000 -19.246593 61.731979 -37.466206 166.34763 -37.458927 164.77919 -17.697634 -45.920166
13200000000 -18.938953 58.589252 -37.469116 142.8875 -37.378262 141.84245 -18.990335 -50.115242
13210000000 -19.026608 55.271976 -37.428959 119.07479 -37.392223 117.77742 -20.284681 -55.553535
13220000000 -18.868265 53.477661 -37.401737 95.292381 -37.328068 93.814896 -21.540197 -60.665241
13230000000 -19.253448 49.48167 -37.822994 72.381691 -37.763767 71.268082 -22.914354 -63.427761
13240000000 -19.612709 50.872082 -38.041149 52.991711 -37.984928 51.233208 -24.809399 -62.43668
13250000000 -19.896038 50.458431 -37.423351 33.050144 -37.393108 31.532269 -27.835741 -58.19957
13260000000 -19.972664 54.016064 -36.834713 7.2900949 -36.809006 6.078455 -33.095322 -51.303173
13270000000 -19.828913 54.361061 -36.858257 -17.787292 -36.688213 -19.275869 -48.691933 -16.225273
13280000000 -19.229002 55.298382 -36.925694 -42.385509 -36.921509 -44.26017 -36.404472 110.92088
13290000000 -19.013922 50.382847 -37.291813 -65.657776 -37.244373 -67.46283 -30.625948 108.59389
13300000000 -18.852674 47.13953 -37.135887 -87.914146 -37.182976 -89.403137 -27.851944 100.43453
13310000000 -19.232792 40.710518 -37.45089 -110.4735 -37.425461 -112.3028 -25.346716 94.666016
13320000000 -19.479939 38.496433 -37.506924 -132.07541 -37.436829 -132.92616 -22.952667 90.59259
13330000000 -20.230762 35.002441 -37.068478 -153.99176 -37.111076 -156.21066 -21.067253 88.360947
13340000000 -20.720884 39.183075 -36.866856 -178.09221 -36.88356 -179.57623 -19.686398 86.821648
13350000000 -20.864914 39.959251 -36.762039 155.7309 -36.808243 154.33107 -18.816528 84.223587
13360000000 -20.476263 44.300175 -37.033886 132.03549 -37.066444 131.04007 -18.155588 80.393997
13370000000 -19.977339 42.190815 -37.242321 109.15628 -37.196442 107.87411 -17.466778 74.688034
13380000000 -19.436409 39.840942 -37.074909 86.149574 -37.104534 84.432686 -16.589504 69.18338
13390000000 -19.763634 32.733044 -37.320274 61.440811 -37.317665 59.602253 -15.641791 64.981369
13400000000 -20.082798 30.651049 -37.445847 38.201962 -37.510674 36.302811 -14.726949 62.033768
13410000000 -20.797832 23.7444 -37.615135 14.769197 -37.68174 13.851106 -14.130219 59.583572
13420000000 -21.62845 26.801916 -37.6394 -7.974875 -37.688835 -8.8411951 -13.807677 57.186325
13430000000 -22.075756 23.638535 -37.737282 -32.596855 -37.748882 -33.220249 -13.634918 53.812447
13440000000 -22.44537 28.296474 -37.638584 -56.404392 -37.623276 -57.585262 -13.503763 49.829262
13450000000 -22.208015 29.330828 -38.017365 -83.639801 -38.007446 -85.00209 -13.278809 45.253178
13460000000 -21.623924 30.166517 -38.360775 -106.95156 -38.484032 -108.05349 -12.9526 40.862339
13470000000 -21.703157 25.542038 -39.007603 -131.25528 -39.059929 -131.40515 -12.734702 37.17598
13480000000 -21.221149 24.65815 -39.290733 -154.36618 -39.244164 -154.5515 -12.626821 34.214359
13490000000 -22.052952 16.91164 -39.907066 -177.23871 -39.857391 -178.63188 -12.62683 31.669279
13500000000 -22.174261 17.394871 -40.417892 159.42693 -40.414677 158.5858 -12.714048 29.010618
13510000000 -23.344284 10.881922 -40.600876 138.70763 -40.613911 137.68509 -12.801373 26.124022
13520000000 -24.021687 13.409554 -40.944183 114.4453 -40.987289 114.01341 -12.955379 23.531408
13530000000 -25.422314 14.147902 -41.658211 89.174637 -41.544525 88.38237 -13.105936 21.399124
13540000000 -24.871122 20.305307 -42.780895 72.389351 -42.790585 71.701653 -13.333659 19.76244
13550000000 -25.185335 21.661299 -42.434772 50.849815 -42.269691 50.908501 -13.585532 18.871422
13560000000 -23.402943 23.463898 -42.959293 26.713671 -42.850597 26.511721 -13.871589 17.824108
13570000000 -24.081379 15.385667 -43.77108 9.5596819 -43.245712 7.7202525 -14.074449 16.681614
13580000000 -23.221926 13.425017 -43.315609 -10.64864 -43.240105 -13.642576 -14.286427 15.418859
13590000000 -24.790331 3.6991267 -44.085903 -36.728977 -43.908352 -38.792133 -14.373185 15.185278
13600000000 -25.424675 5.8036671 -44.549732 -54.710419 -44.400368 -55.589008 -14.37924 15.167612
13610000000 -27.826679 6.6229372 -44.638962 -66.259109 -44.586891 -69.916031 -14.36479 16.248995
13620000000 -28.024265 19.189548 -43.625076 -91.975731 -43.640205 -95.358086 -14.331023 17.191486
13630000000 -28.17872 27.235464 -43.954655 -113.95159 -43.789063 -115.84351 -14.292764 18.162167
13640000000 -26.349564 27.874416 -43.48587 -137.55185 -43.488575 -138.51788 -14.292347 18.2223
13650000000 -26.1406 22.149542 -42.95805 -161.35471 -43.001488 -164.67297 -14.236528 18.202942
13660000000 -25.327143 14.824024 -43.212856 170.99591 -43.293133 168.95584 -14.051708 17.138557
13670000000 -26.585133 5.2283735 -43.845081 146.31213 -44.122467 144.28055 -13.815215 16.295561
13680000000 -27.27739 5.9810867 -43.821327 126.35809 -43.955154 125.68775 -13.493931 14.752833
13690000000 -28.336681 5.944293 -43.974072 101.67282 -43.828911 99.254349 -13.256457 13.688757
13700000000 -29.442266 17.018993 -43.759708 78.06221 -44.159832 75.092812 -12.968253 12.415504
13710000000 -28.478405 27.661802 -43.618603 53.666409 -43.880989 52.013676 -12.84193 10.529744
13720000000 -27.315393 26.568327 -43.368073 25.277445 -43.558834 24.893629 -12.658246 8.5529175
13730000000 -27.54752 26.260706 -43.832279 -4.1767335 -44.023067 -4.5733356 -12.51589 5.6713576
13740000000 -26.637047 23.968302 -44.006222 -29.221886 -44.147198 -30.420038 -12.388672 2.7854187
13750000000 -27.336592 18.07309 -44.117119 -60.122044 -44.118515 -60.584099 -12.315788 -0.0042367871
13760000000 -27.177532 13.76582 -45.019096 -86.442207 -45.353218 -89.057014 -12.300478 -2.5988529
13770000000 -28.330902 8.6996937 -45.674026 -115.03694 -45.791256 -114.36919 -12.474529 -5.5552721
13780000000 -28.582893 7.0935173 -45.576199 -138.84999 -45.865398 -138.59778 -12.70146 -8.566781
13790000000 -29.03285 9.2104435 -44.863167 -168.98734 -45.086166 -168.05234 -12.922545 -12.360959
13800000000 -29.179903 7.4817448 -45.143364 154.21461 -45.247807 154.32684 -13.109671 -16.672888
13810000000 -29.068985 16.111217 -45.701221 120.6283 -45.823902 122.34149 -13.251884 -20.449648
13820000000 -27.837236 13.28194 -46.619225 89.612213 -46.46851 88.759071 -13.418644 -23.191586
13830000000 -27.185942 18.366734 -47.868553 52.945534 -48.282024 54.814667 -13.709603 -25.554098
13840000000 -25.556286 5.3678207 -48.376896 32.053738 -48.058823 33.026402 -14.198524 -27.501009
13850000000 -26.583876 -0.91852212 -47.870205 7.0646849 -47.848396 6.9629579 -14.736935 -29.389816
13860000000 -26.366205 -10.13876 -46.298702 -26.811855 -46.328457 -26.275543 -15.301093 -32.264099
13870000000 -28.085863 -18.362976 -46.460518 -65.266457 -46.608299 -65.149086 -15.908923 -34.87085
13880000000 -29.603884 -21.68166 -46.729542 -94.162361 -46.880779 -92.236984 -16.490456 -36.343159
13890000000 -31.229851 -8.1966801 -46.10574 -121.69623 -45.746254 -121.0582 -17.090706 -37.418476
13900000000 -29.863592 -5.4095521 -46.210876 -155.92169 -46.316471 -155.52339 -17.794786 -38.00592
13910000000 -29.032564 0.33150166 -45.828823 -177.12634 -45.656452 -177.4158 -18.672102 -38.553513
13920000000 -26.691 -7.8810949 -44.567444 153.5024 -44.651344 153.36594 -19.468811 -38.651302
13930000000 -26.882723 -20.506529 -43.951427 120.34884 -43.907825 120.15777 -20.088455 -38.245007
13940000000 -26.745256 -30.010612 -44.178894 91.481789 -44.155914 90.970581 -20.559942 -36.773952
13950000000 -27.591814 -43.629887 -44.325993 66.460503 -44.112759 65.947166 -20.889359 -33.331867
13960000000 -29.201046 -54.168587 -43.630871 41.013226 -43.595585 40.559418 -21.11607 -28.355328
13970000000 -30.699186 -58.46888 -42.956245 13.368172 -42.712582 12.674157 -21.459818 -23.311304
13980000000 -32.018051 -58.775917 -42.795589 -13.732513 -42.812538 -15.503478 -21.83983 -18.424936
13990000000 -31.654736 -49.478767 -42.508236 -42.13345 -42.364349 -42.757133 -22.352015 -14.087671
14000000000 -30.280151 -55.428211 -42.445431 -68.077911 -42.319675 -68.682625 -22.664007 -10.165276
14010000000 -29.132292 -54.530834 -42.454636 -92.741791 -42.243801 -93.883438 -22.677135 -8.7981596
14020000000 -27.965452 -62.747692 -41.611046 -117.59042 -41.461613 -119.31581 -22.70018 -9.9618454
14030000000 -27.418459 -68.099312 -40.978775 -147.64212 -40.93399 -149.53085 -22.829557 -10.654675
14040000000 -27.320601 -76.997574 -41.643108 -178.16646 -41.515217 -179.10362 -22.979256 -10.389733
14050000000 -27.40629 -84.400681 -42.04697 160.03868 -41.957733 159.19022 -23.066692 -9.8662472
14060000000 -28.422499 -97.717781 -41.589687 137.89159 -41.500999 136.41765 -23.225599 -9.4493675
14070000000 -30.283773 -99.86277 -40.970276 110.15855 -40.925705 108.44822 -23.409569 -9.8613424
14080000000 -30.847151 -111.04671 -41.166733 81.019432 -41.209282 79.277603 -23.491695 -10.27909
14090000000 -33.321457 -102.12695 -41.336105 57.465675 -41.320797 55.384502 -23.564409 -12.805541
14100000000 -31.560486 -106.84984 -41.449291 29.658567 -41.358326 27.537775 -23.833599 -11.939307
14110000000 -30.98053 -99.111824 -41.685932 6.2858596 -41.706078 4.6639118 -23.738729 -9.7066412
14120000000 -28.16955 -107.68766 -41.353947 -17.179438 -41.416023 -18.71991 -23.89493 -7.4912629
14130000000 -27.371931 -119.56635 -41.067425 -42.23473 -41.028767 -43.512077 -24.288723 -7.0593987
14140000000 -26.432064 -128.06046 -40.619026 -73.01342 -40.658829 -75.147141 -25.136354 -7.4135499
14150000000 -26.764723 -140.31818 -41.252335 -100.57899 -41.255451 -101.51164 -26.099844 -11.249269
14160000000 -27.167921 -147.38385 -41.530205 -126.00475 -41.669827 -127.79997 -27.069715 -14.252407
14170000000 -28.84152 -155.14642 -41.609875 -152.09807 -41.605793 -153.09079 -27.262665 -15.50568
14180000000 -29.831526 -150.74709 -41.920704 -176.72876 -42.000431 -179.15158 -27.713894 -17.059479
14190000000 -30.260996 -150.32672 -41.650101 156.94405 -41.855751 156.17297 -28.79425 -15.004421
14200000000 -29.488775 -141.20723 -41.922256 131.37643 -41.902184 130.48077 -31.409616 -11.211849
14210000000 -27.828573 -145.25345 -41.933823 101.55466 -42.012173 100.67098 -35.955925 1.4587961
14220000000 -26.705868 -150.05159 -42.160885 77.834381 -42.251511 76.150894 -42.435505 45.197727
14230000000 -26.092224 -161.38362 -42.236168 49.487442 -42.202389 49.273216 -38.996223 107.33012
14240000000 -26.227766 -165.03172 -42.211159 21.225952 -42.264008 20.17593 -34.29007 118.75147
14250000000 -25.912859 -172.87755 -42.955906 -8.3807545 -42.903118 -8.4642754 -30.750088 122.55952
14260000000 -27.351633 -178.86203 -43.16666 -29.448965 -43.17075 -31.978745 -27.764267 123.95235
14270000000 -27.923126 -175.22365 -42.845039 -57.553913 -42.788761 -58.399395 -25.043655 123.24235
14280000000 -28.632599 -176.56096 -43.034794 -88.645531 -42.990826 -89.670197 -23.339874 120.95231
14290000000 -28.376581 -168.24908 -43.616543 -112.81097 -43.593708 -113.68246 -22.162996 118.76526
14300000000 -28.134623 -172.42267 -43.457188 -142.81096 -43.371784 -143.98055 -21.273073 115.40887
14310000000 -27.224005 -169.58205 -43.532875 -170.54736 -43.602646 -170.71729 -20.293592 111.427
14320000000 -26.667311 -178.77071 -43.991329 164.07877 -43.823299 163.49219 -19.21792 106.05899
14330000000 -26.442339 178.918 -43.664856 135.72076 -43.625561 134.39435 -18.245218 101.54686
14340000000 -26.564116 170.68698 -43.758858 108.48173 -43.68903 106.38566 -17.315598 98.498917
14350000000 -26.952726 172.69446 -43.483707 77.912575 -43.631039 77.498566 -16.477993 96.504761
14360000000 -27.518873 164.8212 -43.681217 49.141285 -43.490585 47.455433 -15.774349 94.43927
14370000000 -28.527708 172.78873 -43.420506 19.490587 -43.525696 18.930216 -15.311185 91.801369
14380000000 -28.393396 171.67097 -44.206593 -12.162553 -44.093056 -12.496069 -14.997547 89.289185
14390000000 -28.512564 -179.89919 -44.652714 -33.687004 -44.57354 -36.323395 -14.711494 86.027718
14400000000 -27.547899 176.60986 -44.539024 -60.718864 -44.376423 -61.985977 -14.408078 82.57048
14410000000 -27.557039 176.63057 -43.879665 -86.074532 -43.953743 -87.504005 -14.037879 79.103844
14420000000 -26.632391 170.82317 -43.629223 -115.43748 -43.78429 -117.7163 -13.634302 75.440178
14430000000 -26.716635 165.15726 -43.479404 -142.72331 -43.447739 -146.58156 -13.384717 72.619637
14440000000 -27.546978 162.47113 -43.322376 -175.22208 -43.749573 -178.8136 -13.145961 70.131386
14450000000 -27.967379 165.56795 -43.975159 156.7364 -44.325161 153.89392 -12.963367 67.514771
14460000000 -28.515799 170.87851 -44.329834 128.54083 -44.76675 126.41184 -12.863949 64.816757
14470000000 -27.653255 175.20282 -44.649506 107.00819 -44.712894 106.49924 -12.762132 62.673611
14480000000 -27.428278 -178.4518 -44.357491 77.46051 -44.301819 73.82618 -12.693699 61.170029
14490000000 -26.487995 177.14201 -45.098217 48.492214 -45.391285 43.853199 -12.625484 59.808544
14500000000 -26.406734 -179.92946 -45.621445 28.035093 -46.420616 25.839916 -12.68634 57.912575
14510000000 -25.725527 172.95827 -44.644886 -0.029662641 -45.16201 0.87393117 -12.923968 56.470722
14520000000 -26.663687 174.10732 -45.457157 -34.007244 -45.516045 -31.891888 -13.025669 54.729256
14530000000 -26.02083 167.9744 -46.670914 -61.771297 -46.59985 -64.324028 -13.02053 52.778152
14540000000 -27.334162 174.21951 -48.233307 -78.239517 -48.726372 -83.656837 -12.904942 51.16296
14550000000 -26.257483 173.32048 -47.904274 -101.68026 -48.446236 -102.74896 -12.742152 50.171307
14560000000 -26.550234 179.05617 -48.168682 -126.01132 -48.477295 -125.06463 -12.620355 49.800972
14570000000 -24.9132 178.27826 -49.203064 -161.92711 -49.18652 -159.67094 -12.610335 49.751408
14580000000 -24.675514 179.62717 -52.372017 177.61046 -52.859642 -179.78787 -12.604273 49.58799
14590000000 -23.725222 174.62903 -53.1824 157.69847 -53.683697 162.71559 -12.657869 49.157635
14600000000 -23.696579 173.9751 -56.050499 152.61194 -55.138359 159.78937 -12.573125 48.694118
14610000000 -23.371969 168.30081 -55.251217 147.87851 -54.013866 151.33214 -12.494396 47.749153
14620000000 -24.267986 168.74695 -53.617271 127.48096 -52.881844 127.58576 -12.415757 47.096035
14630000000 -23.948851 168.13391 -54.797092 104.89713 -54.003727 106.07568 -12.395709 46.162868
14640000000 -24.335463 171.345 -58.547638 90.315376 -57.256615 80.775719 -12.393273 45.205822
14650000000 -23.712305 173.67163 -55.174686 101.67088 -55.758442 102.51841 -12.362101 43.811779
14660000000 -22.755911 174.53775 -55.372372 87.225594 -54.125217 84.140488 -12.21717 42.628387
14670000000 -22.036873 171.12769 -51.835033 83.675369 -51.379223 76.401711 -11.953025 40.806553
14680000000 -21.238651 166.40417 -48.572449 57.72324 -48.624489 51.571281 -11.780057 39.166103
14690000000 -21.470938 161.26247 -46.651096 25.323326 -47.344337 20.35113 -11.71314 38.102421
14700000000 -21.397886 158.68907 -47.037899 -6.6355686 -47.231773 -8.0679102 -11.703499 37.651115
14710000000 -22.052471 155.62703 -47.451015 -28.511387 -47.313255 -30.727711 -11.694639 37.127235
14720000000 -22.353899 158.20914 -47.483528 -36.933369 -47.442017 -38.850548 -11.767577 35.927212
14730000000 -22.467199 160.9355 -44.497444 -58.301716 -44.591187 -62.453037 -11.880722 34.477623
14740000000 -21.502375 162.20872 -43.361763 -86.846115 -43.689632 -89.496101 -12.026199 32.688328
14750000000 -21.186672 159.7614 -42.504288 -117.28129 -42.648544 -117.89247 -12.170575 30.486324
14760000000 -20.101545 156.94916 -42.847412 -144.32828 -42.766293 -146.2317 -12.309748 28.535097
14770000000 -20.164957 148.81287 -42.857399 -167.41301 -42.916607 -169.80376 -12.328895 26.894215
14780000000 -20.096527 145.61972 -42.379139 173.96997 -42.414921 173.5304 -12.371861 25.655529
14790000000 -20.577038 141.73683 -41.265759 150.43684 -41.010956 148.64943 -12.446912 25.422306
14800000000 -20.767677 141.98747 -40.479473 123.83338 -40.562145 121.21376 -12.508722 25.328787
14810000000 -21.251097 142.31097 -40.358967 95.698349 -40.548653 94.703796 -12.644156 24.667589
14820000000 -20.974749 146.25578 -40.59763 71.639145 -40.526798 70.072914 -12.92309 23.942217
14830000000 -20.693705 146.42526 -40.308342 49.764198 -40.301872 47.725296 -13.154661 23.982155
14840000000 -19.971804 144.60814 -39.797382 25.767673 -39.825981 24.301878 -13.293903 24.087271
14850000000 -20.017471 138.83624 -39.76807 0.43349457 -39.811539 -1.1655749 -13.44303 23.873981
14860000000 -19.956022 135.81134 -39.124142 -23.249044 -39.212124 -24.002508 -13.74566 23.818676
14870000000 -20.292448 129.43948 -38.958466 -49.820827 -38.911819 -51.283234 -14.083571 23.843071
14880000000 -20.693827 126.48351 -39.225052 -76.131554 -39.199623 -77.808601 -14.269299 23.192957
14890000000 -21.232277 125.73643 -39.320797 -96.58416 -39.398205 -98.263069 -14.368704 21.494179
14900000000 -21.281576 125.20435 -38.763382 -119.24173 -38.774727 -120.26414 -14.328185 21.125994
14910000000 -21.452509 128.12097 -38.604385 -144.8929 -38.518768 -145.81216 -14.155398 21.550554
14920000000 -20.93614 127.25876 -38.4062 -169.56813 -38.465126 -169.88657 -14.16307 23.088291
14930000000 -20.769144 127.91737 -38.338547 164.61484 -38.316696 163.72408 -14.291265 25.477978
14940000000 -20.386908 123.57984 -38.48085 138.58313 -38.270779 137.86852 -14.533292 27.354588
14950000000 -20.698011 122.30832 -38.929626 115.99677 -38.829212 114.27479 -14.880939 28.229427
14960000000 -20.765368 117.74142 -38.660351 96.210571 -38.54213 94.530701 -15.128345 28.905655
14970000000 -21.590221 115.96342 -38.055691 70.331161 -38.03315 68.60083 -15.187581 29.35557
14980000000 -22.235794 111.39889 -38.160259 41.86763 -38.08284 40.520027 -15.208382 29.594965
14990000000 -23.363091 116.89748 -38.659943 18.135813 -38.488586 16.250473 -15.365273 30.447433
15000000000 -23.042387 116.68466 -38.477749 -3.5387866 -38.535107 -5.2613754 -15.535201 32.246468
15010000000 -23.375555 119.74956 -38.481216 -29.591583 -38.398968 -30.977667 -15.46559 32.95269
15020000000 -22.645493 118.59268 -38.48325 -55.48455 -38.498028 -57.198959 -15.369879 32.120594
15030000000 -22.6714 117.90388 -39.012093 -79.426628 -39.104919 -80.773415 -15.129675 32.636574
15040000000 -22.183886 113.04666 -39.157806 -101.48993 -39.093029 -102.14841 -14.643837 33.914288
15050000000 -22.880133 110.4854 -39.12067 -123.48898 -39.072659 -125.81288 -14.297228 35.183838
15060000000 -23.305603 108.69359 -38.948406 -148.30052 -38.993198 -149.75925 -14.259748 37.58699
15070000000 -24.540983 109.92069 -38.911545 -174.29085 -38.880676 -175.53316 -14.247444 40.087219
15080000000 -25.137697 116.71758 -39.020145 157.36836 -38.887756 156.69408 -14.247131 40.519974
15090000000 -24.999342 122.73752 -39.679638 131.52173 -39.61414 129.31273 -14.31699 39.5336
15100000000 -24.510345 125.49127 -40.279758 107.18434 -40.30492 105.83519 -14.313384 38.520584
15110000000 -24.414787 123.90432 -41.078655 85.371666 -40.836411 83.47316 -14.124417 37.480911
15120000000 -24.036873 124.65112 -40.669296 63.757195 -40.866001 61.819809 -13.936897 36.351406
15130000000 -23.740643 118.36583 -40.796196 37.436104 -40.80925 36.953003 -13.82606 35.738617
15140000000 -24.541027 116.87609 -41.366348 11.739696 -41.301571 10.509595 -13.650179 35.283482
15150000000 -24.804798 117.38326 -41.674789 -11.60516 -41.537346 -13.415309 -13.419604 34.302036
15160000000 -25.316469 120.86889 -41.727352 -39.558002 -41.614174 -41.168995 -13.306861 33.459106
15170000000 -25.083029 125.02837 -42.488632 -67.492012 -42.405319 -69.080696 -13.207477 33.728886
15180000000 -24.655167 128.66333 -43.248402 -93.984917 -43.347252 -94.54348 -13.115022 33.998589
15190000000 -23.932751 130.65791 -44.303177 -121.40298 -44.120716 -123.25045 -13.212616 33.697311
15200000000 -23.645006 129.35522 -46.211403 -144.85497 -46.220341 -144.86685 -13.419784 33.700489
15210000000 -22.986185 127.88268 -47.101768 -163.56555 -46.699875 -167.0437 -13.537583 32.896141
15220000000 -23.176743 125.7998 -47.003983 168.95647 -47.125664 166.23534 -13.737243 30.998562
15230000000 -23.0798 122.66204 -48.367958 142.11337 -48.683861 139.53342 -13.960184 29.756771
15240000000 -23.589884 121.59794 -49.778954 110.08889 -49.832115 109.27341 -14.030768 28.982552
15250000000 -23.751694 120.92849 -52.684429 86.332985 -52.523117 83.209679 -13.976285 27.810686
15260000000 -24.032623 121.79072 -54.428864 66.524429 -54.711021 64.775406 -13.967771 26.766941
15270000000 -24.038256 124.95155 -55.414623 27.523642 -55.460911 25.658436 -13.987297 27.238287
15280000000 -23.287558 125.18694 -59.5117 -39.729092 -57.873119 -43.753677 -13.847815 28.849964
15290000000 -22.892742 125.18943 -63.945221 -130.37848 -60.837673 -138.49274 -13.829185 29.92478
15300000000 -22.02813 121.27192 -58.902748 170.84813 -58.012226 161.69446 -14.050632 31.449614
15310000000 -22.055231 116.56468 -56.623936 119.95391 -56.667294 121.78624 -14.258754 33.15889
15320000000 -21.962561 111.16926 -54.853973 108.44325 -54.186504 114.12403 -14.441304 33.08844
15330000000 -22.896646 107.73126 -52.116554 72.292465 -51.117882 68.898376 -14.751656 32.694405
15340000000 -23.384306 106.10734 -51.468193 53.673443 -51.973618 49.87373 -14.785879 33.261944
15350000000 -24.650387 110.41009 -49.868629 32.316029 -49.967495 31.543976 -14.635287 33.032364
15360000000 -24.104853 113.07093 -48.012039 8.9350119 -47.725677 10.096649 -14.618158 32.739674
15370000000 -24.287964 118.2111 -46.25219 -18.09796 -45.887424 -20.077879 -14.6408 32.977631
15380000000 -22.580254 114.92688 -44.782406 -53.861309 -44.479347 -54.533443 -14.581071 32.950359
15390000000 -22.724985 107.2583 -45.79179 -84.636803 -45.40453 -86.640915 -14.416495 32.523838
15400000000 -22.459183 99.859665 -45.746498 -101.92497 -45.547367 -105.23338 -14.192654 32.66399
15410000000 -23.437613 91.831573 -44.518063 -123.97785 -44.763386 -126.60111 -13.963098 33.848969
15420000000 -24.428377 88.36882 -43.862206 -148.30739 -43.778099 -152.07986 -13.758591 35.259781
15430000000 -25.968681 89.282631 -43.049923 -177.0182 -43.155689 -178.97984 -13.855172 36.193409
15440000000 -26.654907 95.138664 -43.109264 154.23566 -43.007217 151.85468 -14.136334 37.084145
15450000000 -26.885868 101.73009 -43.234383 130.55293 -43.270939 127.99482 -14.333988 36.275108
15460000000 -25.88809 102.37298 -42.803257 107.92299 -42.873627 104.48428 -14.556533 34.255318
15470000000 -25.735899 99.905281 -42.382622 82.513374 -42.606815 80.451241 -14.55771 33.032726
15480000000 -25.327412 91.939522 -41.767952 56.77837 -41.904179 54.894516 -14.362236 32.13242
15490000000 -26.296227 84.017601 -41.573818 28.302557 -41.622265 26.442738 -14.214775 31.466488
15500000000 -27.166086 76.611382 -41.879238 0.63145792 -41.955734 -1.5974852 -14.250541 31.567602
15510000000 -28.84288 72.198006 -42.065067 -24.593325 -42.258888 -26.38892 -14.240055 32.603855
15520000000 -30.634424 67.042694 -42.164757 -50.991684 -42.200054 -53.099983 -14.213076 32.850552
15530000000 -33.051739 80.15451 -42.524166 -72.248306 -42.811264 -74.834938 -14.18921 33.676334
15540000000 -33.635509 79.475479 -42.210869 -95.553627 -42.447582 -96.807289 -14.185781 35.036621
15550000000 -33.981754 102.74944 -42.150368 -121.96546 -42.334648 -122.74628 -14.189772 36.46146
15560000000 -33.298004 92.969185 -42.072678 -148.24864 -42.153008 -148.76616 -14.304297 37.344036
15570000000 -33.597519 100.264 -41.599548 -173.06102 -41.906746 -174.71129 -14.5653 38.070782
15580000000 -34.190235 78.974663 -42.130775 156.07794 -42.221935 156.28935 -14.718976 38.433899
15590000000 -36.961971 79.023727 -42.32761 129.51056 -42.311306 129.59428 -14.799439 37.481689
15600000000 -39.525597 37.26297 -43.484146 105.33793 -43.552467 104.15796 -14.817761 36.307987
15610000000 -49.001965 -55.376141 -43.282646 83.405617 -43.256664 82.97361 -14.729342 35.401985
15620000000 -41.312065 -83.642883 -43.635792 56.654987 -43.770046 55.29982 -14.532653 34.891033
15630000000 -35.127056 -131.31223 -43.922062 33.946671 -43.961426 34.26178 -14.322291 35.069366
15640000000 -35.667862 -144.33826 -43.744183 11.659715 -43.781578 12.113568 -14.117783 36.28896
15650000000 -33.413044 -156.90775 -43.690216 -15.342941 -43.523235 -15.594736 -13.922976 37.395367
15660000000 -35.564034 -169.93419 -43.743965 -40.895634 -43.603168 -40.888023 -13.971334 38.081905
15670000000 -35.857819 -161.59734 -44.275707 -72.94664 -44.425274 -74.185455 -14.163714 38.944836
15680000000 -37.041389 -134.77187 -45.071583 -93.488533 -44.975006 -91.980583 -14.363029 39.39875
15690000000 -32.530888 -127.47999 -45.200382 -116.37399 -44.905968 -115.69695 -14.486194 39.24736
15700000000 -29.851658 -126.71996 -44.809631 -141.00665 -44.693436 -142.18419 -14.557262 38.677719
15710000000 -27.567444 -132.18814 -45.145451 -170.3376 -44.958347 -171.40434 -14.575546 38.363297
15720000000 -26.193186 -142.71432 -45.873257 163.47548 -45.786106 163.76414 -14.609208 38.233185
15730000000 -26.139065 -149.53494 -46.934555 141.83839 -46.578331 142.11394 -14.683146 38.015617
15740000000 -26.303083 -154.28363 -45.886269 124.52712 -45.831242 123.24686 -14.73258 37.891659
15750000000 -27.034651 -156.21812 -45.105949 95.560837 -45.111 93.389618 -14.606164 37.902481
15760000000 -27.265663 -150.09541 -45.452976 63.307808 -45.296165 61.488266 -14.338571 38.383839
15770000000 -26.866556 -145.1454 -45.985519 37.309002 -45.864922 35.848156 -13.995388 40.019379
15780000000 -25.580248 -142.10199 -46.684052 9.5250902 -46.397449 7.6790709 -13.742105 42.215878
15790000000 -24.558495 -144.2475 -47.35622 -11.58103 -47.136669 -13.227437 -13.704823 44.714485
15800000000 -23.535376 -147.27888 -46.973488 -34.995121 -46.934822 -37.317307 -13.837765 46.54266
15810000000 -22.989351 -152.55327 -47.227394 -59.773403 -47.249256 -62.706562 -14.072854 47.199368
15820000000 -22.812252 -155.24014 -47.019917 -85.325363 -46.990776 -87.589287 -14.172662 46.55883
15830000000 -22.876654 -158.20229 -47.217476 -111.41957 -47.416634 -114.49464 -14.120545 44.817268
15840000000 -23.136215 -156.19814 -47.058075 -133.97966 -46.99968 -135.24977 -13.899384 43.227089
15850000000 -22.919273 -155.83781 -47.072414 -164.49168 -46.980698 -165.79747 -13.619359 42.121288
15860000000 -22.931955 -151.79079 -47.303219 173.03957 -47.051025 167.98746 -13.333255 41.6712
15870000000 -22.31941 -153.11993 -47.363514 144.16811 -47.738968 140.29988 -13.057993 41.480305
15880000000 -22.260214 -150.2713 -48.01041 122.59079 -47.97752 120.73776 -12.7855 41.448689
15890000000 -21.336063 -151.8792 -47.195038 97.771233 -47.290768 94.601715 -12.509952 41.515217
15900000000 -21.189785 -154.70969 -47.453308 69.413361 -47.906563 66.141899 -12.267904 41.55772
15910000000 -20.796749 -157.06416 -48.837376 42.440338 -48.937084 42.397541 -12.148654 41.724606
15920000000 -20.754452 -159.23929 -48.912918 28.379288 -49.183582 28.501513 -12.090509 41.735638
15930000000 -20.669655 -160.16701 -48.01466 10.26207 -48.105164 9.613513 -12.127275 41.204201
15940000000 -20.909651 -159.16658 -46.298138 -18.715633 -46.201561 -19.249735 -12.219254 40.090416
15950000000 -20.511337 -155.95702 -46.492973 -53.042831 -46.42017 -54.760632 -12.276306 38.210983
15960000000 -20.32884 -154.6738 -47.771374 -82.031471 -47.830338 -82.724846 -12.26641 35.573044
15970000000 -19.524195 -151.75783 -48.470337 -97.179703 -48.621067 -98.24427 -12.216476 32.708839
15980000000 -19.136003 -153.89214 -47.352917 -117.20615 -47.447857 -118.81828 -12.060439 30.343931
15990000000 -18.643665 -154.0295 -47.477203 -142.60464 -47.500481 -144.29288 -11.820698 28.748915
16000000000 -18.728563 -158.24776 -47.10955 -169.88097 -46.96386 -169.6924 -11.600261 27.854645
16010000000 -18.67919 -156.76035 -47.438995 170.49223 -47.477924 168.49422 -11.512336 27.67329
16020000000 -18.742056 -158.26866 -46.888145 146.60939 -47.010208 146.47485 -11.553473 27.668941
16030000000 -18.473629 -155.12259 -45.878883 124.01245 -45.983242 122.49962 -11.70485 26.947807
16040000000 -18.075615 -155.55284 -46.048798 92.584007 -45.933979 92.406136 -11.952296 25.169378
16050000000 -17.460932 -154.4426 -46.338646 66.427391 -46.103127 65.497879 -12.249217 22.597088
16060000000 -16.986944 -156.51291 -46.414806 39.412861 -46.362877 37.535713 -12.46922 20.335472
16070000000 -16.638695 -156.9447 -47.364304 20.381464 -47.307434 18.837395 -12.561447 18.058666
16080000000 -16.45598 -158.48134 -46.936218 -2.4892437 -46.786854 -2.1738532 -12.706377 15.637932
16090000000 -16.238239 -157.30002 -46.536663 -26.541775 -46.417137 -29.961838 -12.878548 13.17025
16100000000 -16.038422 -158.50343 -46.949215 -53.43486 -46.848976 -55.648224 -13.045461 10.885102
16110000000 -15.82589 -157.24663 -46.919209 -77.205734 -46.831944 -77.954849 -13.118278 9.3155956
16120000000 -15.43006 -158.26801 -46.923828 -98.642624 -46.801109 -100.20269 -13.088642 8.8704576
16130000000 -15.080487 -158.95302 -46.633728 -127.97083 -46.580433 -130.8755 -13.11749 9.3966599
16140000000 -14.898478 -160.03365 -47.516701 -153.71846 -47.394344 -157.18466 -13.350003 10.802381
16150000000 -14.507246 -161.1653 -48.140953 -177.90747 -48.146767 -179.28424 -13.790436 11.922385
16160000000 -14.283706 -162.22543 -48.662033 160.22208 -48.809277 158.00919 -14.384599 11.644618
16170000000 -13.913657 -162.85693 -49.468491 138.77428 -49.294109 138.56276 -14.992248 9.8349771
16180000000 -13.647922 -163.49947 -49.215858 118.42816 -49.241096 117.6371 -15.40848 6.9012122
16190000000 -13.285225 -164.19438 -49.597675 96.46299 -49.463036 94.435944 -15.628053 4.365859
16200000000 -13.099818 -164.8139 -50.134502 75.058319 -49.944725 72.714149 -15.709848 2.6926932
16210000000 -12.731908 -165.71402 -49.912102 54.28833 -50.07534 51.145519 -15.835002 1.9330651
16220000000 -12.68714 -166.32988 -49.757385 32.829617 -49.772495 30.081404 -15.953152 1.7381397
16230000000 -12.302833 -167.40919 -49.159054 2.7648067 -49.29483 0.33075497 -16.043207 1.6303121
16240000000 -12.252767 -168.16389 -51.995407 -34.088989 -52.06559 -35.32737 -16.045044 1.6946306
16250000000 -11.939375 -169.65952 -55.171829 -30.866512 -54.959309 -28.310593 -16.114511 2.7158632
16260000000 -11.823089 -170.76799 -53.772423 -35.105549 -53.30674 -39.234142 -16.339922 4.7531343
16270000000 -11.464853 -172.07655 -51.204971 -62.373959 -51.413033 -65.6241 -16.734978 7.3939657
16280000000 -11.316874 -173.59979 -53.219143 -91.307457 -52.758736 -90.891647 -17.248787 8.9858904
16290000000 -10.950472 -174.52156 -52.478657 -108.11349 -51.882362 -109.84594 -17.815714 8.1000156
16300000000 -10.784589 -176.13429 -53.846592 -129.24118 -53.122711 -134.06439 -18.350859 4.8278637
16310000000 -10.514761 -176.81929 -54.205673 -139.55862 -54.578838 -143.26602 -18.632725 0.87189656
16320000000 -10.375139 -178.06471 -52.91906 -153.45921 -52.704426 -157.05959 -18.753189 -2.3291099
16330000000 -10.146211 -178.78168 -52.641899 -178.25589 -52.81419 177.14233 -18.775549 -4.0063553
16340000000 -10.107428 -179.93098 -52.562199 161.65996 -52.739021 160.87646 -18.745646 -5.1510229
16350000000 -9.8809271 179.96877 -53.06678 150.67177 -52.849258 145.64421 -18.718697 -5.7805467
16360000000 -9.7090101 178.36433 -51.084221 136.40889 -51.328442 133.65082 -18.828136 -6.271915
16370000000 -9.5154524 177.43932 -49.643326 104.53725 -49.78611 104.53111 -19.148605 -5.2547746
16380000000 -9.3035965 175.48814 -49.526535 86.121468 -49.296963 83.718796 -19.718945 -3.7647474
16390000000 -9.1378975 173.82776 -49.339417 61.554211 -49.094109 60.632458 -20.653828 -2.9772239
16400000000 -9.0186796 172.17912 -48.629326 40.385529 -48.722462 36.456089 -21.80002 -4.9902
16410000000 -8.8876228 171.17509 -48.554447 17.156528 -48.42424 14.787827 -23.037834 -10.66958
16420000000 -8.7510557 170.16612 -47.701191 -6.1927838 -48.041389 -8.4848585 -24.07814 -17.811335
16430000000 -8.6039991 169.86195 -47.853333 -29.77216 -47.77956 -31.180712 -24.748018 -22.669353
16440000000 -8.3775406 169.41679 -47.24044 -52.256832 -47.23555 -54.241642 -25.498955 -25.586853
16450000000 -8.1694651 168.39035 -46.87714 -76.978058 -46.964844 -78.006813 -26.499634 -27.433466
16460000000 -7.9996443 167.35454 -46.316006 -99.978928 -46.349979 -102.79821 -27.87945 -29.24486
16470000000 -7.8625941 165.9622 -46.003574 -127.53458 -46.081318 -129.29443 -29.398277 -29.971592
16480000000 -7.762197 164.54691 -46.443401 -154.84265 -46.630447 -155.27104 -30.823847 -24.425945
16490000000 -7.6861663 163.05157 -46.362648 -174.65091 -46.391209 -176.7301 -32.295879 -7.8194323
16500000000 -7.6369977 162.1275 -46.766163 157.90561 -46.842304 155.71219 -33.494171 23.004749
16510000000 -7.5068688 160.91666 -46.566074 136.8916 -46.941032 137.21721 -32.368031 61.022747
16520000000 -7.3879905 160.60683 -46.879646 112.95545 -46.957397 113.47773 -30.891745 88.290398
16530000000 -7.1305933 159.56354 -46.569004 92.946304 -46.442844 92.231247 -30.197824 106.14719
16540000000 -6.9832644 158.84537 -46.205509 65.464012 -46.235378 63.612778 -30.219801 118.00578
16550000000 -6.734623 157.77835 -46.124901 38.73494 -46.348133 38.062126 -30.341501 119.86774
16560000000 -6.6051044 156.57768 -46.701553 11.753919 -46.710987 11.410179 -30.062742 112.94913
16570000000 -6.4807882 155.33017 -47.314705 -12.414818 -47.640072 -13.528328 -29.041162 105.97577
16580000000 -6.4388075 154.43239 -47.841553 -32.590298 -47.566853 -32.400982 -27.900908 103.26352
16590000000 -6.329689 153.5041 -47.812393 -55.260406 -47.555344 -56.432007 -27.012733 103.4659
16600000000 -6.2652211 152.70415 -47.848412 -79.111046 -47.834263 -80.050125 -26.404295 104.17283
16610000000 -6.0982652 151.8756 -48.306301 -104.29342 -48.305752 -104.1852 -25.569929 103.96812
16620000000 -5.9342256 150.88654 -47.980885 -123.88574 -47.911583 -124.97525 -24.370804 103.69118
16630000000 -5.7067499 149.64349 -48.033398 -151.28677 -47.818752 -153.89043 -23.045666 104.36868
16640000000 -5.5432858 148.28688 -49.031254 -175.81715 -48.894844 -177.25125 -21.973732 108.47411
16650000000 -5.3515186 146.97273 -48.93084 160.59587 -48.819275 159.00957 -21.177479 112.99674
16660000000 -5.2516322 145.82272 -49.463055 134.22272 -49.296162 131.57895 -20.892742 117.46476
16670000000 -5.0846972 145.08995 -49.972397 109.25418 -50.158054 106.52609 -20.808632 119.50214
16680000000 -4.9662409 143.96552 -50.955402 87.62719 -50.881104 86.157677 -20.787163 118.06377
16690000000 -4.8124127 143.36992 -50.810486 65.468391 -51.039749 65.371811 -20.578428 113.68751
16700000000 -4.6696157 142.17683 -50.342716 43.041264 -50.394108 37.832291 -20.122578 109.244
16710000000 -4.5098028 141.16264 -51.189907 6.4347715 -51.343071 6.29002 -19.320379 106.02493
16720000000 -4.3662348 139.75858 -52.731411 -14.260595 -52.489037 -14.489895 -18.536249 103.79626
16730000000 -4.2045264 138.42999 -52.955711 -40.426453 -52.93903 -40.452705 -17.855331 102.26737
16740000000 -4.0793614 136.91907 -54.023651 -61.845764 -53.792297 -63.53944 -17.320669 100.99486
16750000000 -3.9278507 135.74237 -53.407795 -86.988373 -53.594688 -89.595238 -16.882168 100.09251
16760000000 -3.7680001 134.32097 -54.703217 -121.64299 -54.568722 -120.87815 -16.608543 99.258545
16770000000 -3.6317456 133.03635 -54.931763 -148.11336 -54.714214 -148.61937 -16.509857 98.74044
16780000000 -3.4994178 131.84624 -57.084461 -176.94917 -57.014099 -175.00862 -16.502104 97.82653
16790000000 -3.3558919 130.62318 -56.856022 162.11526 -57.239708 159.39278 -16.612482 95.833786
16800000000 -3.2439532 129.34818 -56.946651 126.10274 -57.327076 127.54396 -16.813261 92.316147
16810000000 -3.1065295 128.08032 -57.368683 91.558502 -57.51186 87.67981 -17.070339 88.145912
16820000000 -2.988833 126.62328 -60.613487 48.354485 -60.351032 60.18433 -17.225101 84.080673
16830000000 -2.8474791 125.01467 -59.173973 41.457748 -58.385052 39.276836 -17.14669 79.751923
16840000000 -2.7445633 123.41396 -58.058254 -4.6268516 -58.166256 -6.9511561 -16.964281 75.953964
16850000000 -2.6095374 121.80769 -57.721786 -34.420563 -57.773869 -35.774052 -16.783091 73.666878
16860000000 -2.5157051 120.27525 -56.847694 -71.466476 -56.441093 -69.429611 -16.618439 73.004089
16870000000 -2.3823049 118.83853 -56.17622 -100.31901 -56.367348 -101.36958 -16.62673 73.998985
16880000000 -2.281106 117.47922 -55.239986 -132.93228 -55.01881 -135.26588 -16.853596 75.434082
16890000000 -2.1471994 116.15883 -55.13147 -164.59799 -54.783981 -167.02118 -17.466221 77.031425
16900000000 -2.0488722 114.86624 -54.482162 165.47484 -54.444725 162.69948 -18.204329 77.960609
16910000000 -1.9308348 113.37196 -54.294971 144.94991 -54.395317 141.63602 -19.047928 77.757217
16920000000 -1.8612083 111.97913 -53.089512 119.11443 -53.067631 117.3811 -19.811306 76.546463
16930000000 -1.7609435 110.39999 -51.459705 91.622139 -51.731537 91.083534 -20.339809 75.632401
16940000000 -1.7006866 108.80847 -50.79969 57.178955 -50.76247 54.554764 -20.662516 75.064377
16950000000 -1.6007191 107.16014 -50.767223 31.029306 -50.945499 27.877035 -20.854982 77.172165
16960000000 -1.5277975 105.48607 -50.44569 3.9667499 -50.406605 2.2058387 -20.669369 80.301208
16970000000 -1.4310255 103.84959 -50.443012 -22.307636 -50.374786 -22.581049 -20.376234 83.998291
16980000000 -1.3588051 102.25123 -49.86232 -47.115265 -49.917019 -49.355988 -19.95751 88.367722
16990000000 -1.2582902 100.72975 -50.050297 -74.078224 -49.942703 -75.172508 -19.387487 93.573334
17000000000 -1.1826357 99.252632 -49.542397 -97.507355 -49.455818 -99.035507 -18.789755 98.211693
