!Keysight Technologies,P9374A,MY57211807,A.19.30.04
!Date: Friday, May 08, 2026 14:12:01
!Correction: S11(C  2-Port  ) 
!S21(C  2-Port  ) 
!S12(C  2-Port  ) 
!S22(C  2-Port  ) 
!S2P File: Measurements: S11, S21, S12, S22:
# Hz S  dB   R 50
13000000000 -18.668552 60.058292 -45.121506 -124.37612 -45.682865 -125.39329 -9.3616037 22.73473
13010000000 -18.654858 58.608456 -44.400734 -140.03212 -44.292248 -139.75597 -9.3930779 18.362017
13020000000 -19.134853 57.82156 -42.805088 -159.6306 -42.929356 -158.72372 -9.4680014 13.949914
13030000000 -19.558376 58.648964 -41.474911 171.1945 -41.514137 171.56966 -9.6093092 9.5316038
13040000000 -20.100723 60.450241 -42.086086 143.39796 -42.092136 145.47716 -9.8086643 5.7286048
13050000000 -20.232464 64.305588 -42.699959 124.88064 -42.280182 124.87119 -10.05147 2.178957
13060000000 -20.02631 66.085083 -42.020943 109.58592 -41.680706 111.39459 -10.362628 -1.5144943
13070000000 -19.646969 64.403481 -40.966251 87.668877 -40.831448 86.41188 -10.75831 -5.6374354
13080000000 -19.647491 62.78474 -40.21999 64.147339 -39.924 64.68512 -11.224769 -10.010263
13090000000 -19.533394 60.656097 -39.598949 38.08638 -39.447613 38.431271 -11.655872 -14.438294
13100000000 -19.773159 60.016579 -39.767662 11.471202 -39.458675 9.2093744 -12.073782 -18.432156
13110000000 -19.835733 60.573936 -39.875229 -11.662012 -39.593369 -13.797867 -12.559273 -21.640278
13120000000 -19.866575 62.080143 -39.997852 -32.374279 -40.061413 -32.41663 -13.091125 -24.571272
13130000000 -19.400702 62.629372 -39.409687 -53.244106 -39.194046 -54.111519 -13.720281 -27.608961
13140000000 -19.502569 62.610325 -38.986973 -77.895554 -38.346264 -79.035103 -14.404217 -31.356884
13150000000 -19.176855 61.004299 -38.826874 -103.18861 -38.591881 -106.63833 -15.117648 -35.133759
13160000000 -19.579967 60.091972 -39.366348 -124.94501 -39.247765 -126.96213 -15.865556 -38.158913
13170000000 -19.578392 59.656193 -38.753174 -145.47148 -38.405941 -148.56146 -16.731239 -40.103611
13180000000 -19.906837 59.684719 -38.462681 -169.6729 -38.31271 -172.58041 -17.73851 -40.857349
13190000000 -19.650743 61.227127 -38.249828 164.5188 -38.306984 161.42676 -18.957964 -42.661938
13200000000 -19.337778 59.270184 -38.232708 139.98283 -37.975285 139.33029 -20.476276 -46.174721
13210000000 -19.02202 57.402344 -38.525295 116.92074 -38.233177 115.34364 -22.074856 -50.717754
13220000000 -18.918236 54.159237 -38.347309 93.458496 -38.41663 90.224274 -23.513582 -55.043968
13230000000 -19.061686 50.792404 -38.858364 69.910805 -38.947067 67.338203 -25.300955 -56.867416
13240000000 -19.672447 50.349628 -38.949493 50.448788 -39.062077 48.744709 -27.600924 -50.86496
13250000000 -19.725889 51.843914 -38.515137 29.762901 -38.805157 27.857548 -30.949678 -37.488251
13260000000 -19.883186 53.573112 -37.762878 5.5414577 -37.911709 3.5656469 -36.103889 -2.8302481
13270000000 -19.496841 54.828499 -37.726124 -22.199532 -37.764542 -23.732681 -35.594002 65.231964
13280000000 -19.153769 52.829929 -37.989769 -47.680725 -38.326385 -50.599308 -30.684181 90.740807
13290000000 -19.053835 48.657555 -38.631699 -72.055595 -39.035294 -73.915703 -27.534447 95.52047
13300000000 -19.160669 44.355011 -38.703117 -92.692467 -38.909775 -93.94136 -25.527411 92.052246
13310000000 -19.8036 41.342308 -38.978382 -113.99371 -39.355328 -114.03003 -23.579985 88.316925
13320000000 -19.952322 41.941204 -38.617588 -136.23424 -39.027061 -136.59851 -21.686567 85.698936
13330000000 -20.101423 39.62085 -38.520626 -159.37251 -38.487457 -159.73764 -20.101686 84.14119
13340000000 -20.23605 42.022453 -38.463097 175.10634 -38.62326 175.62874 -18.938679 83.309837
13350000000 -19.908491 40.183884 -38.246273 150.43915 -38.623825 150.09134 -18.163973 81.396111
13360000000 -19.988951 38.864136 -38.727135 124.32072 -38.917057 126.20786 -17.568209 77.851448
13370000000 -20.191452 36.948425 -39.251133 101.59066 -39.201237 104.30293 -16.97131 72.612419
13380000000 -20.155254 36.296604 -39.252701 80.577515 -39.337784 82.839378 -16.160973 67.686462
13390000000 -20.6668 33.999554 -39.216557 55.949192 -39.121525 56.610909 -15.278686 63.693523
13400000000 -20.547491 35.471439 -39.602932 30.561316 -39.404469 33.190041 -14.429015 61.072239
13410000000 -20.619684 30.652674 -39.831463 8.7391491 -39.829521 10.791487 -13.87632 58.761089
13420000000 -20.836237 29.541187 -40.061977 -14.214441 -39.743824 -12.244466 -13.592699 56.479755
13430000000 -21.109974 23.130075 -39.757999 -36.754997 -39.262859 -34.175194 -13.42266 53.265167
13440000000 -22.035046 22.309761 -39.875111 -63.123207 -39.176418 -62.74231 -13.294599 49.175884
13450000000 -22.33576 24.626247 -40.202618 -89.361954 -39.602909 -89.629662 -13.123847 44.673676
13460000000 -22.425827 26.954863 -40.428711 -112.81115 -39.89246 -113.2449 -12.809417 40.46265
13470000000 -22.343859 27.818859 -40.938271 -137.63313 -40.289955 -136.6671 -12.615198 36.859138
13480000000 -21.562346 28.010458 -41.195057 -161.51456 -40.496269 -163.42342 -12.52704 33.973175
13490000000 -21.733622 20.272718 -41.616196 176.51909 -40.963982 174.5849 -12.535227 31.436602
13500000000 -21.921482 17.479977 -41.385643 151.0399 -40.857704 147.92413 -12.643247 28.70293
13510000000 -22.927769 11.707776 -41.772999 124.87143 -41.199924 120.73149 -12.781884 25.858
13520000000 -23.972338 11.395089 -42.342701 99.137123 -42.267185 95.278564 -12.956244 23.507109
13530000000 -25.215807 13.939101 -42.731792 74.444725 -42.080791 71.285103 -13.098958 21.50988
13540000000 -25.094015 18.986904 -43.209351 50.454803 -42.511032 43.166847 -13.337689 19.726404
13550000000 -24.755604 22.014845 -43.383636 27.502075 -43.395283 17.739304 -13.643407 18.78372
13560000000 -23.55793 19.731819 -43.405922 0.96191293 -43.599255 -5.2138329 -13.947008 17.978319
13570000000 -24.405588 15.076946 -43.711514 -25.576986 -43.683739 -28.946339 -14.157922 17.088621
13580000000 -23.833914 11.796977 -44.116508 -55.831184 -43.683918 -63.975063 -14.368006 15.862239
13590000000 -25.367397 7.5807896 -45.234406 -82.628143 -45.199509 -90.468178 -14.467898 15.682979
13600000000 -25.59886 10.826936 -45.813976 -106.50742 -46.097923 -114.94315 -14.50085 15.747186
13610000000 -26.682804 14.889558 -46.570171 -129.16508 -46.559292 -135.37437 -14.490218 16.95573
13620000000 -26.705788 15.284986 -46.230404 -152.12643 -47.216427 -161.93512 -14.466032 18.138611
13630000000 -27.410732 18.436773 -46.237694 179.36711 -47.949707 177.89145 -14.4114 19.186596
13640000000 -26.912992 17.56587 -46.660023 151.25742 -47.338081 153.76599 -14.400861 19.399305
13650000000 -27.366491 18.941982 -46.822575 129.28714 -46.3535 120.02056 -14.349339 19.408495
13660000000 -26.843658 16.159086 -46.241184 99.319061 -48.008389 90.794647 -14.170567 18.391405
13670000000 -27.478788 17.231709 -46.180443 72.067787 -46.861309 71.670532 -13.903446 17.525309
13680000000 -26.612066 16.066355 -46.39658 41.005695 -47.480629 38.01635 -13.601115 15.915432
13690000000 -26.70565 11.231769 -46.471714 14.359479 -46.866131 13.873839 -13.323342 14.865859
13700000000 -27.693415 10.578303 -46.202797 -14.318344 -46.243649 -11.525826 -13.06481 13.354354
13710000000 -28.263922 16.378969 -46.854355 -40.082291 -47.581554 -40.988571 -12.970954 11.638199
13720000000 -28.384096 16.203022 -45.791191 -62.66148 -45.73436 -60.710751 -12.780008 9.6110725
13730000000 -29.357239 28.546774 -44.924885 -92.271446 -45.371037 -91.394295 -12.652017 6.6143355
13740000000 -27.348431 30.928419 -44.725502 -117.96257 -45.365299 -115.48833 -12.531901 3.6682739
13750000000 -27.246145 25.552235 -43.585033 -146.00992 -43.291981 -147.8497 -12.474993 0.77652454
13760000000 -26.563231 19.140652 -43.247166 -176.974 -43.880096 179.42603 -12.491479 -1.8645198
13770000000 -27.039938 9.9043074 -43.254566 153.83748 -44.229729 154.56364 -12.713987 -4.6073098
13780000000 -27.728117 2.3183913 -43.606136 128.73149 -43.522976 130.03918 -12.91937 -7.6954899
13790000000 -29.114498 2.6805456 -42.940853 109.50282 -42.73457 109.06226 -13.190065 -11.872612
13800000000 -30.082918 4.5847044 -41.703018 83.42189 -41.755032 81.845009 -13.423255 -15.974831
13810000000 -29.141266 19.030819 -40.893433 53.57156 -40.834164 53.115807 -13.604573 -19.769524
13820000000 -27.830229 12.980766 -40.868866 25.334417 -41.169044 24.219023 -13.818511 -22.3671
13830000000 -27.260836 18.123568 -40.745258 -3.9667306 -41.100258 -2.8342838 -14.153145 -24.683115
13840000000 -25.767982 4.6840234 -40.767197 -28.833801 -40.997105 -27.810339 -14.692183 -26.446589
13850000000 -26.932413 -0.41038287 -41.042377 -52.867027 -40.997391 -53.129505 -15.29999 -28.258274
13860000000 -26.677755 -7.7716975 -40.464973 -72.096512 -40.60754 -73.304863 -15.95962 -30.664827
13870000000 -27.975916 -13.378024 -39.404778 -99.014679 -39.606499 -100.42567 -16.627718 -32.907562
13880000000 -29.105637 -17.715563 -39.215649 -129.26094 -39.184921 -128.71892 -17.260798 -34.126366
13890000000 -30.017246 -7.6699824 -39.618916 -153.24294 -39.348862 -152.38869 -17.934341 -34.651432
13900000000 -28.899853 -12.780785 -39.361401 -176.09805 -39.08606 -175.47588 -18.73218 -34.368576
13910000000 -29.415182 -7.9971528 -39.027538 160.27823 -38.838413 158.08614 -19.640913 -33.720623
13920000000 -27.989311 -11.750169 -38.515366 136.57455 -38.879238 135.57986 -20.443085 -32.582878
13930000000 -28.015959 -17.414118 -37.961185 109.02541 -38.258549 110.56902 -21.055998 -31.412321
13940000000 -27.395416 -24.832394 -38.08741 81.852364 -38.003384 83.901413 -21.516945 -28.939358
13950000000 -27.763405 -35.14159 -38.178486 57.017876 -38.137451 57.784405 -21.716503 -24.254204
13960000000 -28.325151 -46.527851 -38.20755 32.954689 -38.098927 32.599682 -21.697819 -18.82053
13970000000 -29.224316 -54.616821 -37.993748 10.112827 -37.889462 9.7110167 -21.799166 -13.043621
13980000000 -30.627048 -63.44899 -37.79491 -15.035234 -37.466557 -15.487146 -22.005424 -7.7838979
13990000000 -30.913366 -60.916874 -37.474823 -40.726913 -37.331585 -41.557648 -22.262524 -2.9678249
14000000000 -31.034033 -64.199684 -37.647648 -65.68856 -37.14344 -64.25325 -22.369558 0.49310204
14010000000 -30.239496 -56.220379 -37.688545 -90.580521 -37.241829 -91.352432 -22.368458 1.3604082
14020000000 -28.82238 -58.984638 -37.445278 -114.43216 -37.016163 -116.28545 -22.32085 0.44508344
14030000000 -27.575144 -64.888687 -37.379818 -139.93578 -36.939148 -141.55333 -22.364738 -0.36226279
14040000000 -27.370577 -73.927246 -37.269508 -165.35393 -37.0037 -167.58296 -22.487135 -0.46562365
14050000000 -27.050159 -81.100449 -37.319424 168.59515 -37.055218 166.2368 -22.566301 0.17650458
14060000000 -28.102558 -96.268837 -37.613728 143.93915 -37.568085 142.99753 -22.703037 0.49505693
14070000000 -29.582418 -98.189537 -37.573997 118.30552 -37.3283 117.80676 -22.892599 0.16606531
14080000000 -30.344896 -112.47169 -37.790676 93.869423 -37.511768 90.27597 -22.989332 -0.31673574
14090000000 -32.547222 -108.0882 -37.89484 70.059662 -38.083466 66.729034 -23.06237 -2.2738245
14100000000 -31.873259 -110.34718 -37.755615 43.699192 -37.780071 42.525158 -23.307163 -1.5558437
14110000000 -31.028559 -102.28766 -38.409725 18.239407 -38.45187 17.249718 -23.173227 1.1916834
14120000000 -28.815132 -111.17965 -38.330772 -4.3730307 -38.147541 -6.590169 -23.100201 2.8125267
14130000000 -27.862539 -118.82845 -38.102631 -30.433319 -38.341396 -33.962955 -23.441177 3.5007515
14140000000 -27.119638 -127.73859 -38.282379 -59.078247 -38.641415 -60.175518 -24.16589 4.1576533
14150000000 -27.178186 -133.47475 -38.903637 -87.120735 -39.01865 -87.116814 -25.051548 2.4371722
14160000000 -26.873245 -142.6739 -39.981766 -110.41829 -39.706833 -111.15888 -25.855963 1.4499592
14170000000 -28.025703 -150.03679 -39.906216 -132.62494 -39.947952 -135.51421 -26.027962 0.60666186
14180000000 -28.819574 -153.53386 -40.095524 -158.05469 -40.267315 -161.10216 -26.336807 0.57041967
14190000000 -29.296051 -152.27354 -40.348598 174.45088 -40.549889 173.51895 -27.102457 3.6076043
14200000000 -29.22526 -152.92963 -40.885216 149.19807 -41.018982 149.46419 -28.805244 10.888134
14210000000 -28.962345 -151.4693 -41.289032 121.69329 -41.343956 120.46853 -30.728239 26.091442
14220000000 -28.15284 -149.93306 -42.059013 95.823853 -42.55056 94.491219 -32.375969 46.340424
14230000000 -26.717026 -154.99939 -42.566635 69.676117 -42.566868 67.794937 -32.450333 68.461052
14240000000 -26.41927 -160.8781 -43.799488 42.353279 -43.443115 41.75145 -31.093769 83.919647
14250000000 -25.753942 -165.85413 -44.293755 19.101841 -44.454239 15.052511 -29.069944 94.195557
14260000000 -26.284128 -174.72121 -44.94873 -5.392879 -44.668018 -6.8715796 -26.862217 101.26951
14270000000 -26.646275 -176.35411 -44.904739 -33.618164 -45.08498 -35.404369 -24.601511 105.17746
14280000000 -27.795549 174.11931 -45.544075 -65.898445 -45.872368 -65.406578 -23.032589 105.49353
14290000000 -28.952179 -177.09569 -47.716316 -91.980774 -46.952785 -92.668358 -21.981506 105.08441
14300000000 -29.480553 -174.84811 -48.163311 -118.98011 -48.925591 -128.6364 -21.109018 103.45357
14310000000 -27.985395 -166.79008 -49.117794 -150.4911 -50.09713 -152.67075 -20.14175 100.47021
14320000000 -27.405756 -175.6918 -50.256641 -172.86749 -50.261742 -172.51884 -19.067165 96.567894
14330000000 -26.355318 -173.38997 -50.170685 151.7832 -49.976032 148.86646 -18.100763 93.083588
14340000000 -25.93655 175.41313 -51.371605 121.93803 -51.047066 119.89465 -17.181784 90.998383
14350000000 -25.882349 172.02905 -50.739731 87.542007 -49.87965 76.543571 -16.386227 89.482132
14360000000 -26.952982 161.59795 -50.864784 45.296345 -51.769894 34.486824 -15.753123 88.005882
14370000000 -28.275927 168.43304 -51.264057 8.4445591 -51.55822 10.679719 -15.297325 85.933159
14380000000 -28.705416 164.96036 -52.109764 -30.257048 -51.059402 -37.923798 -14.992773 83.663322
14390000000 -29.391924 179.21786 -53.054581 -61.782455 -52.749065 -71.030411 -14.683989 80.768593
14400000000 -28.322565 179.66568 -52.515167 -78.393295 -52.431019 -82.350258 -14.358717 77.417542
14410000000 -27.56027 -179.38446 -50.267475 -108.44365 -49.364208 -112.08012 -14.008984 74.282524
14420000000 -26.746567 175.75667 -49.313904 -139.84317 -49.486176 -144.86797 -13.667128 71.283142
14430000000 -26.253675 169.78253 -47.721809 -168.3432 -47.128551 -173.72322 -13.398076 68.733772
14440000000 -26.979616 163.53389 -47.103054 157.22455 -47.151001 147.10614 -13.152979 66.406113
14450000000 -27.005964 165.5399 -47.317528 122.60019 -48.026909 118.93874 -12.971066 63.928127
14460000000 -27.992275 162.95328 -47.532486 98.714752 -47.100796 92.332466 -12.856714 61.380035
14470000000 -28.22488 170.54948 -47.128223 75.963112 -47.767372 65.604805 -12.751786 59.490387
14480000000 -28.167578 -179.92795 -46.918297 48.705498 -48.117985 46.408169 -12.659691 57.979729
14490000000 -27.326715 179.52115 -46.153259 29.163607 -46.295959 28.613014 -12.620022 56.761719
14500000000 -26.391077 -175.5717 -45.172298 -1.4567568 -45.153702 -5.1024761 -12.674285 54.944649
14510000000 -25.762142 175.88983 -44.311089 -33.814911 -44.680481 -35.260796 -12.897191 53.464607
14520000000 -26.183466 177.79779 -45.12368 -69.56852 -46.027714 -72.101852 -12.993343 51.77079
14530000000 -25.435892 168.30177 -46.66515 -87.76342 -48.288742 -85.857277 -12.979052 49.950592
14540000000 -26.664875 171.17392 -46.630074 -110.28143 -46.386936 -112.3224 -12.841441 48.494366
14550000000 -26.136559 168.82886 -46.450851 -133.87985 -47.035679 -142.31157 -12.687882 47.470165
14560000000 -27.091789 175.85536 -45.890717 -154.46617 -47.610039 -154.32378 -12.57781 47.035934
14570000000 -25.687557 178.25244 -45.307743 168.8898 -45.900936 173.18695 -12.604138 46.932919
14580000000 -24.907854 -177.61162 -47.011536 140.88916 -47.245388 143.78645 -12.602444 47.036106
14590000000 -23.861206 176.08755 -48.04998 116.95668 -47.473713 119.33189 -12.634481 46.648613
14600000000 -23.636559 178.29744 -49.027756 96.317612 -50.095619 90.762329 -12.54595 46.239998
14610000000 -22.946934 169.68753 -50.479961 79.986916 -53.815933 87.406761 -12.480968 45.241802
14620000000 -23.668531 168.29936 -49.339264 67.293259 -48.601757 81.791023 -12.419784 44.768974
14630000000 -23.768606 164.58911 -48.548172 37.771881 -48.367096 33.383049 -12.377256 43.847157
14640000000 -24.513752 169.26578 -48.250317 2.685252 -49.012966 -0.7220521 -12.375844 42.857071
14650000000 -23.898977 172.44031 -50.888401 -29.714609 -51.066841 -22.780277 -12.345883 41.474636
14660000000 -22.97821 174.03587 -52.911423 -55.915627 -53.461803 -44.358883 -12.231314 40.527855
14670000000 -22.438513 171.73351 -56.982708 -55.979324 -54.401089 -39.588963 -11.956811 38.871204
14680000000 -21.302387 168.88649 -54.634205 -63.06369 -53.119396 -59.129105 -11.761109 37.328903
14690000000 -21.333408 162.55116 -54.869137 -91.209724 -53.143604 -80.5998 -11.691145 36.143246
14700000000 -21.204153 159.32033 -57.863518 -111.91299 -53.632687 -111.19987 -11.712152 35.842957
14710000000 -21.884863 155.93169 -57.739746 -120.36871 -55.08802 -138.34824 -11.67942 35.444546
14720000000 -22.154478 157.47791 -60.005997 -141.44522 -57.871517 -166.30618 -11.727364 34.368328
14730000000 -22.283079 159.16364 -63.065685 -105.28635 -58.998234 -152.31773 -11.840475 32.740685
14740000000 -21.643456 160.2383 -56.335892 -113.34029 -58.718067 -140.70877 -12.019753 30.956972
14750000000 -21.324402 159.30772 -52.251797 -141.81747 -53.314785 -163.22391 -12.135854 29.051176
14760000000 -20.364542 156.26027 -52.354378 177.59648 -53.925602 150.88695 -12.224279 27.073502
14770000000 -20.551556 150.46114 -52.85096 155.6638 -55.109467 142.91029 -12.247937 25.386766
14780000000 -20.068508 147.69957 -53.794254 150.41486 -54.912491 138.76988 -12.297943 24.129068
14790000000 -20.416174 143.08989 -50.503807 134.59229 -52.684258 129.8766 -12.388113 24.047224
14800000000 -20.520502 143.04907 -48.830524 104.84935 -51.031754 104.21468 -12.414547 24.071171
14810000000 -20.9361 141.90379 -48.703396 76.910988 -49.494453 84.877167 -12.529567 23.358963
14820000000 -20.760544 144.1546 -48.40226 53.27211 -48.6483 45.565548 -12.780991 22.639811
14830000000 -20.806915 143.53709 -47.661011 29.280151 -49.144539 24.350374 -13.003432 22.590208
14840000000 -20.390564 143.22881 -47.666843 2.9292614 -48.863895 4.725307 -13.140566 22.571915
14850000000 -20.371042 140.06619 -48.145199 -20.572935 -49.338333 -14.332974 -13.310652 22.319698
14860000000 -20.041002 137.46323 -47.435295 -37.566246 -47.761356 -25.319386 -13.580983 22.376589
14870000000 -20.353022 131.34489 -46.730225 -64.505104 -46.306896 -60.0508 -13.878819 22.088465
14880000000 -20.493601 128.85759 -46.387676 -91.730583 -46.580082 -92.912994 -14.063994 21.171301
14890000000 -20.762987 125.23402 -46.724922 -118.46883 -47.815914 -114.27174 -14.185625 19.748388
14900000000 -21.085649 123.3907 -47.155594 -140.92793 -46.591427 -134.09322 -14.106178 19.48093
14910000000 -21.577362 126.10481 -47.41193 -161.36209 -47.095757 -155.65506 -13.921933 19.752905
14920000000 -20.995205 126.76814 -47.017559 174.74811 -46.364605 -175.23656 -13.942017 21.094561
14930000000 -21.039524 126.44682 -47.185852 148.32858 -46.277794 159.35724 -14.091067 23.361076
14940000000 -20.787014 124.83205 -47.549877 126.32951 -46.568954 131.93375 -14.342727 25.275427
14950000000 -20.550837 124.76228 -46.959217 104.89151 -46.658287 106.90237 -14.650328 26.209129
14960000000 -20.582478 117.51826 -48.220146 73.608215 -47.854504 83.472603 -14.851743 26.516119
14970000000 -21.544163 116.26463 -48.428715 60.349899 -46.817448 63.290215 -14.933949 26.474186
14980000000 -22.119759 111.7774 -47.733376 34.011292 -46.192581 35.834126 -14.997202 26.616043
14990000000 -23.10457 115.66911 -48.261269 6.2258525 -46.89613 4.4215651 -15.185925 27.662443
15000000000 -23.307251 114.82228 -48.749271 -12.592522 -47.504204 -13.87483 -15.263935 29.520779
15010000000 -23.403925 120.76115 -48.446438 -41.992432 -47.495407 -44.427799 -15.188549 29.642004
15020000000 -22.768141 118.19704 -49.54623 -68.696671 -48.478767 -72.660263 -15.14312 28.805937
15030000000 -22.628801 118.01997 -51.171844 -87.311371 -50.904427 -104.20695 -14.925702 29.323433
15040000000 -22.379707 113.14623 -51.20507 -105.26505 -51.311653 -113.45671 -14.471793 30.596455
15050000000 -22.722826 110.98318 -51.26136 -124.65163 -50.063202 -138.3465 -14.156311 32.003757
15060000000 -23.342649 108.08722 -50.623985 -156.18781 -51.646496 -167.37529 -14.093099 34.470112
15070000000 -24.678337 110.67172 -51.343853 -179.16429 -51.406033 172.0818 -14.109617 36.592113
15080000000 -24.919386 117.14949 -51.318577 146.02618 -51.07576 130.77657 -14.160645 36.896656
15090000000 -24.873123 121.89146 -53.275928 117.71058 -53.82449 87.854111 -14.244994 35.914566
15100000000 -24.772224 125.23293 -55.081051 83.449715 -54.284904 73.179039 -14.220002 34.790054
15110000000 -24.132704 125.0916 -56.006016 55.277313 -54.403351 25.230503 -14.043304 33.636749
15120000000 -24.070749 122.41331 -57.95063 9.1391287 -56.085701 -27.553001 -13.873801 32.629433
15130000000 -24.008081 118.17174 -61.415092 -21.234961 -61.017807 -51.408546 -13.751434 32.177567
15140000000 -24.584337 117.65912 -63.635368 -60.581646 -59.915562 -94.738647 -13.583075 31.646896
15150000000 -24.7022 117.77145 -61.831909 -83.373138 -61.409023 -133.58806 -13.410698 30.747602
15160000000 -25.587898 120.17005 -57.961334 -117.91084 -58.632942 -146.43355 -13.278748 30.256628
15170000000 -25.06975 127.97459 -54.212563 -168.16167 -52.847885 175.05193 -13.152838 30.364614
15180000000 -24.356167 127.8555 -52.296238 151.73676 -51.738323 133.09691 -13.078772 30.375683
15190000000 -23.915215 129.95139 -50.591824 114.97081 -50.995903 109.47891 -13.213443 30.146942
15200000000 -23.599754 129.77921 -50.330193 79.836884 -49.638222 78.555389 -13.400423 29.951527
15210000000 -22.798925 126.9843 -49.13493 57.689213 -47.833866 46.299629 -13.577724 28.973038
15220000000 -23.398708 123.53397 -47.988693 31.505997 -48.474628 18.64653 -13.782754 27.351606
15230000000 -23.319153 122.98578 -46.875866 0.5310539 -46.586124 -4.4864526 -13.941333 26.113894
15240000000 -23.883615 121.76165 -46.272747 -23.611797 -45.288151 -28.867271 -13.9656 25.072029
15250000000 -23.875875 123.68111 -45.783981 -48.16489 -45.536552 -57.929176 -13.933839 23.63125
15260000000 -24.035185 123.60203 -44.588444 -70.610901 -44.315094 -73.387993 -13.998726 22.706289
15270000000 -23.606174 127.21011 -43.591782 -100.60039 -43.484158 -105.6378 -14.001257 23.675463
15280000000 -22.818302 124.09465 -43.251987 -126.01505 -43.519817 -130.9971 -13.834551 24.994799
15290000000 -22.638002 122.34358 -43.118599 -149.81328 -43.18528 -150.91119 -13.855802 26.074881
15300000000 -22.129778 118.07999 -41.816113 -173.33249 -41.776192 -179.81496 -14.106909 27.42169
15310000000 -22.464642 114.60152 -41.278152 154.11702 -41.89521 150.75993 -14.373094 28.922331
15320000000 -22.611792 111.11653 -41.644268 130.79399 -41.885986 131.91426 -14.584307 29.153851
15330000000 -23.293291 112.06435 -41.436234 108.0575 -41.486462 106.32652 -14.816669 28.686512
15340000000 -23.265913 109.41171 -40.619347 83.056 -41.023712 82.451752 -14.845355 28.604395
15350000000 -24.021315 115.02839 -40.615326 56.752922 -41.315315 57.530212 -14.771297 28.339354
15360000000 -23.251703 111.55834 -40.31345 35.246349 -40.760509 37.272316 -14.780087 28.355618
15370000000 -23.955917 113.81455 -39.283989 9.9859514 -39.698658 10.281834 -14.826927 28.803034
15380000000 -22.732155 109.88577 -39.321827 -22.446295 -39.349998 -20.671576 -14.734623 28.901815
15390000000 -23.361746 104.70244 -40.050549 -44.492989 -40.038639 -44.857113 -14.554102 28.461798
15400000000 -23.160812 100.74238 -39.91193 -67.280373 -40.179768 -66.661583 -14.333269 28.521509
15410000000 -23.793413 96.179886 -39.737965 -91.743126 -40.240204 -89.422028 -14.12154 29.808994
15420000000 -24.469372 91.104355 -39.604446 -113.96558 -39.343109 -109.68577 -13.975839 31.223595
15430000000 -25.630447 94.197792 -39.600948 -138.11935 -39.542484 -139.30165 -14.062362 32.492073
15440000000 -25.739508 95.160912 -39.056885 -162.82384 -39.284595 -165.0455 -14.360336 32.888134
15450000000 -26.41832 96.892296 -39.470398 168.81726 -39.54578 170.65112 -14.613157 31.9496
15460000000 -26.025005 98.641159 -39.788998 146.19846 -39.539627 146.6266 -14.799953 30.013491
15470000000 -26.184435 98.822441 -39.984993 125.20648 -39.755615 125.34583 -14.765299 28.782059
15480000000 -25.552713 91.258537 -39.336803 102.04715 -39.174248 101.81994 -14.574677 27.774925
15490000000 -26.559219 84.069359 -39.694862 75.176605 -39.087482 74.981567 -14.436379 27.319651
15500000000 -27.513096 77.170471 -39.582455 52.544594 -39.295486 49.53883 -14.4579 27.381405
15510000000 -28.96843 75.614609 -40.041679 25.57102 -39.940002 23.105591 -14.490578 28.295044
15520000000 -30.742752 70.132034 -40.562782 6.3742447 -40.025257 4.8128071 -14.476111 28.724358
15530000000 -32.247734 84.252594 -40.387646 -16.29427 -39.633064 -21.447039 -14.471881 29.313128
15540000000 -32.758018 79.19397 -40.097973 -39.029808 -40.177456 -43.31216 -14.482703 30.909899
15550000000 -33.080093 97.327217 -40.110371 -63.204029 -39.7715 -66.638603 -14.489076 32.206329
15560000000 -33.047661 84.858101 -40.113632 -89.75985 -39.809986 -92.829468 -14.667574 32.853909
15570000000 -34.478569 91.668129 -40.473316 -114.59172 -40.075874 -119.12512 -14.982046 33.52066
15580000000 -35.700642 71.056862 -40.857521 -138.70781 -40.854893 -147.00977 -15.141706 34.092224
15590000000 -40.309753 87.25769 -41.065468 -164.54396 -41.700344 -174.25221 -15.212087 33.070652
15600000000 -44.369869 54.644833 -42.133656 173.02951 -42.943871 169.24826 -15.230537 31.665781
15610000000 -53.878109 160.43604 -42.476036 154.3849 -42.285679 153.26173 -15.179843 30.937061
15620000000 -46.487316 -81.139954 -42.190498 133.74886 -42.393505 126.74804 -14.981211 30.571276
15630000000 -37.382378 -137.46046 -41.870403 106.14771 -42.362076 101.75563 -14.792083 30.668209
15640000000 -38.628658 -134.96419 -42.506805 79.930588 -43.229374 78.203568 -14.643961 32.156357
15650000000 -34.532276 -145.32413 -43.738556 55.705471 -44.157383 59.59914 -14.453771 33.527294
15660000000 -35.628738 -147.85437 -44.129665 37.840271 -44.44521 36.676762 -14.514319 34.28796
15670000000 -32.939899 -152.91084 -44.239464 17.526106 -44.660454 17.697502 -14.747768 35.116665
15680000000 -34.918423 -149.02003 -44.214939 -13.513917 -45.086002 -9.4212236 -14.967707 35.517693
15690000000 -32.43446 -137.58237 -46.520985 -35.704426 -47.35796 -28.647989 -15.116261 35.184967
15700000000 -30.610397 -133.17207 -47.371559 -46.970371 -47.271267 -36.119499 -15.246121 34.927425
15710000000 -28.615234 -134.3033 -47.050793 -64.103821 -46.365547 -56.725117 -15.235077 35.060123
15720000000 -27.052603 -138.40894 -46.828075 -86.533958 -47.017555 -78.828362 -15.250985 34.662285
15730000000 -26.235882 -145.2477 -46.883198 -109.89123 -47.125488 -97.43985 -15.403034 34.433205
15740000000 -26.052679 -150.92854 -47.558773 -134.54791 -46.726685 -125.83609 -15.489251 34.644367
15750000000 -26.48933 -154.36473 -48.543186 -159.08806 -48.418716 -147.73599 -15.366263 35.142624
15760000000 -26.748909 -152.40718 -50.959332 -170.83699 -50.231445 -157.4222 -15.057364 35.785381
15770000000 -26.745554 -148.5603 -50.36142 178.95676 -48.309616 177.26033 -14.705022 37.552818
15780000000 -25.753448 -144.55518 -50.23885 162.90526 -49.44286 161.81773 -14.474351 40.130585
15790000000 -24.84461 -144.61234 -49.697495 142.59814 -48.413563 141.67381 -14.463996 43.064049
15800000000 -23.63517 -146.69528 -49.595634 118.09558 -48.231365 115.21828 -14.61321 45.279251
15810000000 -23.10317 -151.81033 -50.213272 103.36595 -49.49221 90.356529 -14.858498 46.28595
15820000000 -22.782558 -155.03456 -49.092651 84.329803 -48.828396 78.072655 -14.942141 45.760132
15830000000 -22.974314 -157.8206 -48.93816 58.839104 -48.366364 47.108051 -14.872935 43.962704
15840000000 -23.107449 -154.9801 -49.969852 32.847462 -50.070942 18.767128 -14.639624 42.545361
15850000000 -22.852007 -155.55458 -51.415497 21.860346 -50.306953 10.525726 -14.3195 41.6483
15860000000 -22.784603 -151.93709 -49.658894 12.064857 -50.600578 -11.857332 -13.983759 41.444492
15870000000 -22.247269 -152.96967 -48.718246 -14.288322 -51.342346 -26.316599 -13.671279 41.372929
15880000000 -21.992857 -151.17889 -48.878067 -41.999668 -50.86573 -41.491238 -13.350698 41.421619
15890000000 -21.43741 -154.16609 -50.329632 -58.797016 -50.863804 -60.467781 -13.049553 41.428745
15900000000 -21.405008 -155.99504 -48.540524 -74.734718 -49.502041 -80.628128 -12.814488 41.680866
15910000000 -21.209959 -156.91116 -47.948376 -104.07623 -49.643272 -113.19281 -12.643595 41.899849
15920000000 -20.846649 -156.61882 -48.58334 -133.25426 -52.113209 -134.29082 -12.547574 42.109867
15930000000 -20.677406 -158.5385 -50.719597 -155.59929 -51.80468 -147.50134 -12.552947 41.500229
15940000000 -20.626322 -156.51207 -50.859131 -158.53926 -51.995945 -159.24295 -12.639569 40.464111
15950000000 -20.059729 -156.97801 -49.025936 177.26123 -50.569447 -179.40785 -12.677078 38.45454
15960000000 -20.098463 -157.08255 -48.802338 151.19801 -50.042717 157.29132 -12.67011 35.801506
15970000000 -19.675978 -154.89368 -49.452396 130.97983 -50.449001 136.97554 -12.582269 33.035725
15980000000 -19.584871 -154.79218 -49.242451 106.56597 -49.475143 122.03268 -12.386576 30.485054
15990000000 -18.996656 -153.45932 -50.015411 81.57135 -48.438595 95.883812 -12.125764 28.684626
16000000000 -18.977297 -155.07797 -50.585999 66.471863 -48.484165 68.963913 -11.906195 27.840954
16010000000 -18.392422 -154.58705 -50.61441 43.057091 -49.610176 45.776089 -11.800631 27.650095
16020000000 -18.343943 -157.61342 -50.764191 32.208534 -50.099827 39.125298 -11.824512 27.676874
16030000000 -18.179682 -156.78429 -51.243649 10.749161 -49.68832 19.485121 -11.95169 26.733541
16040000000 -18.042423 -157.38803 -50.132839 -4.4333048 -49.065338 -5.3068261 -12.207045 24.941711
16050000000 -17.650686 -156.56128 -48.87973 -32.672909 -48.117619 -33.390053 -12.495244 22.446613
16060000000 -17.335894 -156.28415 -49.404621 -58.84079 -48.111828 -60.842773 -12.694762 20.181332
16070000000 -16.792238 -155.47812 -50.713673 -85.421692 -49.940002 -91.715958 -12.779767 17.801598
16080000000 -16.391346 -157.17314 -50.802624 -96.094994 -50.896252 -97.083786 -12.916775 15.204959
16090000000 -16.163437 -156.91849 -50.585205 -118.5356 -49.006084 -117.77239 -13.085308 12.629221
16100000000 -15.926164 -158.10536 -49.902184 -137.53154 -49.461529 -151.17012 -13.250813 10.290386
16110000000 -15.687698 -158.27072 -49.234531 -167.08939 -50.764858 -172.38559 -13.308193 8.7486448
16120000000 -15.503564 -158.7262 -50.762287 166.42241 -50.095802 171.92369 -13.273491 8.3999863
16130000000 -15.140814 -159.22951 -51.461563 152.73341 -50.35191 144.96368 -13.293934 8.8220892
16140000000 -14.914819 -159.55481 -51.087284 138.94926 -50.199337 137.43285 -13.531585 10.255569
16150000000 -14.457912 -161.4776 -49.572433 112.5694 -49.450985 103.19846 -13.959929 11.398018
16160000000 -14.356137 -162.3725 -50.292671 81.6549 -52.133869 71.484688 -14.539934 11.079003
16170000000 -13.917146 -162.90105 -51.583046 57.655811 -52.922367 50.319447 -15.123399 9.3065243
16180000000 -13.699875 -163.51172 -52.284119 38.959881 -53.446461 32.172432 -15.529502 6.2826433
16190000000 -13.362637 -163.83623 -53.425407 23.235735 -54.086967 13.35059 -15.758061 3.7509093
16200000000 -13.065546 -163.73401 -53.086174 10.264199 -53.249481 -4.1963472 -15.837135 2.1003454
16210000000 -12.622009 -165.85818 -52.494602 -9.0711565 -54.134377 -17.088209 -15.932285 1.4582299
16220000000 -12.604834 -166.35011 -51.545658 -32.809162 -53.098415 -28.4849 -16.023651 1.2758745
16230000000 -12.232566 -168.35835 -51.664959 -63.814499 -53.304279 -58.660759 -16.075256 1.3300805
16240000000 -12.296072 -168.74188 -52.509892 -86.294014 -53.010689 -90.632263 -16.059027 1.4573427
16250000000 -12.06045 -170.50673 -53.664005 -104.72758 -54.394863 -108.69643 -16.087084 2.3583729
16260000000 -12.026655 -170.15672 -54.530212 -134.44664 -55.601627 -137.80716 -16.305296 4.4125075
16270000000 -11.485716 -171.03908 -56.351093 -136.43393 -56.227642 -137.81003 -16.65926 6.8805285
16280000000 -11.23229 -172.61499 -55.579189 -154.10159 -55.899128 -153.32248 -17.130199 8.260848
16290000000 -10.803659 -174.355 -54.283245 -163.77524 -53.838436 -167.52693 -17.654276 7.1028023
16300000000 -10.662776 -176.29918 -53.340282 165.37022 -53.808739 157.32433 -18.164724 3.9183249
16310000000 -10.404344 -178.1293 -53.686626 136.23836 -55.463745 134.19206 -18.414785 0.13516244
16320000000 -10.492167 -179.0713 -54.551105 112.81638 -54.204014 126.783 -18.460339 -3.0584583
16330000000 -10.286089 -178.96194 -56.032047 87.219566 -53.609482 88.666222 -18.387293 -4.8600645
16340000000 -10.227758 -179.27554 -57.914463 77.556961 -55.342171 67.968422 -18.325871 -6.0658641
16350000000 -9.892745 -179.52989 -56.13282 68.728989 -56.519421 50.783966 -18.246502 -6.7806616
16360000000 -9.6913595 179.28346 -57.435497 36.76236 -59.294041 36.249119 -18.363543 -7.2997074
16370000000 -9.3433561 177.58585 -58.106049 29.881426 -59.703987 36.35891 -18.628414 -6.5014648
16380000000 -9.2314644 175.05374 -57.146778 22.50803 -56.483463 14.594096 -19.133446 -5.5708361
16390000000 -9.102109 173.20433 -55.280842 -5.0561433 -56.802601 -14.076416 -19.95859 -5.3924422
16400000000 -9.0651827 171.81371 -56.035187 -35.039619 -55.66227 -31.878347 -20.958136 -7.3949881
16410000000 -8.9294643 170.7312 -56.760792 -58.485901 -58.040146 -54.681519 -21.997814 -12.719572
16420000000 -8.8565121 170.3429 -59.631721 -61.255165 -57.023224 -47.447258 -22.831232 -19.137066
16430000000 -8.6065254 170.1964 -57.257469 -64.638451 -56.268299 -56.345528 -23.356173 -23.263599
16440000000 -8.3922253 169.64896 -55.335381 -91.563492 -53.865387 -86.011604 -23.775431 -25.896929
16450000000 -8.1351643 168.53897 -55.528526 -117.91367 -56.033752 -104.58475 -24.476713 -27.986269
16460000000 -7.9802122 167.52611 -55.128059 -128.94275 -53.706268 -131.04874 -25.378325 -29.930746
16470000000 -7.8058944 165.98396 -54.275864 -156.27075 -53.952179 -148.23291 -26.422213 -30.972101
16480000000 -7.7459908 164.26938 -54.909447 -176.4464 -51.470909 -169.00058 -27.395969 -27.35664
16490000000 -7.677433 162.7395 -52.697945 168.70174 -50.36834 161.95416 -28.410923 -17.394596
16500000000 -7.6554732 161.98779 -52.299511 135.01889 -51.804276 131.56209 -29.684189 -2.0181179
16510000000 -7.5293269 160.66785 -52.379242 116.92838 -52.03566 113.90292 -31.400835 22.101067
16520000000 -7.4691749 160.67683 -53.184914 96.289635 -52.894943 95.834625 -33.080242 48.827068
16530000000 -7.1531658 159.96526 -51.560524 82.020386 -50.908852 79.065994 -34.71402 72.190819
16540000000 -6.9676986 159.22607 -50.102001 54.073383 -49.460327 42.145794 -36.993469 90.870338
16550000000 -6.6934009 157.83714 -49.586395 21.47826 -49.910351 7.4671998 -38.164738 90.888817
16560000000 -6.5820503 156.81293 -50.138664 -4.4157333 -51.048958 -14.51606 -37.768539 80.238319
16570000000 -6.409843 155.18027 -50.448441 -32.088493 -51.243309 -37.972992 -35.049946 75.953819
16580000000 -6.4205537 153.95602 -50.747864 -53.104424 -51.530178 -56.804283 -33.088062 77.141693
16590000000 -6.3678589 153.03537 -50.229458 -76.857849 -50.950104 -81.097092 -32.047649 81.38826
16600000000 -6.3345652 152.70013 -50.078239 -103.57309 -50.866989 -108.12258 -31.510715 86.427711
16610000000 -6.1398921 151.96895 -50.258427 -132.26236 -51.899841 -131.22166 -30.308561 89.463791
16620000000 -5.9725623 151.21292 -51.072395 -161.31021 -52.578033 -154.14325 -28.594624 92.300354
16630000000 -5.6847701 149.99467 -51.879219 179.95512 -52.644424 -172.60187 -26.878386 95.324173
16640000000 -5.5057554 148.52095 -51.221344 153.09166 -51.721237 152.44514 -25.653835 103.93101
16650000000 -5.2805281 146.95015 -52.286896 124.7539 -53.798065 129.80078 -24.547035 111.46661
16660000000 -5.2091284 145.52611 -52.056885 98.99102 -53.986813 111.48158 -24.20575 118.46143
16670000000 -5.0881672 144.51207 -53.256699 69.077751 -53.749413 89.176239 -24.187201 122.46274
16680000000 -5.0303731 143.79263 -54.123055 42.609001 -53.96389 57.925449 -24.29949 121.90166
16690000000 -4.8585844 143.31012 -54.991528 25.745768 -55.115765 28.516504 -24.147558 116.50111
16700000000 -4.726212 142.44293 -55.281761 -8.2553072 -55.700436 4.1445327 -23.627684 111.10416
16710000000 -4.5030584 141.48471 -57.063274 -36.332413 -57.415337 -25.964033 -22.536875 107.14129
16720000000 -4.4215255 140.02763 -58.926701 -26.615417 -59.094948 -49.836075 -21.69401 104.1348
16730000000 -4.1867123 138.89441 -58.476238 -48.402855 -59.543289 -67.407516 -20.823273 102.99307
16740000000 -4.0070968 137.16025 -59.35606 -72.570885 -62.304958 -74.217995 -20.19767 102.23247
16750000000 -3.85623 135.48531 -58.588192 -106.25723 -57.98777 -102.75868 -19.664091 102.44858
16760000000 -3.7555912 133.87886 -59.00066 -129.4381 -58.218372 -137.74083 -19.310675 101.82493
16770000000 -3.6559958 132.59189 -57.633575 -166.12212 -57.69593 174.01199 -19.223913 102.06908
16780000000 -3.5741723 131.6703 -61.572598 165.97716 -63.189671 140.43805 -19.208961 101.77739
16790000000 -3.4283531 130.89252 -59.088531 138.23674 -61.625553 115.97472 -19.383209 100.09985
16800000000 -3.2422488 129.87184 -61.389996 87.590553 -63.429146 78.626358 -19.723719 97.031982
16810000000 -3.0593073 128.30443 -64.579796 72.032829 -64.833496 55.900417 -20.11237 93.065147
16820000000 -2.9326229 126.59688 -65.065292 58.889706 -66.386047 44.263844 -20.298014 88.430695
16830000000 -2.8046718 124.78096 -59.013336 34.669067 -61.120327 21.641628 -20.263536 83.324966
16840000000 -2.7358282 123.05089 -58.660671 -14.161901 -59.283588 -32.146404 -20.035137 79.348251
16850000000 -2.6536584 121.51845 -56.965275 -45.666794 -59.346638 -63.501637 -19.718643 77.299934
16860000000 -2.5605221 120.33704 -56.184925 -87.018143 -58.183167 -98.925529 -19.433825 76.984154
16870000000 -2.4074211 119.05926 -56.63269 -116.57628 -57.779171 -122.51511 -19.4137 78.946663
16880000000 -2.2679844 117.70719 -56.151371 -148.6071 -57.322861 -160.76102 -19.613588 81.755196
16890000000 -2.1275229 116.22391 -56.652317 -171.35297 -57.499859 177.88043 -20.268164 84.999969
16900000000 -2.0233693 114.83228 -54.772842 166.46323 -56.380753 154.06969 -21.142492 87.705902
16910000000 -1.9282134 113.26382 -54.097031 135.86417 -55.581787 128.25571 -22.213795 89.842369
16920000000 -1.8636802 111.89488 -53.615646 108.86643 -55.15036 105.41042 -23.141777 90.279114
16930000000 -1.7713603 110.34863 -52.405857 79.865311 -53.702763 82.296181 -23.906296 89.990891
16940000000 -1.7028964 108.82314 -51.791565 54.437969 -52.404156 51.297043 -24.327856 91.098831
16950000000 -1.6046716 107.16328 -50.667419 23.640095 -51.61541 20.319094 -24.249485 95.387947
16960000000 -1.5224332 105.48706 -50.723774 -5.9140973 -51.635872 -8.1652279 -23.629847 98.430298
16970000000 -1.4359072 103.77674 -50.899559 -33.521435 -52.293396 -38.397953 -23.037916 102.2029
16980000000 -1.3677462 102.27022 -51.335129 -58.360588 -52.554657 -57.832222 -22.26049 107.04642
16990000000 -1.263147 100.79617 -51.527935 -78.829048 -52.092751 -76.149719 -21.26022 112.04956
17000000000 -1.1750388 99.317955 -50.325176 -100.04852 -50.983307 -99.196594 -20.26667 115.93896
