!Keysight Technologies,P9374A,MY57211807,A.19.30.04
!Date: Friday, May 08, 2026 14:37:02
!Correction: S11(C  2-Port  ) 
!S21(C  2-Port  ) 
!S12(C  2-Port  ) 
!S22(C  2-Port  ) 
!S2P File: Measurements: S11, S21, S12, S22:
# Hz S  dB   R 50
13000000000 -19.084227 55.755196 -43.960197 149.15587 -44.501938 148.26265 -9.3293858 21.704836
13010000000 -19.103811 59.53891 -42.804302 127.44473 -43.474728 127.32403 -9.3560886 17.268377
13020000000 -19.776764 57.929211 -42.377266 104.00007 -42.827 102.03745 -9.4476919 13.058445
13030000000 -19.72345 63.386883 -42.065968 79.529915 -42.846535 77.444923 -9.5309067 8.6889753
13040000000 -20.231091 62.784855 -42.6143 56.521187 -43.306427 55.915047 -9.6916323 4.5211811
13050000000 -19.627014 68.122299 -43.006733 35.423492 -43.616558 36.777863 -9.918458 0.73924136
13060000000 -19.992731 63.783203 -42.335194 21.767494 -42.564388 20.060833 -10.210873 -3.11285
13070000000 -19.629711 66.553146 -41.374195 -2.7295141 -41.566406 -4.016562 -10.576834 -7.0395241
13080000000 -19.791565 62.89402 -40.818813 -27.435669 -41.16658 -31.317192 -11.007204 -11.283648
13090000000 -19.439888 63.417194 -41.016693 -54.974689 -41.38755 -58.419949 -11.416791 -15.447521
13100000000 -19.702965 61.515839 -41.698689 -76.184761 -42.281891 -80.710045 -11.788332 -19.276497
13110000000 -19.251169 63.182159 -41.576359 -91.973091 -42.09116 -96.241425 -12.238869 -22.614517
13120000000 -19.649313 59.121662 -40.986961 -118.40848 -41.681522 -120.82636 -12.741357 -25.690273
13130000000 -19.460873 63.193649 -41.216816 -138.3093 -41.652981 -141.21219 -13.372513 -29.038389
13140000000 -19.507122 62.176525 -40.971592 -162.99908 -41.387321 -167.35136 -14.081607 -32.454006
13150000000 -19.29133 64.078857 -40.939053 174.90926 -41.588364 170.06136 -14.772965 -35.798958
13160000000 -19.21102 63.2393 -41.707947 152.41136 -42.111099 149.67943 -15.4133 -38.128613
13170000000 -18.913891 62.628342 -40.95108 135.19565 -41.538147 129.60898 -16.091749 -40.027332
13180000000 -19.04557 57.496815 -40.780087 111.09904 -41.512188 106.91567 -16.979534 -41.762695
13190000000 -19.027304 58.501213 -40.150871 86.483566 -40.776447 82.446655 -18.181498 -43.831924
13200000000 -19.077179 53.178356 -40.559208 60.02776 -41.076412 54.512585 -19.553699 -46.550159
13210000000 -19.465813 54.513279 -41.066357 36.987717 -41.711494 32.847095 -20.872639 -50.335342
13220000000 -19.261093 52.218086 -41.462948 18.905766 -42.028584 15.212303 -22.067938 -52.823574
13230000000 -19.592058 52.76947 -41.572617 -4.1379204 -41.935375 -9.0658302 -23.229782 -53.315659
13240000000 -19.353569 52.912323 -41.004417 -20.759369 -41.841923 -27.619534 -24.848387 -50.839382
13250000000 -19.418118 53.556789 -40.738533 -45.090828 -41.663433 -50.805138 -27.621065 -43.600674
13260000000 -18.975872 52.330265 -40.648525 -71.177818 -41.349819 -75.79364 -31.70079 -28.310835
13270000000 -19.116888 50.186203 -41.128262 -93.012955 -42.158463 -98.407349 -36.699589 8.305624
13280000000 -18.910751 47.443687 -41.210644 -116.77942 -42.059647 -118.64294 -35.980476 65.291245
13290000000 -19.502239 44.454575 -41.69648 -137.88327 -42.227577 -142.76295 -31.842989 82.492004
13300000000 -19.523813 41.941021 -41.484879 -157.6398 -41.935642 -161.87358 -28.773218 83.025162
13310000000 -20.378651 40.817719 -41.697811 -179.56673 -42.27462 173.53833 -26.017353 80.604118
13320000000 -20.098444 41.563435 -41.257431 157.8327 -41.996868 152.86807 -23.742523 80.436089
13330000000 -20.590027 40.589481 -41.640697 136.25833 -42.136765 131.67535 -21.702084 81.494919
13340000000 -20.015467 43.425228 -41.782661 112.10001 -42.438274 104.993 -20.247213 80.89859
13350000000 -20.157812 40.307137 -41.640076 92.851189 -42.380016 87.481461 -19.380816 79.132118
13360000000 -19.638344 40.71793 -41.266388 70.155937 -41.991524 63.87746 -18.752178 75.995186
13370000000 -19.890108 36.215382 -41.126621 44.759922 -42.002113 39.26416 -18.05699 71.200104
13380000000 -19.618246 34.946808 -41.522438 20.515451 -42.284653 14.141041 -17.099087 66.362907
13390000000 -20.537493 29.563177 -42.245171 -5.0018125 -43.404617 -10.35437 -16.096376 62.319267
13400000000 -20.468403 31.111536 -42.270573 -20.979527 -43.387722 -25.459673 -15.224102 59.469131
13410000000 -21.438499 25.636883 -42.060356 -45.019043 -43.026134 -48.569912 -14.610981 57.783936
13420000000 -21.402288 30.829462 -42.114902 -69.509338 -43.077515 -73.342018 -14.229039 55.440361
13430000000 -21.937674 26.657345 -42.457157 -91.348114 -43.314579 -96.903366 -14.049642 52.127998
13440000000 -21.302065 30.317339 -42.648079 -116.50398 -43.722057 -121.39587 -13.902699 48.144505
13450000000 -21.437853 24.017084 -43.322723 -137.75691 -44.246704 -140.79704 -13.648516 43.568581
13460000000 -20.951286 23.118473 -43.16563 -158.48706 -44.036125 -162.15967 -13.341167 39.066315
13470000000 -21.93029 14.286572 -43.428371 175.7372 -43.927696 172.17624 -13.108716 35.307396
13480000000 -22.047024 17.4296 -44.07373 154.32655 -44.520672 149.06006 -13.022308 32.320126
13490000000 -23.435217 10.629959 -44.513115 132.19722 -44.988407 125.08765 -13.023663 29.824369
13500000000 -23.450596 17.601847 -44.672863 113.4542 -45.283489 102.50947 -13.093614 27.076227
13510000000 -24.852478 14.986138 -44.393642 85.593285 -45.777699 79.098793 -13.231021 23.986319
13520000000 -24.16728 22.650984 -45.992565 60.712746 -47.341244 56.667206 -13.418004 21.354477
13530000000 -24.724638 19.315931 -45.889854 42.502125 -46.552452 39.171677 -13.637794 19.325537
13540000000 -23.742153 20.831711 -45.785202 17.385998 -46.690277 9.9433069 -13.889783 17.773308
13550000000 -24.22683 13.210134 -47.740334 -4.2033134 -48.428429 -16.26729 -14.195715 16.641865
13560000000 -23.610991 14.875502 -47.832977 -25.217272 -49.420155 -33.306309 -14.540731 15.407345
13570000000 -25.118307 5.1391778 -49.114861 -39.462826 -51.148312 -47.601685 -14.84203 14.321855
13580000000 -25.107855 9.5651913 -49.110413 -61.24535 -50.922485 -64.82869 -15.074594 13.771565
13590000000 -26.851171 5.2502079 -49.651173 -77.153664 -50.751423 -79.563698 -15.177185 13.676239
13600000000 -26.594072 18.153479 -50.290394 -103.60252 -51.254768 -107.76552 -15.227169 14.089
13610000000 -27.169605 18.29425 -50.784409 -113.9374 -51.947853 -120.55149 -15.270555 15.518031
13620000000 -25.94976 22.596388 -49.622665 -141.46007 -51.282555 -149.79877 -15.267093 17.20681
13630000000 -26.729223 13.966141 -51.831779 -159.70454 -53.504688 -167.08009 -15.251683 18.493002
13640000000 -26.447155 15.017604 -51.910492 179.67807 -53.662491 169.69904 -15.194635 19.091568
13650000000 -27.786673 5.1100755 -52.090538 160.34393 -55.593697 152.12936 -15.093941 18.89805
13660000000 -28.066135 13.477976 -53.903465 142.60048 -57.849247 156.01569 -14.941476 18.070902
13670000000 -29.31274 5.0824966 -53.502575 131.47476 -54.957916 149.23209 -14.702287 17.422993
13680000000 -29.479649 21.533228 -54.489719 123.86784 -55.035648 132.13715 -14.34391 16.590258
13690000000 -28.951082 20.280064 -52.08046 107.42127 -52.301315 107.31873 -13.993214 15.505141
13700000000 -28.096138 29.179846 -51.597336 74.848312 -53.105175 72.055992 -13.704146 14.023104
13710000000 -27.314459 25.445219 -53.307205 59.07452 -54.639187 58.733227 -13.511053 11.839304
13720000000 -27.007664 25.27363 -53.997402 45.781811 -55.091167 51.025505 -13.434745 9.2970171
13730000000 -27.296055 16.347021 -53.556431 45.022255 -55.031975 47.446308 -13.306757 6.8780718
13740000000 -27.62912 16.862299 -50.379665 18.631737 -51.150467 27.129152 -13.148699 3.9573708
13750000000 -29.744146 8.3664207 -50.012314 -11.780261 -50.395855 -4.6548901 -13.054906 0.8219077
13760000000 -30.6124 23.092003 -49.385883 -36.503654 -49.712173 -31.127089 -13.133435 -2.0201721
13770000000 -30.434616 23.172905 -50.76828 -62.039932 -51.11462 -54.636482 -13.327155 -4.8918252
13780000000 -29.431581 31.763226 -50.47728 -80.742027 -50.716274 -79.792892 -13.588577 -8.2437105
13790000000 -27.791271 25.345387 -50.203518 -104.64081 -51.438587 -97.839203 -13.831955 -12.430011
13800000000 -27.676672 21.068716 -50.489155 -117.86324 -50.850021 -105.8995 -14.106385 -17.086031
13810000000 -26.526926 14.781621 -49.679981 -142.45959 -49.539558 -134.42332 -14.333317 -20.781776
13820000000 -26.901516 4.4757628 -49.474731 -164.44453 -49.362839 -156.35916 -14.677819 -23.548084
13830000000 -27.302847 5.929872 -48.801823 170.8116 -48.792107 175.57153 -15.118527 -25.303791
13840000000 -27.572783 -3.5709593 -49.922482 139.57993 -49.312374 150.55498 -15.682373 -26.989737
13850000000 -28.88905 -2.1103511 -50.874367 126.01371 -50.161163 129.2813 -16.360598 -29.252317
13860000000 -29.855846 -1.0631423 -50.68869 103.38584 -50.473122 111.60341 -17.128551 -31.679241
13870000000 -29.491062 7.280911 -50.458035 90.597824 -49.276707 92.807976 -17.863024 -33.274578
13880000000 -29.627213 6.3207517 -49.67804 60.731358 -49.42992 64.862282 -18.578718 -33.912144
13890000000 -27.283733 7.3615961 -50.207581 39.565266 -49.970097 39.26585 -19.429205 -33.61924
13900000000 -27.432598 -8.5298157 -49.889565 18.783297 -50.29813 24.469889 -20.40378 -32.055695
13910000000 -27.005901 -9.6029367 -50.39465 -4.3034153 -50.090698 1.9059714 -21.394407 -29.334595
13920000000 -27.147736 -24.800669 -49.300869 -25.481625 -49.014244 -18.518147 -22.148209 -26.893528
13930000000 -28.54722 -28.837357 -50.662991 -62.306961 -50.313313 -53.268696 -22.576544 -24.204756
13940000000 -29.483517 -36.844398 -51.179062 -73.775757 -50.519875 -68.591225 -22.784954 -20.990625
13950000000 -30.803331 -33.826164 -51.521404 -96.13987 -51.06654 -89.959183 -22.842939 -15.66856
13960000000 -31.661901 -41.262688 -50.802811 -110.38937 -50.843601 -102.17515 -22.748583 -8.5833769
13970000000 -31.559011 -28.323521 -50.448711 -139.12294 -50.060856 -125.2622 -22.495712 -1.7699541
13980000000 -30.662802 -41.226273 -49.796345 -167.77745 -49.685738 -156.63316 -22.339544 3.2014675
13990000000 -29.908018 -39.371815 -51.114208 168.10638 -50.555752 -177.34105 -22.27733 6.824966
14000000000 -28.819613 -57.214413 -50.322689 148.88358 -49.946362 163.20491 -22.226944 8.242485
14010000000 -28.428795 -54.934025 -50.722294 118.79176 -50.372246 135.38255 -22.363369 7.8420529
14020000000 -27.255407 -70.446907 -51.329235 88.30835 -50.869488 107.36702 -22.438948 8.2595196
14030000000 -28.293692 -77.725479 -53.976845 66.923332 -51.821308 87.561966 -22.329298 8.0055943
14040000000 -28.642056 -90.917114 -53.863155 57.94001 -51.655678 73.444481 -22.319685 7.0512075
14050000000 -31.506897 -83.807846 -50.693672 43.878246 -49.19009 52.272072 -22.362919 7.002182
14060000000 -31.021822 -86.824692 -50.87751 -2.6382759 -49.963322 10.547223 -22.415571 7.0524874
14070000000 -32.986214 -74.721794 -49.757904 -34.124279 -49.556629 -19.063427 -22.618967 6.7524548
14080000000 -30.777086 -87.193817 -51.515125 -69.047676 -51.693195 -52.080021 -22.790243 6.8174338
14090000000 -31.59655 -79.702911 -52.744705 -98.14373 -52.860313 -78.861275 -22.828279 6.5410533
14100000000 -28.276073 -100.5132 -53.866596 -122.52417 -54.037273 -100.59541 -22.728647 6.3534207
14110000000 -29.289185 -107.01022 -53.506149 -156.82846 -55.199539 -132.53368 -22.735867 6.6467724
14120000000 -27.286011 -122.40585 -54.171715 -178.9446 -54.698803 -151.46138 -22.82201 8.8006859
14130000000 -28.601969 -131.61302 -54.338924 148.32622 -55.523869 173.26689 -22.948713 9.9769135
14140000000 -27.467421 -139.44963 -52.34351 123.28214 -53.745876 140.73082 -23.370417 9.2656183
14150000000 -30.326672 -146.88492 -52.13163 81.101196 -54.397175 93.513313 -24.019777 7.3971453
14160000000 -29.616693 -139.94511 -51.267696 43.889145 -53.664135 54.025974 -24.555656 5.7593303
14170000000 -31.718399 -136.91312 -52.958649 9.7949696 -55.936737 13.744769 -24.803854 4.5809946
14180000000 -28.950788 -129.92245 -51.035885 -19.265091 -54.421432 -17.978432 -25.201435 5.1400232
14190000000 -28.341221 -139.03612 -51.385506 -59.32233 -55.284264 -58.216625 -26.002558 8.1253967
14200000000 -26.708403 -145.39784 -52.577503 -80.58786 -54.015068 -73.55027 -27.197847 15.335249
14210000000 -27.024944 -160.05956 -50.903236 -103.69196 -52.275146 -107.02692 -28.677433 26.114128
14220000000 -27.157856 -162.70195 -49.643585 -139.97583 -50.83176 -143.16724 -29.921848 39.084629
14230000000 -27.951481 -171.47482 -49.471886 -162.57005 -50.664051 -167.80998 -30.858467 53.08493
14240000000 -27.67008 -162.65553 -48.576805 163.16884 -48.955128 161.95456 -30.470989 69.970963
14250000000 -27.520254 -172.01244 -48.944309 134.72362 -49.141514 126.02805 -28.93041 82.745377
14260000000 -28.136545 -169.72426 -48.186298 109.92416 -49.172424 101.81337 -26.977432 91.199364
14270000000 -28.165869 -171.12415 -48.310848 83.746223 -48.424442 74.729767 -25.267689 95.994804
14280000000 -28.591949 -168.57443 -48.594151 57.000404 -48.812958 51.411854 -23.922857 99.071861
14290000000 -28.066582 -169.28827 -47.263603 35.063576 -47.572784 30.548431 -22.678654 99.321861
14300000000 -27.491585 -167.67462 -47.537354 3.3190849 -47.774372 -3.8046865 -21.713757 97.158722
14310000000 -26.441179 -176.72331 -46.692829 -17.822355 -46.861996 -21.136551 -20.729366 94.615021
14320000000 -26.996603 175.70824 -47.474903 -49.865936 -47.585056 -54.833603 -19.690008 92.005608
14330000000 -26.59984 168.91809 -47.19434 -72.2677 -46.856205 -76.719284 -18.642147 89.835922
14340000000 -28.55756 164.15053 -48.213417 -97.757118 -47.832802 -101.28397 -17.698978 88.295387
14350000000 -29.04006 174.45592 -47.661861 -121.10904 -47.532158 -127.18877 -16.953028 86.758003
14360000000 -29.008419 -176.79282 -47.65654 -137.61876 -48.042709 -140.38326 -16.392023 85.488083
14370000000 -27.155035 -179.56195 -46.733898 -166.1395 -46.762489 -167.81332 -16.013117 83.679955
14380000000 -27.97682 174.48766 -46.814243 169.07809 -46.73811 168.14503 -15.701944 81.576942
14390000000 -27.456726 175.24635 -47.05418 139.63425 -46.67799 139.2934 -15.357439 78.728767
14400000000 -28.173239 173.94464 -47.275604 117.79418 -46.620632 116.83029 -15.003817 75.51976
14410000000 -27.337673 170.9502 -48.280231 94.38652 -47.11042 89.15226 -14.635762 72.396317
14420000000 -28.033768 168.21867 -47.646061 69.392944 -46.702705 67.392982 -14.280252 69.904633
14430000000 -27.525127 164.25858 -48.954155 41.243248 -47.945595 34.890564 -13.988518 67.432426
14440000000 -29.598455 165.59796 -49.201973 22.450006 -48.913265 14.308118 -13.820464 65.306129
14450000000 -27.753681 175.70811 -49.191994 7.5269103 -49.435188 5.8650031 -13.641407 63.354137
14460000000 -28.534903 175.63847 -48.589417 -22.864752 -48.796783 -23.572269 -13.474285 61.220982
14470000000 -26.890276 179.05475 -48.901691 -46.481632 -48.57045 -43.418503 -13.322891 58.796654
14480000000 -26.785116 177.00601 -50.223389 -78.794006 -49.643852 -74.514915 -13.298915 57.027122
14490000000 -26.401909 173.21747 -51.611237 -96.77388 -50.113358 -93.604988 -13.352204 55.729885
14500000000 -27.344067 174.75957 -52.970039 -118.60577 -51.152462 -119.24989 -13.481625 54.866142
14510000000 -26.596319 172.24768 -53.753036 -131.81006 -52.803368 -139.16092 -13.5516 53.337959
14520000000 -28.310492 175.6123 -55.696331 -147.65973 -55.118614 -144.16602 -13.634276 51.056946
14530000000 -26.852144 178.11426 -54.859406 -156.07617 -52.532623 -153.7504 -13.654011 48.774822
14540000000 -27.263735 -177.48778 -53.778564 -165.09415 -52.070953 -173.66957 -13.640601 47.595806
14550000000 -25.38633 179.12013 -52.10989 161.36816 -50.310425 155.24129 -13.522292 47.579933
14560000000 -25.815313 179.159 -53.339653 127.46742 -50.48011 121.48219 -13.400692 47.570858
14570000000 -24.210764 176.51616 -58.703751 83.727493 -53.911057 79.649986 -13.388412 47.504208
14580000000 -24.869364 173.45221 -61.04631 133.47852 -59.161758 84.147644 -13.445189 47.208748
14590000000 -24.164358 172.17784 -56.208324 141.20155 -57.929291 117.25416 -13.463892 47.03331
14600000000 -24.624866 173.24506 -51.581837 100.77637 -53.739651 89.52404 -13.42777 46.432835
14610000000 -24.06291 172.26706 -51.210743 60.959591 -51.674534 57.311211 -13.377356 46.180412
14620000000 -24.924534 175.91212 -52.741154 23.932261 -51.576065 15.838163 -13.32787 45.864304
14630000000 -23.654034 175.71698 -59.189484 17.674513 -58.14893 -15.62377 -13.318182 45.642582
14640000000 -23.540415 175.69255 -58.05563 48.432915 -61.685181 22.359591 -13.284714 44.693195
14650000000 -22.485025 174.28014 -51.242081 30.4781 -54.474571 30.010773 -13.187473 43.457924
14660000000 -22.044186 167.49481 -49.04702 -0.96744591 -50.244476 1.3507679 -13.055135 41.526543
14670000000 -22.351227 163.77666 -47.445145 -34.673515 -48.158772 -38.030815 -12.916186 40.308411
14680000000 -22.505033 162.37019 -48.430626 -63.289967 -49.023186 -64.836464 -12.719466 39.485615
14690000000 -22.541115 163.82509 -48.684338 -88.950958 -49.218166 -88.180367 -12.585797 39.079582
14700000000 -22.275658 163.94157 -49.63847 -97.824966 -49.318638 -102.46209 -12.48383 38.5275
14710000000 -21.920319 166.77718 -47.339973 -117.26543 -47.807796 -125.30407 -12.479299 37.594769
14720000000 -21.624346 163.36411 -45.589615 -139.78511 -46.766968 -147.11081 -12.560167 36.476154
14730000000 -21.233469 162.99725 -45.352451 -171.7852 -46.760483 -171.77019 -12.666803 34.988029
14740000000 -20.725632 157.60959 -45.339157 163.85716 -46.023918 161.41338 -12.864467 33.255524
14750000000 -20.672224 155.2827 -45.993561 142.87563 -47.205708 146.4697 -13.05541 31.610115
14760000000 -20.598469 149.27916 -44.687538 122.2305 -44.880524 125.26479 -13.13494 29.982342
14770000000 -21.254381 147.79939 -44.408676 98.097954 -44.495216 98.900795 -13.135451 27.982813
14780000000 -20.916628 146.33206 -44.175652 68.254997 -44.431568 67.941643 -13.217718 26.653435
14790000000 -21.271366 146.83212 -44.585094 50.644501 -45.001293 48.7673 -13.275507 26.384449
14800000000 -20.996725 148.83377 -44.862053 28.834299 -45.329876 27.859625 -13.408624 25.994452
14810000000 -20.676235 149.4115 -44.327423 10.797424 -44.932056 11.874252 -13.650486 25.968998
14820000000 -19.919117 147.15683 -43.923279 -14.761065 -44.144688 -11.304474 -13.859301 26.048357
14830000000 -19.910599 143.72975 -43.218845 -36.920361 -43.068298 -35.273804 -14.054478 25.873138
14840000000 -19.704004 138.0063 -43.861946 -63.447765 -43.625622 -63.405895 -14.28541 25.731771
14850000000 -20.699734 134.40523 -43.721466 -85.489693 -43.489059 -85.082664 -14.511968 26.4977
14860000000 -20.663694 134.81818 -44.516331 -104.59847 -44.297642 -106.4571 -14.729948 26.881927
14870000000 -21.326759 131.9198 -43.979118 -125.99983 -43.855965 -130.13585 -15.033947 27.282551
14880000000 -21.021393 132.10922 -43.454399 -141.23076 -43.767258 -144.00349 -15.288993 26.51095
14890000000 -21.380678 131.47005 -42.775986 -169.50179 -42.918537 -168.79378 -15.467304 26.137417
14900000000 -20.582691 131.2589 -43.030296 169.47305 -42.877773 169.56261 -15.349686 25.977802
14910000000 -20.690447 128.66991 -42.529175 143.9176 -42.564449 143.29382 -15.166204 26.446791
14920000000 -20.029573 125.24686 -42.714916 123.56301 -42.428631 123.26517 -15.111398 28.096733
14930000000 -20.700478 122.00136 -43.30991 100.37318 -42.959267 98.006523 -15.22102 30.943169
14940000000 -20.545897 121.26606 -42.985855 81.963982 -42.701962 78.753136 -15.395543 33.679897
14950000000 -21.48315 118.10322 -42.574413 61.572372 -42.714809 58.593552 -15.577448 35.372368
14960000000 -21.601576 118.87168 -41.789719 37.80545 -41.738892 36.419273 -15.707198 35.648388
14970000000 -22.681187 121.02567 -41.875919 13.215157 -41.971512 10.897206 -15.846897 36.000378
14980000000 -22.298809 123.33748 -42.057896 -9.9074125 -41.807568 -9.7826662 -15.87622 37.827682
14990000000 -22.26021 123.62275 -41.568913 -32.771046 -41.192276 -34.893482 -15.776813 39.698971
15000000000 -21.499369 118.62318 -42.27874 -57.507332 -41.991642 -60.595642 -15.685247 40.720207
15010000000 -22.317825 113.46372 -41.820026 -79.351196 -41.748421 -80.47039 -15.663264 40.725765
15020000000 -22.499485 111.39822 -42.66766 -103.41443 -42.371006 -106.22617 -15.586396 40.165768
15030000000 -23.20085 109.69971 -42.827545 -117.10183 -42.323574 -120.20734 -15.275446 40.177402
15040000000 -23.286177 111.70601 -41.481926 -139.15839 -41.436649 -142.01964 -14.8138 41.308754
15050000000 -24.074953 112.30635 -41.48671 -169.10396 -44.937405 -157.08899 -14.290915 42.887794
15060000000 -23.913568 120.9775 -41.502998 169.1376 -44.328358 178.23398 -13.99926 44.315758
15070000000 -23.734337 119.46626 -41.347305 145.63838 -44.226898 147.51253 -13.964685 45.029648
15080000000 -23.436964 121.39675 -41.713219 120.25701 -44.878433 124.14078 -14.103155 45.576511
15090000000 -23.891863 116.08553 -41.657501 100.77447 -45.131523 100.80667 -14.100993 45.159363
15100000000 -24.268776 120.02239 -41.512028 73.979065 -45.462372 79.638031 -13.968002 43.989151
15110000000 -24.76894 117.45978 -42.349987 51.764236 -46.533112 59.31139 -13.739919 42.416676
15120000000 -24.854994 122.78912 -42.110527 32.544674 -45.58812 42.498051 -13.554201 40.903374
15130000000 -24.987354 117.74564 -42.045818 9.9885025 -45.644058 23.278812 -13.511106 39.775761
15140000000 -25.320704 125.01021 -41.861763 -12.074731 -44.271637 -4.1282206 -13.452116 39.20052
15150000000 -24.717827 125.63671 -42.143101 -37.957531 -44.84938 -28.893173 -13.222199 38.491253
15160000000 -24.220627 127.00979 -42.089272 -58.240471 -44.383205 -54.283985 -12.99183 37.387547
15170000000 -24.117455 123.91367 -42.062225 -81.952637 -44.877441 -78.287407 -12.854826 36.420967
15180000000 -24.088581 126.50703 -42.499138 -106.48144 -46.068493 -104.59743 -12.937493 36.310318
15190000000 -23.731529 127.79053 -43.227104 -129.31238 -45.809742 -118.44261 -13.06714 36.930607
15200000000 -23.412825 128.06583 -43.518887 -144.05284 -45.904778 -141.26184 -13.158765 37.068775
15210000000 -23.112597 123.15058 -42.932137 -163.12401 -45.057365 -161.38934 -13.248292 35.553844
15220000000 -23.935482 125.12205 -42.265198 176.28961 -44.964703 172.40291 -13.463515 33.162571
15230000000 -23.604399 124.57573 -41.453209 149.11539 -44.796604 146.04735 -13.729747 31.630722
15240000000 -24.072412 125.56848 -42.077492 120.87803 -45.660095 116.74303 -13.839923 31.392254
15250000000 -23.555269 126.90269 -43.204151 100.77651 -46.679012 96.390312 -13.79353 31.362808
15260000000 -23.544376 127.73619 -42.948273 86.019058 -47.180706 82.203651 -13.637491 30.643883
15270000000 -22.515007 127.86781 -42.561699 61.997944 -46.63567 57.517113 -13.629745 29.696976
15280000000 -22.17532 121.92088 -42.685829 39.469891 -46.907784 36.519012 -13.777631 30.321716
15290000000 -21.826439 116.88851 -42.668285 17.474976 -46.821354 13.624826 -13.840298 32.490883
15300000000 -22.772917 111.11575 -42.888382 -5.9419241 -46.783646 -12.067842 -13.867862 34.412086
15310000000 -23.094572 113.33598 -42.757507 -27.466923 -47.613213 -30.96661 -13.999442 34.98925
15320000000 -23.791039 113.0429 -43.150391 -54.894722 -46.839413 -56.420021 -14.249312 35.127911
15330000000 -23.305674 118.44675 -43.687775 -82.70533 -47.492737 -80.75296 -14.434683 35.098999
15340000000 -23.468019 115.92651 -45.427513 -108.65216 -47.870602 -111.87814 -14.509309 35.019707
15350000000 -22.797123 119.1678 -46.797951 -126.35604 -49.210819 -131.20685 -14.453093 34.979996
15360000000 -22.60659 112.78476 -47.111233 -140.89539 -50.642681 -152.85197 -14.433349 35.117344
15370000000 -22.155178 110.33775 -48.115871 -164.26805 -50.670872 -162.03688 -14.404905 35.427963
15380000000 -22.677616 99.740524 -47.999603 -176.31653 -50.580849 178.17963 -14.33519 35.100529
15390000000 -23.371187 98.851875 -48.135685 156.44289 -50.314423 155.81488 -14.208054 34.800682
15400000000 -24.531939 93.698959 -48.855045 128.48618 -49.534252 134.31047 -13.989546 34.8932
15410000000 -24.841217 100.03464 -50.2099 108.60889 -50.03072 97.593689 -13.776445 35.689655
15420000000 -25.766607 98.70903 -51.958282 90.973015 -52.004417 71.388824 -13.702289 36.929596
15430000000 -24.938351 107.92609 -52.754555 84.525749 -54.412525 47.391308 -13.783087 38.531128
15440000000 -24.600424 101.81257 -53.014225 70.649399 -58.287781 50.331383 -13.970869 38.975895
15450000000 -23.94722 99.450874 -50.714565 54.051903 -56.459732 46.916534 -14.224435 38.213623
15460000000 -24.673758 87.321564 -51.02562 27.295612 -53.925804 27.353544 -14.363727 36.638233
15470000000 -25.403446 86.812584 -50.140438 3.1135972 -53.238937 -6.1017537 -14.346082 35.002506
15480000000 -26.881367 75.584625 -51.092377 -17.379629 -54.312252 -25.140873 -14.24317 34.115154
15490000000 -28.063019 82.853157 -52.209702 -39.134068 -56.960503 -49.555775 -14.188668 34.167274
15500000000 -29.449778 74.322464 -52.002819 -58.882877 -57.123123 -66.607368 -14.155609 34.844887
15510000000 -30.654255 89.838089 -53.588356 -71.841408 -58.92057 -77.634193 -14.137182 35.740414
15520000000 -30.870171 87.438896 -51.349506 -72.312256 -57.457855 -41.469456 -14.090305 36.344936
15530000000 -29.583521 96.851952 -49.643482 -96.886108 -53.246899 -83.610321 -14.065024 37.053188
15540000000 -29.904222 81.508743 -48.602501 -125.8776 -52.629162 -114.72832 -14.109417 37.986034
15550000000 -30.55591 83.781319 -48.81081 -155.04601 -51.744965 -147.86285 -14.21196 39.633553
15560000000 -32.21616 63.381008 -50.127102 -179.22328 -54.69553 -179.76605 -14.323094 41.182308
15570000000 -35.592659 71.801941 -51.610172 168.017 -54.868816 172.8667 -14.388061 42.123005
15580000000 -39.045826 38.555382 -51.188473 161.97514 -57.728714 176.93356 -14.472281 41.846664
15590000000 -46.844627 117.75406 -48.552273 146.76564 -53.494034 159.42474 -14.592821 41.331768
15600000000 -51.602249 161.78354 -46.998348 111.8221 -51.272449 127.65805 -14.608454 40.983261
15610000000 -40.44619 169.62813 -47.621719 80.836029 -50.880016 90.814827 -14.480272 40.600044
15620000000 -45.802017 152.54727 -49.881187 57.632309 -52.607628 55.968437 -14.302742 40.507942
15630000000 -42.524658 176.36562 -51.178539 49.053608 -55.929966 47.006428 -14.060659 40.883575
15640000000 -48.323532 -145.32198 -50.570164 38.914371 -54.830566 36.118042 -13.830555 41.469448
15650000000 -39.503616 -139.75999 -48.915928 21.834402 -54.254181 25.079126 -13.750107 42.612679
15660000000 -39.110985 -116.00919 -48.396042 -9.3266258 -52.796917 -11.429087 -13.766939 44.24477
15670000000 -33.06929 -128.34215 -49.890957 -34.885117 -54.613308 -31.250902 -13.845667 45.573193
15680000000 -32.275993 -127.04694 -52.712482 -49.218323 -56.692993 -51.864197 -13.932029 45.938145
15690000000 -28.959354 -136.13785 -50.907677 -47.597408 -56.301693 -41.505928 -13.978054 45.472546
15700000000 -29.102158 -147.31694 -49.100685 -71.742805 -52.487675 -60.026585 -14.023422 44.742485
15710000000 -28.169603 -146.78918 -48.583542 -99.677422 -51.444496 -108.20806 -14.03989 44.97604
15720000000 -28.95153 -152.47209 -50.259262 -123.22627 -56.667797 -128.30074 -13.986782 46.121071
15730000000 -28.031322 -145.4585 -50.279144 -136.48518 -54.574417 -126.37768 -13.879431 46.977642
15740000000 -28.691339 -144.96733 -50.751686 -152.01135 -54.36285 -141.9568 -13.737711 46.737976
15750000000 -26.503614 -139.30396 -49.486042 -167.95184 -53.41716 -162.08324 -13.579528 46.141155
15760000000 -26.538122 -142.74219 -48.709812 168.1042 -52.051998 176.27615 -13.335574 46.427624
15770000000 -24.854103 -142.75436 -48.610317 145.65213 -53.265289 160.32199 -12.984997 47.744827
15780000000 -25.113007 -149.84485 -48.710697 123.71807 -51.633263 136.63519 -12.671556 49.886581
15790000000 -24.033695 -148.28072 -48.811359 112.27304 -50.996761 125.56548 -12.491139 51.728531
15800000000 -24.200544 -155.66042 -46.952381 91.235588 -49.313766 99.954971 -12.458601 52.995132
15810000000 -23.454454 -151.41719 -45.816044 59.617527 -48.76004 69.952858 -12.480757 52.620678
15820000000 -23.864344 -156.14191 -46.533173 34.3843 -49.613049 46.40107 -12.501303 51.27837
15830000000 -23.106873 -151.69324 -46.873859 15.593436 -49.040844 27.469921 -12.355371 49.746452
15840000000 -23.283457 -154.09335 -46.705753 -2.3440297 -49.180859 4.2606125 -12.095299 48.244774
15850000000 -22.407084 -149.82043 -45.376076 -23.751581 -48.512966 -14.92543 -11.816773 47.181042
15860000000 -22.492765 -153.06007 -44.936638 -45.566273 -48.977715 -31.708826 -11.525928 46.346169
15870000000 -21.808588 -151.57913 -44.535229 -73.348801 -47.642094 -54.015114 -11.266939 45.438477
15880000000 -22.025986 -155.89865 -44.449703 -93.450294 -46.806396 -78.587242 -11.02284 44.431183
15890000000 -21.596558 -154.26375 -44.374355 -120.65688 -46.848709 -102.64108 -10.796735 43.868061
15900000000 -21.870808 -158.06923 -44.596443 -140.24728 -46.60844 -126.10864 -10.58345 43.550819
15910000000 -21.357218 -153.08896 -44.605061 -162.98299 -47.41853 -152.62741 -10.433599 43.17543
15920000000 -21.107159 -156.5773 -44.454414 176.58159 -47.018715 -170.32379 -10.391456 42.453857
15930000000 -20.531776 -154.40247 -44.624153 153.36385 -47.105644 168.66335 -10.421698 41.381912
15940000000 -20.343433 -157.50552 -44.60957 134.02452 -46.861973 147.12825 -10.48794 39.797016
15950000000 -19.889534 -155.38927 -44.810875 112.71448 -46.86277 126.76506 -10.502913 37.926674
15960000000 -19.867481 -157.4801 -44.203201 96.305336 -45.814793 108.77462 -10.457458 35.564857
15970000000 -19.546041 -155.22858 -43.305729 69.907257 -44.872124 82.400276 -10.403112 32.979042
15980000000 -19.575245 -156.9808 -43.178726 41.872372 -44.936607 55.267643 -10.312514 30.694324
15990000000 -19.170256 -153.98944 -44.034115 16.29883 -45.319256 27.107172 -10.187926 28.980806
16000000000 -19.006386 -156.33937 -44.246754 -3.8411179 -46.337357 8.738616 -10.086153 28.116426
16010000000 -18.797615 -153.43353 -44.895916 -24.25028 -46.487175 -9.9118652 -9.9904366 27.690784
16020000000 -18.59561 -155.90994 -43.925465 -41.807419 -45.963955 -25.556927 -10.023469 26.897484
16030000000 -18.249256 -153.51701 -43.143475 -64.979431 -44.542931 -51.36755 -10.203659 25.727045
16040000000 -17.738749 -156.2117 -43.447475 -91.177948 -44.885509 -76.224937 -10.475207 24.313795
16050000000 -17.401392 -155.41458 -43.31498 -116.80569 -44.86499 -103.77253 -10.638969 22.734335
16060000000 -17.017378 -156.99203 -44.21954 -139.56061 -45.699142 -124.30769 -10.72692 20.457548
16070000000 -16.80176 -155.75301 -44.249699 -153.66518 -45.226864 -145.43839 -10.842573 18.239473
16080000000 -16.405827 -156.91225 -43.996716 -176.76518 -45.467678 -172.30965 -11.046765 16.342215
16090000000 -16.070492 -157.05907 -43.665173 163.30067 -45.494476 171.16154 -11.267916 14.762981
16100000000 -15.769694 -158.89093 -43.692524 140.48387 -45.610687 146.89641 -11.408005 13.255008
16110000000 -15.666287 -158.41859 -43.697212 118.75584 -45.086235 124.61726 -11.420052 11.921534
16120000000 -15.380843 -159.60309 -43.890392 98.631447 -45.060123 97.874077 -11.355814 10.930725
16130000000 -15.252345 -159.36427 -43.653408 74.334091 -45.637856 74.587395 -11.399482 11.072739
16140000000 -14.993588 -160.44553 -44.022709 52.902191 -45.753803 52.735992 -11.588683 12.209686
16150000000 -14.688974 -160.89433 -43.984131 29.10442 -45.823715 29.087385 -11.921612 13.430634
16160000000 -14.304072 -162.05017 -44.746952 4.7167182 -46.326733 5.231144 -12.287221 13.568351
16170000000 -13.9219 -161.88858 -45.363834 -15.683002 -47.428848 -16.490116 -12.672215 12.132345
16180000000 -13.569472 -163.35123 -45.789719 -38.040127 -47.211754 -35.315239 -12.929884 10.006526
16190000000 -13.378045 -163.77161 -45.968086 -60.056099 -47.085468 -58.665562 -13.078618 7.8791971
16200000000 -13.115065 -164.98808 -46.07748 -85.292618 -47.153133 -83.392899 -13.144665 6.9217315
16210000000 -12.913713 -165.32397 -47.86805 -110.67233 -48.042213 -108.47845 -13.182766 6.1965575
16220000000 -12.626189 -166.09471 -48.155258 -125.89442 -48.078232 -132.1188 -13.253555 5.4895215
16230000000 -12.357875 -166.44392 -48.57431 -149.4653 -49.0951 -155.12889 -13.28282 4.7882595
16240000000 -12.130526 -167.29567 -49.224998 -175.31606 -49.913574 -176.19666 -13.31738 4.7554379
16250000000 -11.901684 -168.29469 -50.215984 163.19324 -49.798676 158.32182 -13.28541 5.8550997
16260000000 -11.658313 -170.43788 -51.184464 137.14061 -51.224106 131.85068 -13.301298 7.3565092
16270000000 -11.39584 -172.65755 -53.524414 115.10717 -53.054558 112.00617 -13.459393 8.4137745
16280000000 -11.202864 -174.37918 -53.963524 98.278 -53.336201 89.890266 -13.858702 8.3457222
16290000000 -10.989923 -175.04475 -56.619518 57.314808 -56.763012 63.246563 -14.325301 7.3566165
16300000000 -10.809369 -175.54071 -63.258366 51.848835 -59.331829 58.908962 -14.613099 5.386622
16310000000 -10.598874 -176.48164 -65.965645 52.121445 -61.360329 48.436661 -14.682222 2.8446
16320000000 -10.414043 -177.10165 -62.234791 68.70948 -60.850273 52.920422 -14.663846 0.27059478
16330000000 -10.107729 -178.61171 -60.479313 31.172277 -60.54694 33.724812 -14.727657 -1.541396
16340000000 -9.9222593 -179.70648 -64.850632 8.6846008 -70.581818 26.3892 -14.805648 -2.6813953
16350000000 -9.7339745 179.02812 -65.63797 73.030701 -60.117584 63.084351 -14.887521 -3.3078966
16360000000 -9.6263523 178.15184 -57.520878 62.22538 -55.645733 53.753788 -14.888019 -3.3724091
16370000000 -9.5800428 176.41486 -53.515476 29.772167 -53.604805 22.916191 -14.947998 -3.4028342
16380000000 -9.477747 175.31442 -51.286964 7.0315285 -51.157593 -1.2391733 -15.275632 -2.9558723
16390000000 -9.3047132 173.46318 -49.95612 -26.95685 -50.619801 -25.334812 -15.84829 -2.6005516
16400000000 -9.1043463 172.92868 -49.80183 -44.040348 -49.190742 -48.621178 -16.560991 -3.1256499
16410000000 -8.8529692 171.75859 -49.058918 -67.310837 -48.955154 -75.879578 -17.158195 -5.1404443
16420000000 -8.6338987 171.50267 -48.843658 -84.279793 -47.902775 -94.219948 -17.561481 -8.4247971
16430000000 -8.4312868 169.9222 -48.07275 -109.08727 -47.259602 -122.83419 -17.877176 -11.31755
16440000000 -8.3186064 168.83656 -48.094086 -127.00948 -47.177868 -144.60721 -18.216496 -12.441324
16450000000 -8.1909094 167.20825 -47.216522 -149.41756 -46.237011 -163.41995 -18.668507 -12.413986
16460000000 -8.0672865 166.47388 -46.160076 -176.201 -45.342117 170.63541 -19.153339 -11.686037
16470000000 -7.9674592 165.53294 -45.773914 156.49649 -44.212513 144.95992 -19.429607 -10.753931
16480000000 -7.8414011 165.11111 -45.911587 126.95439 -44.353333 114.85003 -19.592438 -9.39114
16490000000 -7.7482147 163.73068 -46.32246 101.00045 -44.421017 91.873428 -19.728994 -6.026464
16500000000 -7.6436424 162.91588 -46.628643 76.530807 -44.412907 71.887535 -20.139631 -0.68964684
16510000000 -7.4593506 161.27058 -46.866055 52.202766 -43.859421 46.294075 -20.805035 6.0521107
16520000000 -7.2880712 160.32935 -46.822014 32.80138 -44.318218 25.754669 -21.625402 11.711148
16530000000 -7.1040754 158.94449 -46.003487 7.6221871 -43.334251 0.2178359 -22.496025 13.242775
16540000000 -6.9853182 158.54016 -46.393768 -12.729385 -43.787292 -22.383873 -22.973421 10.413359
16550000000 -6.864089 157.53995 -45.569721 -37.811226 -43.387043 -45.206161 -23.089783 6.8254209
16560000000 -6.764533 156.92526 -45.204708 -64.815201 -42.82785 -72.058464 -22.92767 6.9171171
16570000000 -6.6200657 155.92491 -46.277447 -90.526939 -43.836113 -97.05423 -22.6926 10.409925
16580000000 -6.4425864 155.19447 -46.367886 -107.84581 -43.489372 -119.46059 -22.492664 13.454209
16590000000 -6.284112 154.22482 -46.890907 -131.8694 -44.130638 -141.79144 -22.539957 15.415826
16600000000 -6.1202769 153.32603 -47.013096 -150.41121 -43.872597 -163.48265 -22.61429 16.091669
16610000000 -6.0113106 151.88324 -47.575348 -176.7009 -44.223675 174.07265 -22.690914 19.255672
16620000000 -5.9088078 150.72556 -47.935898 168.62816 -44.395073 153.98062 -22.401608 24.691187
16630000000 -5.780592 149.43764 -47.257286 144.44087 -43.738815 133.22052 -22.264605 31.021158
16640000000 -5.608716 148.241 -47.42794 119.07648 -43.832008 108.15304 -22.53977 37.542252
16650000000 -5.4252381 147.16045 -47.661919 94.840195 -43.890724 85.845772 -23.268879 43.473392
16660000000 -5.2254667 146.31445 -48.564079 71.069099 -44.471825 60.697803 -24.000011 47.733486
16670000000 -5.0430083 145.35316 -48.521843 49.761547 -44.351261 39.967686 -24.355932 47.090275
16680000000 -4.8993287 144.4684 -49.266582 29.297136 -45.222977 18.45439 -24.05179 44.161366
16690000000 -4.750948 143.47949 -49.074528 8.1547966 -45.203239 -0.36045113 -23.353397 41.899632
16700000000 -4.6276231 142.18332 -48.884922 -8.671772 -45.207611 -19.162954 -22.492342 43.149151
16710000000 -4.5100193 140.90779 -48.206028 -28.644943 -44.706276 -42.180069 -21.751726 46.249817
16720000000 -4.3835392 139.59554 -48.576332 -51.225815 -44.986439 -63.440353 -21.022234 50.012871
16730000000 -4.236073 138.27818 -48.439419 -73.521347 -44.916077 -85.8955 -20.41745 51.998825
16740000000 -4.091723 137.0163 -48.953224 -93.899445 -44.966614 -103.77143 -20.064856 53.016514
16750000000 -3.9235377 135.80699 -48.981297 -117.42712 -44.623238 -126.87334 -19.828217 53.979885
16760000000 -3.7591667 134.42795 -49.414845 -139.09563 -44.64497 -150.83853 -19.737803 54.802711
16770000000 -3.6044674 133.20151 -48.986366 -157.28668 -45.17844 -167.84624 -19.680563 55.271832
16780000000 -3.4734008 131.89983 -48.568283 175.51236 -44.571522 169.89546 -19.674627 54.543419
16790000000 -3.3404069 130.70172 -48.644711 154.01396 -44.404774 148.41859 -19.651566 51.280128
16800000000 -3.2327733 129.32149 -48.251499 130.97569 -44.12735 125.12334 -19.740023 46.145119
16810000000 -3.1066437 128.10214 -47.979572 107.71636 -43.815868 102.0052 -19.74515 41.321308
16820000000 -2.9893658 126.47134 -48.154572 84.688866 -43.939713 79.370232 -19.535234 37.542564
16830000000 -2.8748274 125.10365 -48.10828 60.600689 -43.798912 55.224117 -19.111347 35.004742
16840000000 -2.7481685 123.49788 -48.41127 42.475292 -43.935318 33.0243 -18.654705 33.185959
16850000000 -2.6170301 122.01064 -48.021214 21.370092 -44.068306 10.380591 -18.425556 32.490494
16860000000 -2.5064862 120.3914 -47.368767 0.80982846 -44.026768 -10.740683 -18.497318 33.294121
16870000000 -2.3799245 119.0258 -47.148251 -22.938194 -43.903301 -32.530815 -18.783812 34.85379
16880000000 -2.2694519 117.47039 -46.517895 -47.934628 -43.332333 -55.192116 -19.34539 35.749664
16890000000 -2.1495245 116.20839 -46.843803 -75.637146 -43.517944 -82.613831 -20.051247 34.439629
16900000000 -2.0403955 114.80997 -47.372509 -99.254066 -43.797836 -106.437 -20.932564 30.739332
16910000000 -1.9351211 113.49612 -48.118088 -124.34545 -44.239731 -128.73477 -21.79767 26.427244
16920000000 -1.8557385 112.05991 -48.217598 -145.10815 -44.098171 -149.23355 -22.36577 22.916565
16930000000 -1.7656627 110.65149 -48.480118 -168.32202 -44.095039 -173.09149 -22.631887 20.349195
16940000000 -1.692848 109.00123 -48.398079 166.92041 -43.952892 162.50645 -22.876854 18.860119
16950000000 -1.6140519 107.40929 -48.559151 143.76381 -44.194172 138.04147 -23.305471 19.604633
16960000000 -1.5327159 105.64657 -48.253757 119.14708 -44.186302 111.79034 -23.831797 22.794582
16970000000 -1.4441756 103.99979 -48.425674 95.77977 -44.757217 87.689644 -24.286581 30.173637
16980000000 -1.3532833 102.35218 -48.313183 72.253441 -45.081585 63.092083 -24.570967 38.769314
16990000000 -1.2538511 100.79819 -48.739075 46.226402 -45.603687 38.931744 -24.755808 48.168686
17000000000 -1.1662967 99.255959 -49.414452 23.451675 -46.30759 16.718777 -25.0065 57.810421
