!Keysight Technologies,P9374A,MY57211807,A.19.30.04
!Date: Friday, May 08, 2026 14:32:58
!Correction: S11(C  2-Port  ) 
!S21(C  2-Port  ) 
!S12(C  2-Port  ) 
!S22(C  2-Port  ) 
!S2P File: Measurements: S11, S21, S12, S22:
# Hz S  dB   R 50
13000000000 -19.154791 60.337044 -44.146564 126.82141 -44.454731 124.97823 -8.6776857 23.279156
13010000000 -19.031763 60.64497 -42.801369 110.03518 -43.092968 108.81954 -8.7350302 19.463758
13020000000 -19.193602 61.331356 -41.990749 89.50811 -42.200726 88.91053 -8.8870916 15.837206
13030000000 -19.119226 61.933979 -41.348633 62.324123 -41.522915 61.912525 -9.0659723 12.460386
13040000000 -19.608835 60.507793 -41.88168 38.794968 -42.088497 38.39439 -9.2282352 9.4079142
13050000000 -19.804689 63.197529 -42.490452 20.335308 -42.875824 19.922375 -9.467042 6.2963996
13060000000 -19.887104 63.278938 -42.312023 7.4222045 -42.411865 9.9474821 -9.8170071 3.3024533
13070000000 -19.874012 62.86005 -40.901474 -10.899625 -40.820717 -8.8190126 -10.245726 0.48676524
13080000000 -19.85907 63.758018 -39.809086 -35.548946 -39.718884 -34.804955 -10.72094 -2.4535327
13090000000 -19.610567 61.704491 -39.593231 -63.460258 -39.646847 -62.638531 -11.166902 -5.3149619
13100000000 -19.718618 61.476791 -40.118935 -86.000374 -40.035557 -84.273003 -11.554931 -7.7194738
13110000000 -19.492638 61.278217 -40.346931 -103.0107 -40.114956 -101.22539 -11.938483 -9.8249407
13120000000 -19.634554 61.279926 -39.438877 -122.4077 -39.055653 -121.92924 -12.428438 -11.558506
13130000000 -19.376457 60.839828 -38.726768 -146.11621 -38.457397 -146.18443 -13.010222 -13.071618
13140000000 -19.508757 62.12701 -38.651363 -171.70422 -38.370438 -171.37517 -13.692126 -14.673655
13150000000 -19.24983 60.384365 -38.939312 165.45428 -38.587757 165.46584 -14.332782 -15.680514
13160000000 -19.691467 61.243732 -39.142204 148.87039 -38.618862 148.17267 -14.85543 -16.065964
13170000000 -19.518955 61.032639 -38.260735 128.78839 -37.784233 127.15044 -15.332936 -15.759656
13180000000 -19.577423 60.936031 -37.350849 105.49688 -36.966324 102.81628 -15.900078 -15.399532
13190000000 -19.270031 59.684948 -36.946709 78.686432 -36.68837 76.329742 -16.778088 -14.410975
13200000000 -19.12764 57.76033 -36.778252 53.290169 -36.583172 50.782673 -17.803528 -12.74473
13210000000 -18.922287 54.993778 -37.210831 28.626968 -36.880348 26.45299 -18.752293 -11.166759
13220000000 -19.206799 51.846279 -37.190899 8.1270466 -36.962948 4.8745313 -19.336357 -9.4751844
13230000000 -19.32196 50.596382 -37.187729 -13.719886 -37.070358 -16.89926 -19.712179 -7.0165486
13240000000 -19.765631 51.323986 -36.892006 -34.702026 -36.847214 -37.996441 -19.979673 -3.1824608
13250000000 -19.688347 52.413254 -36.474892 -58.58131 -36.581005 -61.523495 -20.43395 3.7895107
13260000000 -19.635906 55.516224 -36.118889 -82.873886 -36.181293 -85.187759 -20.888086 13.435038
13270000000 -19.080914 53.0648 -36.253796 -108.49126 -36.248043 -110.99217 -21.144529 22.877981
13280000000 -19.001982 51.307419 -36.381653 -132.01797 -36.492069 -135.07185 -21.2117 29.887699
13290000000 -18.973358 46.29002 -36.533035 -154.71701 -36.710899 -157.59998 -21.142368 33.846718
13300000000 -19.223196 43.639149 -36.550697 -177.22484 -36.820099 -179.51729 -20.799528 37.57634
13310000000 -19.657528 39.5578 -36.536274 160.40251 -36.828316 158.74423 -19.992994 41.6227
13320000000 -20.033226 38.701958 -36.339325 136.66774 -36.489479 135.11064 -19.057592 45.738304
13330000000 -20.570131 38.445347 -36.504665 112.53951 -36.764832 111.58221 -18.267111 49.010056
13340000000 -20.340973 42.32748 -36.551994 89.467796 -36.76606 88.972542 -17.673405 51.578354
13350000000 -20.311005 40.35915 -36.728302 65.005783 -36.969456 64.706749 -17.266888 52.323689
13360000000 -19.932095 42.795616 -36.767952 43.899815 -36.888386 44.110516 -16.832478 51.509323
13370000000 -19.56715 38.441822 -36.589233 19.909653 -36.729771 19.453846 -16.206877 49.489483
13380000000 -19.444429 34.914577 -36.850422 -4.9647989 -36.997356 -4.6092467 -15.360367 47.540493
13390000000 -20.078003 29.27231 -37.160603 -29.203106 -37.254688 -28.408897 -14.538527 45.849251
13400000000 -20.36153 28.380083 -37.536686 -52.45586 -37.663422 -51.13295 -13.905276 45.164406
13410000000 -21.262079 22.644876 -37.820808 -72.65078 -37.674633 -71.840073 -13.459559 45.001377
13420000000 -22.109638 25.700371 -37.689091 -96.707375 -37.572124 -95.71769 -13.182698 44.06179
13430000000 -22.637747 26.323395 -37.823772 -122.75364 -37.6661 -121.44785 -12.9312 42.088192
13440000000 -22.314615 31.673227 -38.39946 -146.35068 -38.140606 -144.42805 -12.751283 38.852535
13450000000 -21.699453 30.328014 -39.094879 -169.38684 -38.605675 -168.36353 -12.497303 35.350685
13460000000 -21.028131 28.417505 -39.364815 170.23186 -38.891003 170.10791 -12.227262 32.187492
13470000000 -21.091175 21.325788 -39.787834 145.45041 -39.346561 145.21811 -11.987428 29.595596
13480000000 -21.188444 16.859995 -40.228817 124.51406 -39.638191 123.61386 -11.836672 27.316381
13490000000 -22.401737 8.9142208 -40.619736 102.15802 -40.189404 100.53253 -11.765953 25.11734
13500000000 -23.553251 10.018282 -41.052139 79.610138 -40.511185 77.922142 -11.825917 22.697622
13510000000 -24.975534 12.788644 -41.847927 55.349716 -41.253292 52.824852 -11.920946 20.403467
13520000000 -25.227253 21.359245 -43.167641 37.364685 -42.60603 33.239868 -12.03632 18.268276
13530000000 -24.890732 23.531096 -43.683983 20.897532 -43.220379 16.152151 -12.179582 16.616392
13540000000 -23.836636 23.671778 -43.949539 3.7621238 -43.802612 -2.4869432 -12.337764 14.827214
13550000000 -23.472105 17.724583 -44.114216 -11.881362 -44.173969 -19.573973 -12.60447 13.29925
13560000000 -23.212681 10.902184 -43.836727 -32.594986 -44.21838 -38.374641 -12.911288 11.956128
13570000000 -24.385817 4.8093033 -43.820473 -55.53175 -44.320255 -59.842308 -13.19663 10.797043
13580000000 -24.88179 2.5743129 -45.364182 -70.179451 -46.036079 -75.539085 -13.369132 9.9789085
13590000000 -27.127771 0.4881953 -44.943981 -88.180359 -45.69725 -90.039993 -13.517825 9.3978262
13600000000 -27.701368 12.481511 -45.138287 -102.49225 -45.869728 -103.02007 -13.607161 9.6785059
13610000000 -28.084391 22.818932 -44.500282 -115.78572 -45.045803 -112.69661 -13.671441 10.63608
13620000000 -27.284807 24.85033 -43.392609 -136.81949 -43.562042 -134.02991 -13.758635 11.741847
13630000000 -26.714315 28.16197 -42.565517 -156.43095 -42.625446 -154.38742 -13.86674 12.729151
13640000000 -25.79497 19.152052 -41.698406 179.81325 -41.752426 -178.17595 -13.926624 13.776585
13650000000 -26.355776 12.611244 -41.329414 154.19609 -41.275948 155.30453 -13.89614 13.824382
13660000000 -26.573128 4.9829102 -41.548172 130.31648 -41.503021 131.79199 -13.823356 13.733957
13670000000 -28.300566 1.3359393 -42.14521 109.25192 -41.872272 112.48717 -13.61653 13.188049
13680000000 -29.555395 1.7571248 -41.682716 92.897858 -41.273651 93.681602 -13.380144 12.927954
13690000000 -31.49567 18.465139 -40.788273 73.174156 -40.195034 73.729294 -13.080235 12.282199
13700000000 -29.705494 34.035133 -39.682533 48.284176 -39.325439 47.469406 -12.894393 11.38257
13710000000 -27.645998 37.569267 -39.460293 19.646297 -38.970058 19.327454 -12.686469 10.257329
13720000000 -26.194481 31.408257 -39.474899 -5.1096177 -39.001629 -7.0440516 -12.553185 8.1908035
13730000000 -26.036589 22.995634 -39.508858 -31.9002 -39.088238 -33.927273 -12.430887 6.0404963
13740000000 -26.359188 13.103981 -39.994308 -53.844669 -39.524277 -57.030334 -12.348519 3.7837298
13750000000 -28.163231 3.5502994 -39.95636 -78.472977 -39.82 -82.181694 -12.242674 1.6029983
13760000000 -30.408264 4.6004739 -39.896107 -98.684456 -39.768105 -101.79376 -12.319834 -0.82176411
13770000000 -32.531582 16.803408 -39.718128 -125.84416 -39.522327 -129.05333 -12.468353 -2.8995693
13780000000 -31.201073 31.309694 -39.661579 -150.89149 -39.547203 -155.63144 -12.700688 -6.0605974
13790000000 -28.831821 34.534458 -39.921207 -177.66374 -39.94244 177.84723 -13.014297 -9.3495941
13800000000 -27.106079 27.430361 -40.606308 155.68553 -40.714848 151.61929 -13.256262 -13.032943
13810000000 -26.099003 17.536568 -41.427479 134.54953 -41.922199 130.69409 -13.477898 -15.937806
13820000000 -26.25782 5.2936687 -41.601215 112.57589 -41.874813 108.06779 -13.740854 -18.452482
13830000000 -26.944998 3.3549767 -41.985229 87.247887 -42.583061 83.570969 -14.14202 -19.656069
13840000000 -27.202997 -6.5090823 -42.694466 61.660812 -43.502304 58.578106 -14.601235 -20.609114
13850000000 -29.470263 -5.3119016 -44.100868 37.663719 -45.003635 37.889481 -15.210632 -21.816097
13860000000 -29.923479 -3.2037778 -44.985374 22.782833 -45.536579 23.296904 -15.892924 -22.976559
13870000000 -30.386953 6.2164907 -45.282063 2.9114568 -46.012497 4.7817516 -16.514658 -23.419363
13880000000 -29.922201 8.6226902 -45.023346 -16.793653 -45.538136 -13.946451 -17.082848 -23.205088
13890000000 -28.254507 7.6951652 -45.389996 -46.018833 -46.450897 -41.963421 -17.737589 -22.321547
13900000000 -27.528419 -0.38513336 -47.315052 -71.080276 -47.458324 -60.724842 -18.437845 -19.757004
13910000000 -26.68675 -5.2371278 -50.103012 -82.986107 -49.425949 -72.856796 -19.109116 -17.221779
13920000000 -26.222792 -19.701704 -49.898193 -84.649223 -48.680893 -80.942184 -19.6504 -14.804411
13930000000 -27.102148 -31.191832 -48.641914 -99.868134 -47.939796 -99.480751 -19.964672 -12.411689
13940000000 -28.311222 -43.872608 -48.735622 -115.05042 -47.609535 -113.53342 -19.981916 -9.4940729
13950000000 -31.179502 -51.141777 -47.496288 -135.85828 -46.021343 -135.6963 -19.783979 -6.2734241
13960000000 -34.090302 -47.571308 -47.137665 -156.22424 -45.42281 -160.75885 -19.667685 -1.9747311
13970000000 -34.791317 -22.027231 -46.981522 179.43806 -46.182934 170.84373 -19.415081 2.7493227
13980000000 -31.443104 -18.449396 -47.327377 160.39908 -46.670197 152.50874 -19.240536 7.1544356
13990000000 -28.734457 -28.247076 -46.695477 145.50777 -46.365711 138.04216 -19.055281 9.2533398
14000000000 -27.081402 -46.212608 -46.227531 125.63491 -45.77644 118.50439 -19.143211 10.200443
14010000000 -26.208906 -60.787331 -44.995556 101.03744 -45.03606 90.287422 -19.253796 10.431529
14020000000 -26.231567 -76.731285 -44.829685 76.942993 -45.240719 69.780075 -19.315714 10.748823
14030000000 -27.484392 -90.22731 -44.981182 49.747406 -45.745556 42.753475 -19.222834 10.710991
14040000000 -29.827312 -99.782143 -45.166847 32.004345 -45.943752 29.53895 -19.167246 10.008687
14050000000 -32.529251 -90.470856 -44.856941 13.794495 -45.214245 10.23595 -19.137442 9.4227552
14060000000 -34.027592 -79.928886 -43.827438 -11.064405 -44.610275 -16.255676 -19.255219 8.9100761
14070000000 -32.237335 -65.366257 -43.798534 -40.929993 -44.637768 -44.02742 -19.377602 8.6422672
14080000000 -30.857609 -74.635483 -44.463844 -66.009865 -45.524376 -67.049896 -19.601147 8.2495117
14090000000 -29.435322 -80.107109 -45.632919 -83.795654 -46.652752 -81.562508 -19.541704 9.4596233
14100000000 -27.914017 -99.706429 -44.919029 -98.200165 -45.255211 -95.503815 -19.463377 8.9225464
14110000000 -27.710945 -112.46458 -44.069992 -120.971 -44.595524 -119.73347 -19.375902 9.6973286
14120000000 -27.50935 -127.50578 -43.846519 -146.58589 -44.257286 -143.90717 -19.496502 9.8134756
14130000000 -27.81657 -135.97778 -43.573887 -170.23349 -44.192574 -167.6936 -19.804213 11.769019
14140000000 -28.47204 -145.80115 -44.340691 166.68439 -44.243324 171.54889 -20.155222 12.79834
14150000000 -30.261532 -147.50502 -43.379368 147.95778 -43.455658 148.77907 -20.407406 13.379593
14160000000 -31.232927 -141.48047 -42.991821 121.13406 -43.091618 123.69809 -20.565052 11.227398
14170000000 -31.229275 -132.60103 -42.647022 96.166161 -42.927597 98.984344 -20.877254 10.034861
14180000000 -30.402702 -128.67575 -43.169247 69.860298 -43.112911 75.489899 -21.119104 11.717372
14190000000 -28.237999 -129.09589 -43.070293 48.644451 -42.562576 52.425591 -21.372139 15.031334
14200000000 -26.536562 -141.24492 -42.830341 25.713839 -42.656372 27.975943 -21.656126 19.294182
14210000000 -26.055019 -153.47377 -42.483765 -0.53680199 -42.170597 2.4343281 -22.192129 23.814684
14220000000 -26.114456 -164.91518 -42.60424 -24.6502 -42.052227 -21.997822 -22.78553 28.437925
14230000000 -26.404696 -174.58949 -42.491253 -51.814777 -41.973003 -50.069794 -23.305002 33.801311
14240000000 -27.867559 178.4989 -42.895023 -76.844826 -42.458744 -74.189247 -23.514851 40.63306
14250000000 -29.519115 -176.81721 -43.279465 -100.66185 -42.271366 -95.835716 -23.152447 47.912735
14260000000 -30.400885 -166.58862 -43.007446 -125.33292 -41.891975 -125.67905 -22.546556 53.711132
14270000000 -28.848991 -153.94162 -43.565685 -147.21745 -42.620392 -148.24002 -22.191092 58.457615
14280000000 -27.604084 -159.99339 -42.892925 -173.25471 -42.052299 -173.3871 -21.639236 63.803173
14290000000 -26.483644 -163.12572 -43.207241 161.86868 -42.101246 161.19426 -20.984921 66.336731
14300000000 -26.151173 -174.30597 -43.304802 135.15991 -42.202255 133.17824 -20.238047 67.038376
14310000000 -26.090471 177.92551 -43.695793 110.18456 -42.640999 105.91751 -19.425627 66.426239
14320000000 -27.116381 166.63126 -43.800064 88.161545 -43.035843 82.495117 -18.561489 66.581596
14330000000 -27.684807 168.19339 -43.946247 64.387619 -43.086105 59.305542 -17.656544 67.121078
14340000000 -28.950974 164.54005 -43.440563 38.564056 -42.710739 33.292767 -16.876184 67.736748
14350000000 -29.442623 176.16147 -43.599602 12.494366 -42.85677 4.2522326 -16.265345 67.803436
14360000000 -29.590311 -177.08841 -43.643143 -16.540756 -43.284138 -24.951714 -15.872848 67.753548
14370000000 -27.738607 -172.54041 -44.502079 -44.232925 -44.21347 -53.130978 -15.545094 67.301826
14380000000 -27.225397 -177.90266 -45.05875 -64.153976 -44.904823 -74.303383 -15.221601 65.968758
14390000000 -26.375143 178.08148 -45.030815 -87.033913 -45.377937 -97.040192 -14.865705 63.931221
14400000000 -26.639965 170.33974 -44.276718 -109.98547 -44.872005 -118.03414 -14.500961 61.681774
14410000000 -26.732275 161.97455 -43.905689 -138.97888 -44.262077 -146.46791 -14.132892 59.25806
14420000000 -28.569878 157.45122 -43.951576 -168.65192 -44.223446 -178.28699 -13.790444 57.510536
14430000000 -29.292761 161.46645 -44.841885 158.44899 -45.631477 148.64078 -13.481552 55.87233
14440000000 -30.696527 170.18398 -45.886341 137.54912 -47.260571 126.39896 -13.247665 54.182716
14450000000 -28.642904 -174.60646 -46.051987 113.53903 -47.529472 105.465 -13.087571 52.935616
14460000000 -27.491716 -175.60164 -46.674297 87.166397 -48.780464 80.850975 -12.891885 51.450436
14470000000 -25.89658 -178.41298 -46.671021 66.748802 -48.493099 63.918217 -12.745631 49.748932
14480000000 -25.631445 176.44975 -46.651272 35.953037 -48.712006 32.281658 -12.667281 48.371761
14490000000 -25.65626 167.06932 -47.386944 10.610582 -49.58662 11.594028 -12.718328 47.296856
14500000000 -27.262625 167.10266 -48.476349 -13.787167 -50.76955 -12.398918 -12.806584 46.619267
14510000000 -27.494656 164.88565 -48.819614 -28.850758 -51.19062 -23.511391 -12.827403 45.128147
14520000000 -29.449112 178.72331 -48.92503 -54.349682 -51.393799 -41.508919 -12.919187 43.144215
14530000000 -28.075645 -177.13091 -48.799995 -78.280472 -50.112743 -61.09687 -12.878745 41.480049
14540000000 -26.680679 -169.22322 -49.309383 -104.13891 -50.212761 -88.921051 -12.766665 40.430294
14550000000 -25.04501 -177.43423 -50.050747 -123.53669 -50.923248 -106.49859 -12.618993 39.97131
14560000000 -24.545086 -179.2215 -50.70039 -143.62395 -50.771431 -121.2254 -12.586712 40.12709
14570000000 -23.956219 171.83215 -52.15984 -156.9886 -49.90144 -134.10791 -12.539578 40.603722
14580000000 -24.261732 170.68196 -49.864632 -169.87486 -47.668118 -160.17625 -12.570408 40.400864
14590000000 -24.567051 164.19859 -48.619015 167.32422 -46.813789 175.15611 -12.561104 40.147556
14600000000 -25.525183 172.19168 -48.013721 133.84166 -46.093163 143.16408 -12.55285 39.228649
14610000000 -25.287773 172.98677 -49.128311 108.28464 -46.695255 114.87222 -12.526239 39.080849
14620000000 -24.868876 -177.93987 -49.858482 98.570648 -47.211441 96.900322 -12.516298 39.069309
14630000000 -23.879223 -179.60161 -48.761627 82.349487 -46.444462 79.00811 -12.448476 38.999638
14640000000 -22.664885 179.90634 -46.662037 62.883053 -44.959358 55.567719 -12.368596 37.990673
14650000000 -22.121584 172.49745 -46.206963 33.583389 -44.623165 28.866783 -12.299047 36.625103
14660000000 -21.514585 167.62834 -44.722122 8.7747984 -43.588982 -0.13070871 -12.191615 35.05365
14670000000 -22.205328 159.95946 -45.148308 -20.175121 -44.001602 -28.110523 -12.02024 34.242195
14680000000 -22.134865 160.2099 -44.702465 -40.87344 -43.933968 -50.394245 -11.820341 33.653419
14690000000 -23.207914 157.2612 -44.998646 -65.919624 -44.163673 -76.683342 -11.68815 33.281445
14700000000 -23.030394 166.18141 -44.180355 -84.134834 -44.231022 -95.468758 -11.621219 32.958614
14710000000 -22.613159 168.24176 -42.834797 -109.38238 -42.966461 -118.68637 -11.630323 32.337505
14720000000 -21.541197 169.09384 -42.514286 -138.40453 -42.995911 -145.8157 -11.678522 31.403854
14730000000 -20.874201 165.84177 -42.31921 -166.39555 -42.30547 -172.92902 -11.780727 30.038759
14740000000 -20.01152 159.25934 -42.524895 166.76215 -42.945995 158.64124 -11.933236 28.359268
14750000000 -20.376705 152.04051 -42.676662 145.76866 -43.45248 138.65854 -12.083645 26.905758
14760000000 -20.358076 147.41022 -42.669586 124.77943 -43.413929 120.23645 -12.143255 25.526522
14770000000 -21.411036 142.97359 -41.663147 96.980858 -42.329193 93.106453 -12.116969 24.043354
14780000000 -21.475616 145.59282 -41.948284 71.466248 -42.77343 67.265182 -12.081562 22.790848
14790000000 -21.970016 148.14993 -41.90184 47.356346 -42.895657 44.540241 -12.113605 22.171339
14800000000 -20.992937 152.12233 -41.951729 24.130959 -43.059399 22.769819 -12.240537 21.839054
14810000000 -20.560802 152.41696 -42.097317 1.6549431 -42.719601 2.9586871 -12.442706 21.876469
14820000000 -19.510288 148.51591 -42.241184 -21.161821 -43.028637 -20.954521 -12.585795 21.947001
14830000000 -19.620941 143.23608 -41.630737 -41.533085 -42.385757 -38.634258 -12.722426 21.611198
14840000000 -19.412184 137.46384 -41.372414 -68.251755 -41.885307 -64.778061 -12.846464 21.229494
14850000000 -20.37591 132.17313 -41.639492 -92.634056 -41.964336 -88.338806 -13.054322 21.344357
14860000000 -20.698759 130.53827 -41.554962 -117.69297 -41.837814 -114.29414 -13.286718 21.64143
14870000000 -21.755827 128.85529 -42.077736 -136.59293 -42.188034 -132.88087 -13.530966 21.806168
14880000000 -21.849792 131.92044 -41.437157 -158.58241 -41.500248 -154.58743 -13.72353 20.575619
14890000000 -21.759951 135.42712 -41.357811 179.70341 -41.151577 -176.15851 -13.851963 19.588327
14900000000 -20.695446 134.05144 -40.655262 156.19696 -40.411633 159.16595 -13.791093 19.025047
14910000000 -20.280334 132.76723 -40.976067 130.75247 -40.470798 133.48799 -13.676096 19.886396
14920000000 -19.609522 125.40327 -40.588593 110.76652 -40.125381 111.68383 -13.605775 21.496012
14930000000 -20.190214 121.61365 -40.650822 84.482903 -40.270969 84.631752 -13.720886 23.693384
14940000000 -20.383503 116.39812 -40.549355 65.12957 -40.232994 65.958122 -13.893356 25.435976
14950000000 -21.582785 116.04553 -39.983608 40.988148 -39.583469 40.937702 -14.129268 26.093111
14960000000 -22.243052 115.07429 -39.923943 16.484188 -39.54044 16.253223 -14.35358 26.007217
14970000000 -23.154049 123.93636 -39.662418 -7.4546075 -39.294735 -7.6403122 -14.539565 26.597532
14980000000 -22.566765 123.88022 -39.54509 -29.447428 -39.02327 -30.945036 -14.572092 28.153538
14990000000 -22.22868 127.27625 -39.140041 -54.624512 -38.91074 -57.328701 -14.544521 29.433601
15000000000 -21.629034 119.85291 -39.235928 -80.617302 -39.036427 -81.698326 -14.590085 29.972162
15010000000 -21.782383 117.69353 -39.479332 -103.95293 -39.153461 -104.94513 -14.66408 29.955469
15020000000 -21.943953 108.92525 -39.117771 -126.55551 -38.818527 -128.99762 -14.521473 29.507029
15030000000 -22.923187 108.80703 -39.33503 -150.81145 -39.117691 -153.49025 -14.281307 29.209927
15040000000 -23.603626 106.16 -38.958744 -172.49733 -38.838051 -174.18338 -13.957254 30.654596
15050000000 -24.312174 113.37624 -38.643429 160.20613 -38.591805 158.58517 -13.631495 32.987881
15060000000 -24.779613 116.23063 -39.089027 137.83279 -39.030029 135.95412 -13.415641 35.159122
15070000000 -24.113148 124.8636 -38.880981 112.95779 -38.839806 110.5124 -13.40259 36.021362
15080000000 -23.824415 122.98035 -38.769119 87.839737 -38.841908 85.638298 -13.540212 36.3316
15090000000 -23.343655 123.87812 -38.700439 62.084229 -38.734402 59.828018 -13.59553 35.600845
15100000000 -23.603327 118.30904 -39.50914 36.200455 -39.643627 34.241371 -13.577529 34.897758
15110000000 -23.815191 117.84806 -39.555882 15.971378 -39.677311 14.18965 -13.394862 34.127037
15120000000 -24.679119 114.86674 -39.721336 -8.3449354 -39.819672 -9.6388788 -13.221308 33.279991
15130000000 -25.000257 114.8404 -39.705875 -30.343313 -39.637196 -31.688194 -13.094363 32.282555
15140000000 -26.161476 119.51021 -39.576912 -55.519859 -39.607861 -57.355892 -13.012552 31.37455
15150000000 -25.49419 127.48044 -39.507355 -81.030869 -39.766659 -83.352592 -12.852882 30.949062
15160000000 -25.142698 130.88013 -40.177868 -107.63002 -40.373962 -107.98441 -12.642599 30.490692
15170000000 -23.796679 133.06367 -40.568771 -128.94453 -40.680977 -129.80269 -12.522017 30.504671
15180000000 -23.163658 129.0415 -40.656258 -155.70482 -40.810963 -155.57907 -12.504447 30.848799
15190000000 -22.676575 125.34337 -41.342133 179.94923 -41.331696 179.72615 -12.598454 31.053637
15200000000 -23.160782 120.81738 -42.347546 157.96864 -42.379623 157.10925 -12.774323 30.63983
15210000000 -23.502232 118.56871 -42.564621 139.66148 -42.73381 137.36815 -12.986801 29.697165
15220000000 -24.703604 120.62949 -42.81345 118.33505 -42.872944 117.42829 -13.160239 28.443226
15230000000 -24.68189 125.68983 -42.184715 97.210014 -42.450066 96.383553 -13.241879 27.044458
15240000000 -24.525915 132.87999 -42.324722 66.230942 -42.734501 65.90271 -13.301505 25.852861
15250000000 -23.301418 132.45688 -43.485073 42.549332 -43.805443 44.710869 -13.310751 24.992826
15260000000 -22.605349 130.06966 -44.29789 20.906612 -44.432369 21.620655 -13.314292 24.687666
15270000000 -22.022215 124.98608 -45.154251 3.2683461 -45.274929 2.6477237 -13.257395 25.047268
15280000000 -21.791475 118.42752 -45.539776 -19.097023 -45.887386 -15.951637 -13.249359 26.072947
15290000000 -22.274538 113.29032 -46.481567 -32.869728 -46.089836 -32.21368 -13.240528 27.537369
15300000000 -22.861689 110.41756 -45.395355 -50.827217 -45.383617 -50.975227 -13.364914 28.640327
15310000000 -23.765152 111.60854 -45.867039 -75.649475 -46.156803 -75.952438 -13.625535 29.466
15320000000 -23.941498 116.11818 -45.61866 -94.415222 -45.643894 -91.928528 -13.878673 30.353521
15330000000 -23.703878 119.97408 -46.116642 -121.66022 -46.006741 -119.89904 -13.982408 30.435965
15340000000 -22.959988 119.61368 -47.259895 -137.02736 -46.781387 -135.31628 -14.047639 29.838108
15350000000 -22.570599 118.83796 -46.697708 -154.20798 -46.392487 -155.65082 -14.061395 29.775742
15360000000 -22.052488 112.44499 -46.527344 -171.3235 -46.246346 -170.71045 -14.06361 29.871782
15370000000 -22.333481 107.36572 -45.369934 165.39026 -45.278656 164.29338 -14.029087 30.256092
15380000000 -22.320499 100.01458 -45.536144 139.56973 -45.38287 140.30203 -13.917704 30.01889
15390000000 -23.734158 94.870247 -46.196392 118.58597 -45.725227 118.24215 -13.778341 29.804445
15400000000 -24.499212 93.835052 -45.928745 104.18595 -45.362526 103.09387 -13.581576 30.114285
15410000000 -25.663099 98.018074 -45.050903 77.974373 -44.638874 76.566612 -13.374239 31.436787
15420000000 -25.881348 102.61885 -44.733112 57.250446 -44.349457 54.066948 -13.293853 32.888271
15430000000 -25.257645 108.61098 -44.847076 28.196287 -44.777901 27.215179 -13.371809 34.302536
15440000000 -24.197355 104.69395 -45.11879 7.7642946 -44.781242 5.7294264 -13.60099 34.770317
15450000000 -24.103386 99.242104 -45.421196 -13.393662 -45.291389 -16.774212 -13.841948 34.201664
15460000000 -23.970575 90.615807 -44.898979 -33.717094 -44.921947 -36.100147 -13.954453 32.489716
15470000000 -25.078207 82.593513 -44.392063 -56.709499 -44.364468 -57.637959 -13.948209 30.514902
15480000000 -26.403181 73.789734 -43.85762 -80.065941 -43.4758 -81.57225 -13.892053 29.675915
15490000000 -29.001736 74.992012 -43.259644 -108.23656 -42.805996 -111.92145 -13.735708 29.758974
15500000000 -30.203733 78.429588 -43.914337 -135.76141 -43.729153 -141.62466 -13.671654 30.107969
15510000000 -31.142536 93.793114 -44.010639 -160.06729 -44.228024 -164.74644 -13.637856 30.98378
15520000000 -30.178297 95.387787 -44.980232 175.32109 -45.108456 172.96202 -13.591771 31.628851
15530000000 -29.178198 96.033905 -44.677723 158.40253 -44.63723 153.64449 -13.602184 32.472515
15540000000 -29.113535 83.08564 -44.630985 132.09781 -45.045616 127.74571 -13.635725 33.747429
15550000000 -30.293159 77.929443 -44.871937 111.92468 -45.207283 109.02197 -13.727947 34.969639
15560000000 -31.518356 65.100708 -44.583534 86.249031 -44.805347 83.486885 -13.870198 36.269947
15570000000 -35.108261 58.308506 -44.492382 62.691669 -44.919575 58.585274 -14.007774 36.846081
15580000000 -39.609608 34.947716 -44.181084 36.222847 -44.761112 31.388117 -14.156333 36.672138
15590000000 -51.804459 101.00091 -44.384457 7.8266215 -45.156414 5.0647044 -14.250904 35.847549
15600000000 -52.69857 -149.78951 -45.377987 -16.337019 -46.248653 -18.599569 -14.302503 35.037613
15610000000 -39.748299 -175.17073 -45.978073 -40.931179 -46.854889 -39.670818 -14.17828 34.64735
15620000000 -40.487556 178.38095 -46.319778 -58.883022 -47.135426 -57.735207 -13.967159 34.599129
15630000000 -38.69043 166.40698 -46.052799 -81.01783 -46.658478 -79.832344 -13.686573 34.785698
15640000000 -46.323555 168.5938 -45.895081 -105.63056 -46.699295 -106.36713 -13.529739 35.37912
15650000000 -47.181278 -144.58752 -46.49435 -131.25975 -47.62714 -125.69074 -13.481493 36.915474
15660000000 -38.047768 -101.11815 -46.395523 -148.76959 -47.313675 -143.47815 -13.491044 38.579094
15670000000 -33.805103 -117.26722 -46.146511 -171.16756 -46.582539 -164.78868 -13.611276 39.638863
15680000000 -30.188946 -120.69167 -45.837502 159.83389 -45.929504 168.43402 -13.740709 39.894157
15690000000 -28.480978 -139.06645 -46.316628 132.82782 -46.239628 137.39638 -13.849125 39.3876
15700000000 -27.824703 -147.21497 -46.601654 110.15771 -46.678425 116.35233 -13.945151 38.668186
15710000000 -28.200457 -157.028 -47.955097 84.458504 -48.082161 92.928795 -14.004244 38.644112
15720000000 -28.809586 -156.43643 -47.616974 74.501953 -46.974937 82.378479 -14.004978 39.250713
15730000000 -29.849335 -149.27254 -47.221878 51.766453 -46.07328 57.267563 -13.971953 39.547062
15740000000 -28.568771 -138.09175 -45.825951 30.365936 -44.95113 31.760359 -13.876801 39.410046
15750000000 -27.141953 -136.11063 -45.316257 -0.73579609 -44.508556 3.0458107 -13.701149 39.212029
15760000000 -25.585741 -138.10258 -45.610439 -27.756472 -44.606182 -24.86726 -13.452055 39.577923
15770000000 -24.674137 -144.16757 -46.231125 -55.452206 -44.898144 -54.204643 -13.161723 41.159756
15780000000 -24.387098 -148.63538 -46.662075 -75.890419 -45.387123 -78.393906 -12.961811 43.551048
15790000000 -24.029476 -154.16344 -46.651566 -94.800087 -45.721664 -98.446404 -12.86529 46.07542
15800000000 -24.291283 -155.47968 -46.051903 -115.2103 -45.041157 -118.17683 -12.894149 47.556999
15810000000 -24.116411 -155.2892 -45.105682 -141.21461 -44.101238 -145.55165 -13.009229 47.665565
15820000000 -24.052811 -153.98459 -45.155373 -170.42044 -44.314957 -175.81415 -13.082941 46.511364
15830000000 -23.519785 -151.23849 -45.118027 167.46527 -44.214668 160.08765 -12.988028 45.087101
15840000000 -23.184439 -150.21703 -44.821033 141.91736 -44.370796 133.36826 -12.80988 43.53091
15850000000 -22.616623 -149.63625 -44.330299 116.96754 -43.780704 109.1178 -12.542993 43.077492
15860000000 -22.064341 -149.72858 -44.622318 90.280579 -44.430107 81.847206 -12.188387 42.562771
15870000000 -21.619524 -152.9935 -44.121891 66.445557 -44.25032 57.422283 -11.890794 41.967724
15880000000 -21.581152 -155.03317 -44.374302 39.907684 -44.494789 30.315685 -11.633013 41.357819
15890000000 -21.479507 -157.25053 -44.843391 15.798512 -45.238819 7.1943784 -11.422857 41.143982
15900000000 -21.806124 -159.15541 -44.882652 -0.57636023 -45.553226 -8.5664959 -11.225835 41.4198
15910000000 -21.883352 -156.78531 -43.649517 -25.587067 -44.586437 -31.914495 -11.084795 41.675312
15920000000 -21.352722 -154.56647 -43.131985 -53.63541 -44.080456 -59.589924 -11.008574 41.625648
15930000000 -20.899937 -154.08966 -42.992268 -80.265717 -43.915455 -84.036049 -10.992933 40.883507
15940000000 -20.297075 -152.96443 -42.837959 -107.67315 -43.688263 -112.09311 -11.076375 39.225414
15950000000 -19.606985 -154.91333 -43.334358 -134.84381 -44.705223 -137.69992 -11.15342 37.313133
15960000000 -19.553101 -157.93263 -43.822361 -158.02118 -44.961411 -157.21606 -11.148462 35.256489
15970000000 -19.533068 -157.57402 -43.644299 -178.0658 -44.516903 -175.25325 -11.023827 32.888664
15980000000 -19.668713 -156.98358 -43.108261 159.43382 -43.594337 160.52386 -10.85472 30.529259
15990000000 -19.451124 -154.09767 -42.488293 135.25121 -43.196991 133.92287 -10.694413 28.915928
16000000000 -19.144827 -153.75609 -42.52113 102.99084 -43.724571 107.27245 -10.540842 28.275496
16010000000 -18.659458 -153.23235 -43.300789 83.087601 -43.492237 89.823112 -10.429495 27.984739
16020000000 -18.320065 -154.92819 -42.892506 59.035778 -42.885048 61.846996 -10.466204 27.765471
16030000000 -18.01366 -155.53442 -42.656212 35.544037 -42.834667 38.099716 -10.584868 26.966259
16040000000 -17.737583 -156.50244 -42.805599 10.321644 -42.981705 14.851196 -10.792274 25.437492
16050000000 -17.498758 -157.61937 -42.67662 -13.943871 -42.384216 -9.9430828 -10.994474 23.498152
16060000000 -17.286877 -156.65846 -42.530151 -37.531254 -42.154583 -35.459404 -11.166551 21.254736
16070000000 -16.824835 -156.53157 -42.509666 -64.711555 -42.316936 -62.379826 -11.31581 19.277822
16080000000 -16.493078 -156.87604 -43.1539 -87.857285 -42.702595 -83.956833 -11.460176 17.587547
16090000000 -16.226715 -157.2776 -43.387833 -108.95243 -42.336266 -107.52657 -11.593445 15.606496
16100000000 -15.995333 -157.31564 -43.106949 -129.81633 -42.268936 -131.94331 -11.704107 13.521926
16110000000 -15.742393 -157.6441 -42.297474 -153.51556 -41.63578 -155.5795 -11.734268 11.767573
16120000000 -15.424539 -157.63287 -42.550797 177.30721 -41.810444 175.43004 -11.749842 10.781087
16130000000 -15.05137 -159.01492 -42.777809 153.44431 -42.129356 150.63887 -11.794385 11.755624
16140000000 -14.791239 -159.71762 -43.232769 129.95317 -42.674683 127.21417 -11.883616 13.088742
16150000000 -14.492077 -162.03413 -43.501987 107.83464 -42.786736 103.18005 -12.186411 14.106732
16160000000 -14.387371 -162.20148 -43.713753 84.569885 -43.328518 79.133339 -12.614169 13.966671
16170000000 -13.953158 -162.61618 -43.792606 61.360447 -43.709167 56.405987 -13.113459 12.526079
16180000000 -13.688214 -163.10222 -44.202454 43.147171 -44.185932 37.880215 -13.479879 10.432288
16190000000 -13.29481 -163.60611 -43.55965 21.671871 -43.632587 16.459833 -13.64769 8.4391432
16200000000 -12.999162 -164.33356 -43.28957 -5.2919354 -43.296684 -10.301141 -13.698339 7.0478754
16210000000 -12.729424 -166.0273 -43.692371 -29.476604 -43.953342 -34.591946 -13.73944 6.0705471
16220000000 -12.632239 -166.57899 -44.111717 -53.590096 -44.623409 -58.132076 -13.818903 5.1495571
16230000000 -12.413533 -167.6424 -44.938011 -77.504654 -45.47625 -78.969986 -13.902737 4.770174
16240000000 -12.301597 -167.47253 -45.770111 -92.179077 -45.757778 -92.044556 -13.897491 5.0500484
16250000000 -11.965024 -168.78033 -45.314495 -109.75317 -45.403591 -112.60641 -13.866934 6.1337409
16260000000 -11.692285 -169.98091 -44.699589 -128.48949 -44.988621 -131.95703 -13.915729 7.8237147
16270000000 -11.31543 -172.22707 -44.69746 -152.77338 -45.020866 -152.74744 -14.143248 9.2617073
16280000000 -11.22562 -174.6096 -44.551453 -174.06767 -44.424561 -174.44472 -14.584277 9.9168034
16290000000 -11.057153 -175.42253 -44.498203 166.1221 -44.444595 165.0006 -15.103985 9.1410103
16300000000 -10.910851 -176.34964 -43.975494 142.55948 -44.050636 140.29486 -15.484498 7.0784497
16310000000 -10.721135 -176.40884 -44.252953 121.85053 -44.212967 121.37484 -15.633908 4.1459703
16320000000 -10.418986 -176.59062 -43.986374 98.057991 -43.842529 99.069832 -15.651576 1.5747986
16330000000 -10.066154 -177.49486 -43.73243 80.866005 -43.17968 79.233795 -15.649516 -0.28095457
16340000000 -9.8670607 -179.33237 -42.821083 56.807373 -42.733978 53.417179 -15.703404 -1.4809636
16350000000 -9.7370691 179.05396 -42.672153 30.695431 -42.723885 28.108231 -15.774294 -2.1684954
16360000000 -9.6682653 177.45122 -42.767624 7.4124875 -43.003654 5.7349572 -15.828933 -2.0378187
16370000000 -9.6144667 176.44145 -42.82222 -15.447267 -42.841248 -16.320284 -15.888207 -1.6633954
16380000000 -9.4661503 175.28943 -42.722553 -35.43824 -42.40086 -36.549049 -16.240267 -0.72632724
16390000000 -9.2798338 174.48488 -42.293957 -58.822056 -42.062023 -61.932072 -16.805918 -0.04938535
16400000000 -9.0426302 173.18199 -41.648064 -83.735062 -41.792522 -87.731941 -17.620598 -0.53710973
16410000000 -8.8609705 171.81746 -41.768677 -111.38007 -42.140041 -113.42235 -18.387417 -2.4233027
16420000000 -8.6941881 170.83144 -42.298912 -136.4539 -42.541969 -137.5547 -18.980707 -6.0251083
16430000000 -8.467412 170.06392 -42.791325 -157.07166 -43.033028 -157.86235 -19.40753 -9.4765968
16440000000 -8.3031187 168.94839 -42.550274 -178.78117 -42.397846 -179.5251 -19.804235 -10.907169
16450000000 -8.1455736 167.99625 -42.338085 157.30396 -42.475338 155.13161 -20.246481 -10.667345
16460000000 -8.0248394 166.87813 -42.409187 131.55704 -42.749134 131.78467 -20.771835 -10.146803
16470000000 -7.9226451 165.54652 -42.787228 109.297 -42.75922 110.34972 -21.220356 -8.9847736
16480000000 -7.9141359 164.32648 -42.70134 86.501122 -42.743519 85.181732 -21.468855 -6.5774069
16490000000 -7.8236341 163.8649 -43.088749 61.521305 -43.257374 60.702465 -21.616968 -1.517349
16500000000 -7.6816468 163.20781 -43.511642 38.868435 -43.81834 41.174355 -21.833124 5.7577515
16510000000 -7.4285846 162.19012 -43.804638 16.995031 -43.507141 20.136614 -22.487167 13.970747
16520000000 -7.2333984 160.98149 -44.323376 -4.5149088 -43.781197 -2.0612237 -23.489624 22.262245
16530000000 -6.9657593 159.24582 -44.265007 -22.273018 -43.546185 -23.948416 -24.675941 27.013508
16540000000 -6.9323692 157.72255 -44.176506 -48.519863 -43.900364 -49.658043 -25.59219 26.830814
16550000000 -6.8238106 156.97359 -44.766144 -69.437546 -44.412373 -68.86055 -25.714663 22.844982
16560000000 -6.7803788 156.38382 -44.610432 -90.436745 -43.983967 -91.754906 -25.192923 20.559225
16570000000 -6.6262455 156.11391 -45.05658 -114.98434 -44.442741 -116.30614 -24.735979 21.80364
16580000000 -6.482532 155.55734 -44.954937 -132.20888 -44.340767 -134.34033 -24.525049 25.848274
16590000000 -6.2541165 154.51863 -44.708397 -156.03612 -44.149616 -160.77669 -24.465593 29.53718
16600000000 -6.1354074 153.01804 -45.441086 179.88521 -45.079266 175.49565 -24.361174 32.74485
16610000000 -5.9847426 151.61765 -45.387589 164.39938 -45.067883 158.53601 -23.993279 36.01683
16620000000 -5.9259701 150.2495 -44.899567 143.57512 -44.919109 136.396 -23.453051 40.277512
16630000000 -5.7550731 149.32335 -44.357658 118.52821 -44.695717 112.95943 -23.221149 47.645557
16640000000 -5.6140575 148.3284 -44.813637 92.416801 -45.083786 87.474197 -23.12081 56.768116
16650000000 -5.4030871 147.40852 -45.12175 71.63131 -45.492702 65.880531 -23.447836 65.534073
16660000000 -5.2379198 146.19518 -45.283039 49.432728 -45.639687 45.641994 -23.933735 71.329124
16670000000 -5.0847235 145.18512 -45.261967 27.390455 -45.798916 22.621437 -24.466619 71.729073
16680000000 -4.9688549 144.26433 -45.063725 4.8598628 -45.651855 0.34293845 -24.597084 68.078056
16690000000 -4.8077354 143.49982 -44.996838 -24.480503 -46.112755 -26.807005 -24.009632 65.080963
16700000000 -4.6649637 142.45226 -46.141987 -48.229645 -47.191738 -46.698936 -22.795057 64.296524
16710000000 -4.4747205 141.32994 -46.713043 -67.100304 -47.263641 -65.545822 -21.698702 65.013733
16720000000 -4.3353629 139.80843 -46.861 -87.157196 -47.45208 -84.436203 -20.856306 66.852654
16730000000 -4.1863594 138.25656 -46.356781 -105.4745 -46.866199 -104.384 -20.202181 68.331116
16740000000 -4.0862489 136.84756 -46.268345 -134.55142 -46.842888 -132.94016 -19.736917 69.254105
16750000000 -3.9647551 135.63202 -47.178169 -156.66278 -47.55846 -151.90372 -19.303659 70.268944
16760000000 -3.8219235 134.5851 -47.259495 178.75333 -47.299843 -176.84753 -18.954941 71.4133
16770000000 -3.6401172 133.43201 -47.974136 155.27078 -48.162056 160.15346 -18.769257 71.089752
16780000000 -3.4811594 132.21867 -49.317917 133.45441 -48.750084 142.48872 -18.918943 70.181488
16790000000 -3.3257351 130.81747 -49.937363 120.42776 -49.158173 125.14372 -19.168034 67.960014
16800000000 -3.207804 129.43047 -49.396835 102.88754 -48.479912 105.14153 -19.384066 63.964157
16810000000 -3.0883167 128.00511 -48.837231 79.551064 -47.739395 79.887222 -19.360935 59.318283
16820000000 -2.9940507 126.5548 -48.798512 55.305115 -48.059082 53.636948 -19.117365 54.191132
16830000000 -2.8682184 125.05728 -49.288727 28.92926 -48.392395 26.804422 -18.741409 50.149288
16840000000 -2.7595103 123.58471 -49.680492 4.2285171 -48.864162 2.8002281 -18.376482 47.61322
16850000000 -2.6146839 121.9837 -51.338806 -17.208281 -50.341564 -20.613008 -18.12462 46.885494
16860000000 -2.5152843 120.40357 -51.665169 -31.134174 -50.561001 -35.729015 -18.003229 47.769341
16870000000 -2.3876827 119.02367 -51.543377 -48.311573 -50.256275 -57.472839 -18.055132 49.114815
16880000000 -2.2746503 117.64724 -50.96328 -70.252892 -50.883133 -79.627853 -18.55591 50.190228
16890000000 -2.1434135 116.32861 -50.815025 -96.459625 -50.961388 -105.62646 -19.272366 50.691334
16900000000 -2.033448 114.99464 -51.744202 -125.19998 -51.57888 -132.39178 -20.149773 49.167126
16910000000 -1.9155177 113.48631 -53.071053 -151.01767 -52.965912 -158.65123 -21.030226 45.88921
16920000000 -1.8490019 111.95277 -54.593849 -163.35751 -55.951691 -175.55876 -21.747782 41.811993
16930000000 -1.7698765 110.40032 -54.95084 177.62152 -56.316708 172.07054 -22.144638 38.797962
16940000000 -1.7116936 108.8734 -55.203022 165.64397 -56.366158 159.92078 -22.44083 37.070892
16950000000 -1.6217589 107.28922 -55.609463 144.52008 -56.818069 138.6143 -22.731499 38.337376
16960000000 -1.5391439 105.69948 -55.682655 123.87209 -57.990639 121.62257 -22.857431 42.336319
16970000000 -1.4324131 104.10098 -56.909058 110.3602 -57.946632 119.44982 -22.834671 47.885769
16980000000 -1.3377851 102.44938 -56.177162 94.23835 -56.58654 98.512466 -22.756756 54.655037
16990000000 -1.241079 100.8264 -55.956684 73.43895 -56.685329 77.988319 -22.705029 62.524994
17000000000 -1.1679292 99.267105 -55.148281 53.944599 -55.691925 55.523994 -22.5914 71.449753
