!Keysight Technologies,P9374A,MY57211807,A.19.30.04
!Date: Friday, May 08, 2026 15:00:01
!Correction: S11(C  2-Port  ) 
!S21(C  2-Port  ) 
!S12(C  2-Port  ) 
!S22(C  2-Port  ) 
!S2P File: Measurements: S11, S21, S12, S22:
# Hz S  dB   R 50
13000000000 -18.658924 57.057343 -45.878822 123.22532 -46.047741 124.35369 -8.8803501 22.253096
13010000000 -18.867033 57.426899 -44.518288 103.58202 -44.299717 103.10082 -8.9173727 18.198954
13020000000 -19.469975 57.556126 -44.326721 76.680321 -44.342667 76.674377 -9.0256481 14.30883
13030000000 -19.630064 61.198086 -44.623566 56.223377 -44.391727 55.236248 -9.1498785 10.409442
13040000000 -20.025324 62.675198 -44.85918 37.538521 -44.874844 35.367603 -9.3151932 6.8204079
13050000000 -19.693024 65.939491 -44.85281 15.758623 -44.882568 15.660903 -9.5440292 3.4485693
13060000000 -19.490805 64.356552 -44.59111 -2.7347865 -44.460876 -3.3138416 -9.8519974 0.056751955
13070000000 -19.506098 61.591389 -43.940712 -20.819275 -43.689301 -22.155731 -10.228337 -3.2646108
13080000000 -19.894476 61.419041 -43.255924 -43.799622 -43.221466 -45.511925 -10.650173 -6.6469927
13090000000 -19.567732 61.061932 -43.366497 -71.598137 -43.347145 -73.970543 -11.029346 -10.112159
13100000000 -19.732967 61.76635 -43.939419 -91.937675 -44.202541 -93.508369 -11.399055 -13.090594
13110000000 -19.280205 60.87751 -43.709003 -110.12917 -43.716816 -110.8931 -11.818767 -15.695812
13120000000 -19.574152 59.544853 -43.659569 -130.67755 -43.730484 -131.4995 -12.305697 -18.056511
13130000000 -19.347031 59.542839 -43.10107 -152.41034 -43.231625 -151.94574 -12.906664 -20.38459
13140000000 -19.671108 60.303543 -42.939884 -175.18759 -42.74831 -176.11633 -13.525714 -22.652269
13150000000 -19.664865 60.77837 -43.281284 160.78189 -43.130287 159.39418 -14.103331 -24.807981
13160000000 -19.758846 63.758282 -43.61919 143.39433 -43.720669 142.03525 -14.626647 -26.315556
13170000000 -19.276041 63.042755 -43.19809 126.18029 -43.263199 124.72506 -15.199518 -27.260838
13180000000 -18.977594 61.554443 -42.306503 104.91548 -42.288033 103.92263 -15.903875 -27.564484
13190000000 -18.680557 56.83588 -41.541702 79.028419 -41.523247 78.316666 -16.834871 -27.800493
13200000000 -19.084898 52.094402 -41.618023 50.560631 -41.561562 49.078381 -17.861559 -28.001852
13210000000 -19.464273 51.442978 -42.300381 27.523998 -42.437119 26.880407 -18.856255 -28.778965
13220000000 -19.780993 51.085941 -42.908989 10.405014 -42.798771 9.0509348 -19.597084 -28.745377
13230000000 -19.855049 53.185364 -42.339035 -9.1327991 -42.523617 -10.436672 -20.259373 -27.732124
13240000000 -19.68856 55.943253 -41.801537 -29.518032 -41.931828 -29.447166 -20.97262 -24.040508
13250000000 -19.083071 55.214184 -41.605297 -54.195511 -41.666847 -54.650501 -21.929075 -17.591833
13260000000 -18.892233 52.883339 -41.347546 -77.110573 -41.28862 -77.791626 -23.102934 -9.0272989
13270000000 -18.765472 49.300526 -41.470474 -102.48907 -41.396423 -103.57705 -24.296143 0.44514635
13280000000 -19.106771 46.482834 -41.527878 -124.10168 -41.438461 -124.30795 -25.196747 10.565804
13290000000 -19.51228 43.882977 -41.75634 -149.34473 -41.648384 -151.12239 -25.416191 19.196882
13300000000 -19.752344 43.540531 -42.212734 -168.42451 -42.183006 -169.6949 -24.905249 26.395355
13310000000 -19.914291 42.013954 -42.070679 170.16907 -41.997658 169.10248 -23.866846 33.330086
13320000000 -19.920099 40.909927 -41.991016 148.36198 -41.948898 148.33936 -22.81768 41.046284
13330000000 -20.236832 39.227264 -41.862457 126.97454 -41.807243 125.96017 -21.66102 48.61544
13340000000 -20.146851 41.02441 -42.099609 104.2239 -41.990246 101.9732 -20.674707 53.37455
13350000000 -20.175877 39.006409 -42.319168 85.295425 -42.289093 83.602226 -19.976954 55.311874
13360000000 -19.911842 41.09016 -41.4706 64.797203 -41.511631 63.467594 -19.356441 54.313366
13370000000 -19.623629 36.633343 -41.400196 40.102043 -41.357159 38.609734 -18.645559 51.994564
13380000000 -19.52494 33.87043 -41.682522 16.251848 -41.70554 14.216014 -17.626642 49.72916
13390000000 -20.107101 27.83839 -42.21941 -5.2343431 -42.227394 -6.0616617 -16.551895 48.13406
13400000000 -20.705767 26.107738 -42.14893 -24.08033 -42.282455 -25.486444 -15.650062 47.13018
13410000000 -21.760662 22.990917 -41.41468 -43.952374 -41.380615 -44.511292 -15.051826 46.887585
13420000000 -22.409695 29.310852 -41.030952 -69.061081 -41.022537 -69.536659 -14.657654 45.474937
13430000000 -22.26082 30.648279 -41.053562 -92.841064 -41.176956 -93.838387 -14.431094 42.78046
13440000000 -21.549992 31.158678 -40.961933 -116.56745 -41.175346 -116.85414 -14.232715 39.256523
13450000000 -21.123009 27.466976 -41.277836 -139.68665 -41.164169 -139.87257 -13.884096 35.347626
13460000000 -20.812494 22.326038 -41.087841 -161.9902 -41.079491 -162.3949 -13.483976 31.457451
13470000000 -21.515375 14.785317 -41.133945 174.18185 -41.234814 172.80611 -13.197098 28.178068
13480000000 -22.327461 14.098346 -41.212612 152.41843 -41.268795 151.52896 -13.075625 25.500248
13490000000 -23.410397 12.222994 -41.317299 128.49435 -41.288193 127.64481 -13.046186 23.035093
13500000000 -23.802496 16.76955 -41.215855 105.90656 -41.308823 105.44342 -13.091897 20.105011
13510000000 -24.241192 20.209303 -41.428661 80.086128 -41.32671 80.616554 -13.204737 16.978863
13520000000 -23.970884 19.603022 -41.852459 57.850254 -41.817417 56.8335 -13.358565 14.448706
13530000000 -24.259155 17.505699 -41.866737 35.486084 -41.818653 35.488094 -13.522178 12.363624
13540000000 -24.068832 15.28393 -41.865612 11.215374 -41.773682 10.666021 -13.737642 10.370292
13550000000 -24.345985 13.186638 -42.784878 -10.23602 -42.645931 -11.237065 -14.08265 8.726841
13560000000 -24.118793 11.139239 -42.628941 -34.372303 -42.603966 -35.058018 -14.481249 7.1103354
13570000000 -25.214466 8.4552078 -43.020634 -53.656471 -42.904263 -54.871891 -14.826876 5.7317758
13580000000 -24.991867 6.6563654 -43.359753 -77.864227 -43.167782 -79.921135 -15.104422 4.9156475
13590000000 -26.673405 4.1026101 -43.525536 -97.872002 -43.571163 -100.27026 -15.296685 4.6082654
13600000000 -27.273233 9.1894751 -43.801212 -122.26907 -43.749653 -122.89524 -15.46496 5.0713425
13610000000 -28.416512 22.795509 -44.177769 -142.69095 -44.161594 -144.01884 -15.635312 6.6849475
13620000000 -26.976452 25.188044 -44.413395 -163.33681 -44.515003 -164.18823 -15.739097 8.7475805
13630000000 -26.867159 25.349041 -43.989674 176.48352 -44.083275 176.00198 -15.805609 10.197731
13640000000 -25.752907 17.000204 -44.262852 148.21693 -44.364594 147.02724 -15.874616 11.297811
13650000000 -26.765444 8.5482988 -44.998394 128.27669 -44.972206 126.76352 -15.814373 12.271096
13660000000 -27.225067 2.9624162 -45.167328 108.65342 -45.392563 107.54833 -15.614159 11.982459
13670000000 -29.846098 -1.7848042 -45.383015 86.576965 -45.441319 86.601921 -15.373861 11.892481
13680000000 -31.228149 14.465981 -45.8722 66.343285 -45.68029 64.767685 -15.019836 11.490236
13690000000 -30.103668 30.890377 -45.610474 47.811207 -45.570103 46.540092 -14.628154 10.793881
13700000000 -27.948616 33.14119 -45.107548 26.734434 -45.198734 24.162371 -14.333828 9.6504669
13710000000 -26.71958 29.603977 -45.2528 -1.6179305 -45.424423 -2.6219738 -14.124394 7.8916783
13720000000 -26.692894 20.777321 -45.561302 -24.50231 -45.703327 -24.755865 -13.961028 5.5843902
13730000000 -27.717119 17.291685 -46.654285 -48.701664 -47.029205 -49.205009 -13.798088 2.9036584
13740000000 -27.923916 15.815527 -46.670048 -65.88842 -46.884644 -65.454773 -13.620047 -0.090558469
13750000000 -30.063107 13.402663 -46.763382 -84.714256 -46.74419 -84.702202 -13.511777 -3.1626866
13760000000 -29.872942 23.079006 -46.549057 -108.95115 -46.443851 -109.78133 -13.549634 -6.090003
13770000000 -30.005665 22.924419 -46.708138 -130.01337 -46.868221 -132.21397 -13.733191 -9.1812906
13780000000 -29.321276 23.018181 -46.850967 -153.53664 -46.941326 -154.05 -14.01494 -12.860219
13790000000 -28.953466 21.912672 -46.860092 -176.99364 -46.860634 -177.66132 -14.314433 -17.428825
13800000000 -28.68985 19.765831 -47.794437 157.34406 -47.737366 156.87585 -14.575579 -22.208487
13810000000 -27.737419 21.980145 -48.097347 139.4839 -48.363178 138.68669 -14.795408 -26.447308
13820000000 -26.770424 11.387294 -48.06963 119.35099 -48.01292 118.52512 -15.167202 -29.533171
13830000000 -26.849108 9.4328375 -48.332859 95.085785 -48.328209 95.362862 -15.681501 -31.784512
13840000000 -26.891642 -3.2725 -48.627541 72.714241 -48.452236 71.874985 -16.351896 -33.814995
13850000000 -28.708179 -4.4753513 -49.508541 51.49625 -49.42131 48.524654 -17.153782 -36.519955
13860000000 -29.471243 -6.5522861 -49.408649 34.107655 -49.583046 33.204094 -18.072685 -39.556477
13870000000 -31.288021 1.2999792 -50.629265 12.894479 -50.354866 14.491133 -18.966785 -41.406429
13880000000 -30.615856 12.754297 -49.562706 -8.1202202 -49.570347 -8.88344 -19.890894 -42.183395
13890000000 -28.100683 13.874291 -50.078259 -27.111282 -50.161018 -29.80571 -21.002363 -41.355236
13900000000 -26.796728 -1.5612658 -49.680893 -51.044598 -49.674915 -52.260471 -22.305943 -39.207691
13910000000 -26.572193 -8.6590719 -51.653793 -69.764374 -51.376148 -68.53363 -23.754082 -36.255688
13920000000 -26.466305 -23.448896 -49.940559 -85.029053 -50.271702 -86.305077 -24.971371 -31.893446
13930000000 -28.015318 -32.755489 -49.803879 -111.30538 -49.778111 -110.95592 -25.613359 -25.844566
13940000000 -29.55291 -41.762798 -49.418346 -128.99304 -49.612827 -129.53864 -25.642595 -18.721767
13950000000 -31.94157 -39.720196 -48.338833 -154.71927 -48.546486 -153.98232 -25.37274 -10.230615
13960000000 -33.215534 -34.691601 -49.140625 -178.8829 -49.057064 -178.42148 -24.832628 -0.18017064
13970000000 -32.167042 -19.598585 -48.335907 157.5639 -48.318619 156.35048 -24.166157 7.9781818
13980000000 -30.194656 -31.347546 -48.395363 129.17682 -48.586285 129.6077 -23.69771 13.532896
13990000000 -29.206963 -41.457085 -49.467396 106.60807 -49.258778 108.14063 -23.412912 17.674494
14000000000 -28.693314 -53.350933 -48.321266 91.746971 -48.248722 91.136314 -23.10775 19.698313
14010000000 -27.793339 -60.802193 -47.022793 56.132637 -47.063843 56.778755 -23.016716 19.125816
14020000000 -27.72422 -71.850349 -47.78524 28.403109 -47.617016 28.461334 -22.978956 18.736593
14030000000 -28.128349 -79.681747 -47.628387 -2.5423391 -47.229935 -4.1641436 -22.950924 18.032019
14040000000 -29.163914 -88.408943 -48.929287 -29.772755 -48.914711 -29.58424 -22.914034 17.613453
14050000000 -30.650936 -86.320114 -49.76965 -50.678547 -49.386002 -52.120705 -22.793198 17.35743
14060000000 -31.852343 -87.634804 -48.772968 -72.421715 -48.576416 -74.380714 -22.842505 16.640509
14070000000 -32.559322 -80.739166 -48.834244 -99.585068 -48.709423 -102.04742 -22.933525 16.870096
14080000000 -32.773827 -84.652771 -48.244492 -130.3398 -47.878498 -128.45514 -22.977987 16.539528
14090000000 -31.324762 -79.562668 -49.075634 -160.20993 -48.402782 -161.59615 -23.001129 16.183304
14100000000 -28.961227 -94.217735 -49.457962 174.38683 -48.585033 169.62257 -22.936064 16.198046
14110000000 -28.003399 -107.75598 -48.794586 148.33389 -48.66293 144.46808 -22.9009 16.492962
14120000000 -27.545456 -124.44281 -49.085304 113.10173 -48.708965 111.72802 -22.914429 17.928129
14130000000 -27.689148 -133.23868 -49.932003 83.797638 -50.118233 80.073502 -23.041216 19.509008
14140000000 -27.893225 -145.48222 -50.900455 61.620819 -50.525551 56.096233 -23.30035 20.075064
14150000000 -29.902184 -147.26472 -50.254391 38.910427 -50.354126 36.933151 -23.859186 18.731543
14160000000 -30.449087 -143.28458 -50.198696 5.5167584 -50.278965 3.9996388 -24.47715 17.441015
14170000000 -31.656483 -133.82761 -50.36937 -13.864076 -50.441601 -14.969563 -24.891109 17.480896
14180000000 -29.945995 -132.12837 -49.195282 -46.001022 -48.929478 -48.258774 -25.032738 19.306265
14190000000 -28.536125 -135.24109 -49.339523 -70.894547 -49.368595 -75.27623 -25.52676 22.842037
14200000000 -27.506144 -143.81976 -49.077465 -107.47172 -49.065174 -108.13598 -26.273802 31.895348
14210000000 -26.895086 -151.291 -49.707134 -131.92366 -49.748337 -135.55165 -26.792681 43.593449
14220000000 -26.548944 -163.07799 -49.629902 -158.51862 -49.452477 -161.76357 -27.189426 54.670319
14230000000 -27.007891 -171.06934 -48.852932 177.46259 -49.239868 173.82779 -27.428448 65.368553
14240000000 -27.552261 -174.78554 -48.91885 145.81282 -48.996429 147.33893 -26.647921 75.963921
14250000000 -28.12324 -173.57622 -48.741169 117.61739 -48.403767 114.81906 -25.313988 81.725426
14260000000 -29.094786 -174.0406 -50.183174 93.808716 -50.388874 90.938202 -24.08005 85.759323
14270000000 -29.101542 -166.59154 -48.495007 73.753906 -48.808208 72.508141 -22.798044 89.444298
14280000000 -28.865555 -165.09656 -48.416595 45.816677 -48.730938 45.492027 -21.726048 91.063652
14290000000 -27.398563 -162.12544 -47.646477 20.676895 -47.592304 20.84024 -20.846693 91.471268
14300000000 -26.877796 -171.18201 -46.949413 -8.7017298 -46.940468 -11.11167 -20.04826 89.623459
14310000000 -26.546568 -176.65367 -46.856377 -37.373825 -47.03796 -39.063354 -19.209566 87.267418
14320000000 -26.877211 172.34058 -47.517841 -72.189499 -47.648956 -71.777138 -18.339621 84.622856
14330000000 -26.793495 171.33958 -48.367455 -91.341286 -48.457977 -92.032127 -17.495386 82.825943
14340000000 -28.088715 161.53123 -47.562866 -112.63781 -47.92622 -113.77387 -16.716661 81.951065
14350000000 -29.287249 168.86024 -47.632874 -136.98184 -47.735012 -137.73451 -16.056997 80.864143
14360000000 -30.040007 178.04289 -47.331165 -165.08322 -47.320488 -166.80254 -15.574199 79.276077
14370000000 -28.305321 -172.69252 -47.897827 169.20638 -48.079098 166.24365 -15.276111 77.276581
14380000000 -27.376526 -177.75281 -47.59409 148.08853 -47.983406 146.15485 -15.003286 74.922203
14390000000 -26.680386 177.55743 -47.278873 120.34969 -47.693428 121.47929 -14.734498 72.154762
14400000000 -27.20952 171.48682 -47.391853 94.482384 -47.248962 96.17189 -14.427739 69.567841
14410000000 -27.067753 167.51881 -47.804775 70.837173 -47.57708 70.947021 -14.063341 66.948837
14420000000 -28.15349 160.8056 -47.133217 49.204208 -47.092388 47.565426 -13.727098 64.474632
14430000000 -28.792559 163.04919 -46.656914 17.057198 -46.626724 15.74188 -13.480453 61.981575
14440000000 -30.153748 168.90634 -47.107254 -14.471785 -47.282711 -12.398003 -13.351991 59.892002
14450000000 -28.254723 -179.53008 -48.559113 -34.86581 -48.137173 -35.068256 -13.21855 58.189735
14460000000 -27.533915 176.85504 -48.713081 -54.469463 -48.350422 -55.937813 -13.086219 56.205784
14470000000 -27.18891 176.06299 -47.407452 -77.910675 -47.383175 -80.38501 -12.973022 54.030128
14480000000 -26.895945 179.47264 -47.490326 -106.07694 -47.780449 -105.41548 -12.94161 52.443691
14490000000 -26.383823 175.18179 -46.344795 -134.37527 -46.19112 -133.83739 -12.986934 50.803997
14500000000 -26.385212 175.45473 -46.42643 -170.58017 -46.04694 -171.07942 -13.128969 49.724167
14510000000 -26.527634 168.14316 -47.875881 155.14442 -47.398716 152.655 -13.216778 48.557304
14520000000 -28.034811 175.18994 -49.108738 128.8653 -49.142437 126.54787 -13.231694 46.431446
14530000000 -27.403463 173.57127 -50.025951 111.35383 -50.262939 110.16164 -13.254773 43.983368
14540000000 -27.617823 -177.00838 -49.640038 94.038002 -49.443352 91.689011 -13.232645 42.79232
14550000000 -26.099398 -179.50684 -47.627651 62.693432 -47.763996 62.380878 -13.140834 42.433331
14560000000 -25.800724 -175.43501 -47.270718 25.139065 -47.067268 26.281303 -13.11256 42.380192
14570000000 -24.19511 179.36044 -47.277164 -9.9886379 -46.771351 -11.67578 -13.141951 42.59367
14580000000 -23.716753 174.80579 -48.31023 -46.010242 -47.893589 -48.989658 -13.201221 42.598431
14590000000 -23.84498 165.66342 -48.563061 -80.61573 -48.470127 -81.23632 -13.173435 42.094517
14600000000 -24.914007 170.2704 -49.570873 -106.63682 -49.772964 -111.51556 -13.165766 41.051567
14610000000 -24.920076 169.18019 -49.458126 -137.21286 -49.470665 -136.10843 -13.156624 40.554462
14620000000 -24.997532 177.45639 -49.319214 -160.78253 -48.806553 -164.52333 -13.145475 40.342899
14630000000 -24.351744 177.82693 -48.263184 165.33971 -47.997208 162.79018 -13.135815 40.304489
14640000000 -23.161364 -179.69853 -47.855076 138.52702 -47.554234 133.48933 -13.108592 39.55423
14650000000 -22.332909 174.51981 -46.686138 106.96967 -46.797886 103.2213 -13.0391 38.196667
14660000000 -21.711952 169.61671 -46.065369 72.900932 -45.766014 72.103287 -12.941009 36.57423
14670000000 -22.037458 162.15002 -45.483688 38.361362 -45.151344 35.528183 -12.754101 35.310604
14680000000 -22.081451 161.50009 -46.179821 5.8684974 -45.847595 1.0081447 -12.609385 34.418789
14690000000 -22.692953 159.21884 -46.405964 -18.88373 -46.538551 -25.758871 -12.494642 34.215591
14700000000 -22.623367 164.23763 -45.88311 -40.163906 -46.374695 -43.32045 -12.400665 33.664501
14710000000 -22.250265 165.52921 -44.590057 -68.542358 -44.586796 -70.299675 -12.435852 32.637146
14720000000 -21.7474 165.61673 -44.422825 -100.62929 -44.352871 -101.89515 -12.539827 31.673817
14730000000 -21.295033 163.95241 -44.394775 -125.52899 -44.37315 -128.37511 -12.644608 30.087465
14740000000 -20.557699 159.508 -43.956856 -151.81242 -44.066673 -154.02834 -12.790047 28.549871
14750000000 -20.680922 154.09491 -43.532707 -173.46413 -43.536732 -175.62572 -12.964904 26.924042
14760000000 -20.53561 151.01141 -42.470261 156.21466 -42.588024 153.4054 -13.022655 25.414852
14770000000 -21.012131 146.58228 -42.194824 126.1838 -42.388512 124.51157 -13.016276 23.503
14780000000 -21.002377 146.58502 -42.574383 98.346527 -42.667946 97.389885 -13.106089 21.7437
14790000000 -21.135172 146.09314 -42.994751 72.588646 -43.108574 72.186172 -13.212597 21.559549
14800000000 -20.854448 147.75658 -42.801643 52.886578 -42.743187 50.305965 -13.324293 21.356476
14810000000 -20.818954 147.40036 -42.438843 27.455091 -42.580936 25.425926 -13.559865 21.187805
14820000000 -20.178671 148.35963 -42.170948 3.5168509 -42.230675 3.4284747 -13.754276 21.165777
14830000000 -19.927496 144.11696 -41.453838 -22.892818 -41.386871 -23.655237 -13.948798 20.658642
14840000000 -19.789764 140.37308 -41.739098 -50.034897 -41.555202 -52.519569 -14.190518 20.260637
14850000000 -20.186836 135.63376 -41.45507 -75.063919 -41.650234 -77.867584 -14.443624 20.929789
14860000000 -20.470209 133.55386 -41.854824 -102.86867 -41.956722 -103.09604 -14.641889 21.476151
14870000000 -21.077271 130.40425 -42.224319 -126.88003 -42.194443 -126.55345 -14.900928 21.79254
14880000000 -21.281502 129.76732 -42.640804 -147.92776 -42.296841 -147.67397 -15.143972 20.537491
14890000000 -21.57789 130.89059 -41.831322 -168.58571 -41.818001 -170.5416 -15.391758 19.678362
14900000000 -21.062826 130.83942 -41.75914 164.76483 -41.788998 162.34662 -15.385222 19.772038
14910000000 -20.712324 131.22701 -42.170467 141.07323 -42.02446 139.90224 -15.195426 20.763367
14920000000 -20.075336 126.5845 -41.772026 119.07134 -41.605572 117.60285 -15.111908 22.407696
14930000000 -20.351372 122.68307 -41.864136 91.036263 -41.707035 88.419495 -15.221077 24.993813
14940000000 -20.569105 119.10563 -42.477234 66.203209 -42.513451 64.644676 -15.417737 27.014385
14950000000 -21.203941 119.89119 -42.978165 46.071163 -42.889626 45.885067 -15.775956 28.106358
14960000000 -21.564053 116.92843 -42.365513 26.353378 -42.093842 25.272493 -16.010815 29.144636
14970000000 -22.358091 120.89782 -42.505882 1.1883128 -42.403252 -1.2875664 -16.033609 29.813063
14980000000 -22.564775 119.23419 -42.305088 -21.343161 -42.358368 -22.312126 -16.011822 31.019054
14990000000 -22.486471 125.0133 -42.01939 -44.646843 -41.901684 -47.381924 -16.032297 32.772232
15000000000 -21.897968 118.66779 -42.780014 -73.106728 -42.680893 -73.823219 -16.035858 34.355217
15010000000 -22.236616 117.57172 -43.162167 -95.138885 -43.052876 -94.846115 -16.042461 34.645409
15020000000 -22.444017 110.44611 -43.127991 -116.58677 -42.855553 -117.40307 -15.957499 34.13905
15030000000 -23.146551 113.71426 -43.25592 -137.14104 -43.249191 -138.15886 -15.62043 34.15255
15040000000 -23.160685 109.51354 -43.315571 -159.23431 -43.146278 -159.94124 -15.168883 35.37212
15050000000 -23.760899 113.93386 -43.239964 179.86861 -43.206459 177.92459 -14.717505 37.309769
15060000000 -24.09544 113.75945 -43.202442 157.7283 -43.118313 156.40224 -14.475179 39.365166
15070000000 -24.126232 121.07253 -42.953285 132.04871 -42.79858 131.6152 -14.418939 40.477608
15080000000 -23.84325 120.0926 -43.367363 109.39693 -43.112808 108.2793 -14.533737 40.79533
15090000000 -23.736471 120.85303 -43.03286 84.94693 -43.022842 82.08667 -14.527837 40.055244
15100000000 -24.24971 118.74612 -43.554096 64.286774 -43.526211 62.435368 -14.442122 38.825836
15110000000 -24.374714 120.98476 -43.735981 40.256252 -43.814133 38.26461 -14.216464 37.93433
15120000000 -24.528013 121.1401 -43.377872 18.459946 -43.406773 17.984798 -13.966035 36.869526
15130000000 -24.436571 117.98669 -43.909443 -2.5690477 -43.810665 -4.5299549 -13.874612 35.914452
15140000000 -25.509304 118.34464 -43.773369 -22.654264 -43.690109 -25.624462 -13.761868 35.263592
15150000000 -25.02639 125.54489 -43.350689 -47.692719 -43.564655 -50.112137 -13.552894 33.952068
15160000000 -24.839205 127.0124 -43.498997 -71.614784 -43.41011 -71.682762 -13.412977 32.836056
15170000000 -23.958757 128.7186 -42.798313 -95.441505 -42.783779 -97.058685 -13.305718 32.61694
15180000000 -23.667747 126.59042 -43.400955 -126.29507 -43.211159 -128.75644 -13.246864 33.01775
15190000000 -23.298925 125.57555 -44.559113 -151.77017 -44.628868 -154.54309 -13.315925 32.973999
15200000000 -23.449953 125.56715 -45.269463 -166.24382 -45.659603 -168.7888 -13.481698 32.574581
15210000000 -23.240284 122.14537 -44.707432 176.28604 -44.786549 176.46266 -13.660789 31.420565
15220000000 -24.336123 123.8971 -44.179398 147.39505 -44.232224 147.89409 -13.795097 29.549536
15230000000 -23.908806 127.48196 -44.240028 122.19814 -44.383896 122.16367 -13.927916 27.991758
15240000000 -23.788822 129.91051 -44.717518 96.581123 -44.886154 96.362076 -14.001636 27.111895
15250000000 -22.92536 127.37232 -45.544586 70.448181 -45.50547 72.391083 -14.023622 26.765999
15260000000 -22.993015 123.98045 -46.122669 49.412334 -46.060719 50.026245 -13.936275 26.399178
15270000000 -22.897381 122.84112 -46.041832 25.066673 -45.890133 25.709486 -13.953515 26.069735
15280000000 -22.633543 120.63983 -47.101349 0.78576273 -46.966976 1.8710307 -13.986584 27.007959
15290000000 -22.503757 117.35525 -48.335476 -19.70785 -48.110497 -20.109562 -13.953609 28.546083
15300000000 -22.769968 115.19293 -48.377205 -34.594341 -47.965462 -35.180679 -14.054914 29.575897
15310000000 -23.054937 114.88556 -48.134651 -54.685513 -48.069328 -57.057186 -14.306422 30.289976
15320000000 -23.007963 116.3555 -47.716789 -79.633438 -47.41518 -79.134613 -14.534012 30.881035
15330000000 -22.801323 114.89297 -47.884369 -108.36612 -47.424416 -111.17759 -14.665528 30.747808
15340000000 -23.044807 111.923 -48.719902 -138.08653 -48.290657 -138.58226 -14.681777 30.386009
15350000000 -23.316883 115.12391 -50.249901 -158.21736 -49.937626 -162.5672 -14.597304 30.100628
15360000000 -22.862732 112.93406 -50.278156 -174.13258 -49.979065 -174.31543 -14.624117 30.233791
15370000000 -22.85301 110.91286 -50.363251 163.96652 -49.676102 159.94167 -14.601974 30.713247
15380000000 -22.551773 103.67091 -50.595943 131.94455 -50.488045 128.78561 -14.518274 30.629185
15390000000 -23.551058 99.627609 -52.286346 115.11851 -52.597511 109.15134 -14.351061 30.069836
15400000000 -23.987293 97.528511 -52.673218 98.37191 -52.266842 99.933205 -14.164342 29.839481
15410000000 -24.590389 98.236008 -49.6436 73.153732 -49.50938 69.161987 -13.986464 30.722593
15420000000 -25.051676 96.82328 -50.457668 27.155529 -49.90435 24.529387 -13.943894 32.235821
15430000000 -25.330252 101.18879 -51.784035 -5.1949782 -51.415695 -11.397605 -13.988513 33.942883
15440000000 -24.990129 100.19835 -53.837009 -40.548721 -54.591446 -45.090252 -14.162078 33.848587
15450000000 -24.734234 98.794685 -57.438629 -70.608505 -57.326851 -74.1996 -14.408501 32.575958
15460000000 -24.755569 90.921516 -58.998608 -86.755043 -58.68409 -91.823235 -14.589107 30.627357
15470000000 -25.698322 87.040031 -60.078217 -100.18063 -59.710384 -112.09418 -14.572804 29.450861
15480000000 -26.738693 80.446083 -57.016594 -118.341 -57.764545 -120.61108 -14.415896 28.998108
15490000000 -27.988224 84.34568 -55.157101 -165.24535 -55.227509 -166.8837 -14.274839 29.127134
15500000000 -28.615133 81.911316 -54.373276 154.28059 -54.388401 151.31313 -14.246681 29.212162
15510000000 -29.092535 84.937706 -53.247036 105.04121 -53.340458 100.93491 -14.315784 29.764992
15520000000 -30.203968 80.54966 -52.859173 63.608112 -52.797626 58.373447 -14.333812 30.528208
15530000000 -30.420328 87.66832 -53.469769 15.442957 -53.364052 8.639967 -14.294335 31.416742
15540000000 -30.898418 79.946083 -54.924801 -5.7529502 -55.804016 -8.7759581 -14.30805 32.520859
15550000000 -31.473669 80.166557 -55.6674 -30.749983 -55.687618 -38.372444 -14.374071 34.056705
15560000000 -34.560349 73.56868 -55.406273 -52.210175 -55.806526 -56.090439 -14.473899 34.807339
15570000000 -34.880848 86.080208 -52.614819 -64.863174 -54.072372 -62.155254 -14.657991 35.039585
15580000000 -37.161278 68.203316 -50.65163 -97.213547 -50.819897 -96.753563 -14.81098 35.090252
15590000000 -38.620415 75.313049 -49.253937 -124.81992 -49.296604 -128.89142 -14.842858 34.737907
15600000000 -45.431023 4.188673 -49.06266 -164.25558 -49.619854 -169.51231 -14.802108 33.935303
15610000000 -46.102425 -151.28113 -49.899296 168.84619 -50.732861 166.29027 -14.696604 33.480579
15620000000 -42.395767 -143.67078 -50.538773 156.67252 -50.869415 159.60336 -14.52463 33.396214
15630000000 -40.052177 -171.48463 -48.691257 137.25291 -48.781162 135.01328 -14.308243 33.876602
15640000000 -40.231663 -148.29759 -47.750988 107.73358 -48.219093 108.29656 -14.114677 34.34697
15650000000 -38.26268 -161.71437 -47.317898 77.269638 -47.994881 77.73452 -14.084267 35.453819
15660000000 -37.957661 -137.76852 -48.45023 52.560974 -48.618061 57.030777 -14.120819 37.090836
15670000000 -36.733139 -140.37054 -48.451904 37.260868 -48.243065 39.615906 -14.227896 38.05518
15680000000 -31.924042 -117.37701 -47.498844 19.404274 -47.417549 19.44413 -14.354651 37.921074
15690000000 -29.682119 -137.21616 -46.427155 -4.4583526 -45.976887 -3.3362472 -14.441692 37.320641
15700000000 -28.486631 -140.46275 -45.154762 -30.924135 -45.218662 -32.743965 -14.489846 36.467777
15710000000 -28.70413 -149.94902 -45.215893 -66.176308 -45.194969 -64.726837 -14.545745 36.637047
15720000000 -27.90444 -143.58723 -46.774399 -85.735657 -46.194473 -84.349899 -14.498095 37.853539
15730000000 -27.753775 -148.37146 -46.103184 -101.54169 -45.771328 -102.83467 -14.415892 38.266254
15740000000 -27.158829 -146.74432 -45.604641 -124.47794 -45.162525 -125.97165 -14.3701 38.075588
15750000000 -27.542137 -146.85838 -44.839939 -146.36932 -44.507278 -148.53325 -14.211267 37.92765
15760000000 -26.258497 -142.84038 -44.440029 -174.92429 -44.40136 -176.2748 -13.973663 38.212032
15770000000 -25.654568 -145.74168 -44.670643 161.98488 -44.604717 161.91457 -13.68676 39.787842
15780000000 -24.88884 -147.51018 -44.697231 141.14174 -44.175686 139.27426 -13.449699 42.179745
15790000000 -24.808315 -149.25406 -44.109962 120.00834 -43.953247 116.39022 -13.363585 44.120125
15800000000 -23.827435 -149.2345 -43.598816 94.662842 -43.649693 93.462646 -13.406508 45.68013
15810000000 -23.396299 -152.78889 -44.156303 65.974586 -43.806698 64.537094 -13.463425 45.422623
15820000000 -23.064341 -155.98431 -44.246159 47.034485 -43.924644 43.055637 -13.504086 44.152683
15830000000 -23.380966 -155.58667 -44.309925 25.442413 -44.503727 21.144823 -13.319899 42.61832
15840000000 -23.117258 -152.90302 -44.049007 4.396193 -44.06324 1.6471711 -13.061275 41.14389
15850000000 -22.916355 -153.38213 -43.741646 -19.229235 -43.560326 -22.105564 -12.782038 40.388229
15860000000 -22.430925 -151.25725 -43.677219 -43.054226 -43.715206 -45.286182 -12.518225 40.056774
15870000000 -22.248411 -152.94162 -43.831238 -65.046173 -43.812759 -68.943672 -12.237617 39.620171
15880000000 -21.756416 -151.84125 -43.289024 -87.511162 -43.561142 -90.188583 -11.979206 38.811108
15890000000 -21.541885 -154.20755 -43.322598 -113.05704 -43.632805 -114.34324 -11.766888 38.492363
15900000000 -21.261316 -157.21519 -43.427994 -135.45161 -43.490318 -136.88795 -11.541278 38.479378
15910000000 -21.411947 -157.75716 -43.727581 -159.50673 -43.844185 -161.69084 -11.383217 38.346539
15920000000 -20.933731 -156.63463 -44.012123 179.94687 -44.411697 178.6492 -11.310123 37.682064
15930000000 -20.749113 -157.35056 -43.902065 162.54362 -44.004723 162.03381 -11.364453 36.561176
15940000000 -20.445503 -156.88174 -43.214855 138.11871 -43.20211 137.98543 -11.430297 35.306702
15950000000 -20.258282 -156.90588 -43.229908 113.34856 -43.24361 112.14048 -11.41464 33.45657
15960000000 -20.008022 -155.74243 -43.385262 91.864838 -43.647472 91.190926 -11.347531 31.092363
15970000000 -19.613432 -154.41745 -43.229698 69.427628 -43.314522 69.096153 -11.261955 28.470028
15980000000 -19.349525 -154.22949 -43.240753 46.827137 -43.078777 47.374825 -11.136966 26.434723
15990000000 -18.986265 -153.72348 -42.916794 22.406317 -42.788227 21.945154 -10.969914 24.843145
16000000000 -18.694839 -155.49507 -43.500763 -0.71109152 -43.52269 -0.66886854 -10.841405 23.933002
16010000000 -18.595085 -156.48044 -43.72715 -19.097982 -43.472977 -19.328239 -10.758237 23.420235
16020000000 -18.389685 -157.67479 -42.732422 -38.872284 -42.722553 -39.027222 -10.786296 22.591295
16030000000 -18.402483 -157.2682 -42.178596 -66.682594 -42.161716 -66.230537 -10.965697 21.500961
16040000000 -18.076323 -155.72176 -42.758167 -92.609383 -42.541954 -92.016609 -11.171992 20.151907
16050000000 -17.690428 -155.96053 -43.120491 -117.10976 -42.783661 -117.8495 -11.283754 18.357996
16060000000 -17.117168 -155.42986 -43.519321 -135.3336 -43.392227 -136.57904 -11.380287 15.722843
16070000000 -16.703426 -156.52626 -43.111557 -156.88715 -42.661488 -158.02396 -11.521069 13.50213
16080000000 -16.252111 -156.8692 -42.738968 -179.96332 -42.530918 177.32903 -11.704306 11.732971
16090000000 -16.05912 -158.52119 -42.631863 153.6814 -42.366287 152.56242 -11.893423 9.9364243
16100000000 -15.950789 -158.71725 -43.015858 128.69455 -42.676998 127.08465 -12.045184 8.2136574
16110000000 -15.799368 -159.19116 -43.002277 104.6973 -42.766853 102.75631 -12.066462 6.8818092
16120000000 -15.550312 -158.73936 -43.053677 81.821388 -42.89526 78.482628 -12.017461 6.0143814
16130000000 -15.244822 -159.23711 -43.510685 57.811096 -43.249004 55.101471 -12.024164 6.1435189
16140000000 -14.936496 -159.12288 -43.519711 35.666168 -43.382294 30.939203 -12.205874 6.8265128
16150000000 -14.533941 -160.74359 -43.573189 10.123813 -43.716873 6.7813988 -12.595043 7.7039094
16160000000 -14.218809 -161.63792 -43.76881 -11.84885 -43.965981 -13.062253 -13.06311 7.9056597
16170000000 -13.791003 -162.6441 -43.778408 -37.157547 -43.586479 -39.884949 -13.443662 6.7349977
16180000000 -13.459007 -163.98399 -44.245087 -62.338078 -44.075161 -65.365646 -13.678017 4.6738501
16190000000 -13.246185 -165.71031 -44.297375 -88.838089 -44.302326 -93.5112 -13.773887 2.5968604
16200000000 -13.122788 -165.8446 -44.744236 -113.5796 -44.847694 -118.43689 -13.834551 1.3582778
16210000000 -12.944016 -166.70444 -45.398357 -139.93285 -45.819271 -143.35858 -13.91544 0.64012259
16220000000 -12.788303 -166.04091 -45.958752 -162.44395 -46.201717 -165.82806 -14.033484 0.2940498
16230000000 -12.451203 -166.81273 -46.048115 172.60793 -46.737835 169.3098 -14.075162 -0.11110521
16240000000 -12.183957 -166.80247 -46.594158 142.38557 -46.969276 141.24266 -14.052596 0.075433195
16250000000 -11.851151 -169.03008 -47.200211 119.21413 -47.717354 115.34699 -13.990876 0.8208968
16260000000 -11.565773 -170.67162 -48.100407 89.606712 -49.113922 87.782166 -14.072178 2.2586067
16270000000 -11.327863 -173.28516 -48.668839 63.036983 -49.645744 64.198158 -14.26344 3.7625818
16280000000 -11.244606 -175.18791 -49.26358 31.536558 -49.738281 33.155476 -14.609382 4.2414217
16290000000 -11.140988 -175.98862 -51.000492 -6.6643872 -51.907516 -10.115489 -14.982786 2.9838836
16300000000 -10.939306 -176.29898 -53.369499 -40.424675 -55.40517 -40.807434 -15.256262 0.49890935
16310000000 -10.715975 -176.89523 -56.860249 -74.298347 -58.707268 -73.046883 -15.343563 -2.2111654
16320000000 -10.438049 -176.8886 -58.422699 -98.294815 -59.697128 -88.282196 -15.338754 -4.3569641
16330000000 -10.129412 -177.84685 -59.161316 -124.21259 -60.306797 -127.47848 -15.336762 -5.5689468
16340000000 -9.8700075 -178.98804 -57.540497 -174.08107 -60.130585 -175.97354 -15.334561 -6.5600491
16350000000 -9.7011776 179.17894 -56.442413 145.65862 -57.736095 148.81898 -15.342747 -7.4661431
16360000000 -9.5455341 177.38493 -53.525864 101.3255 -55.165882 93.52832 -15.349236 -8.174695
16370000000 -9.5298758 175.52919 -52.055546 60.858223 -53.863342 60.693287 -15.438643 -8.2903976
16380000000 -9.4219046 174.40262 -50.451553 21.018682 -51.298889 18.508108 -15.757609 -7.9336448
16390000000 -9.3638926 173.18887 -50.938828 -12.617528 -51.628063 -13.235473 -16.290398 -7.2817836
16400000000 -9.1967201 172.78349 -49.659023 -40.435432 -50.232376 -45.431934 -16.854801 -8.2840271
16410000000 -9.0001898 172.13054 -50.363708 -71.53614 -51.269016 -77.00518 -17.437849 -11.098494
16420000000 -8.6768055 171.63457 -50.079487 -90.601097 -51.58289 -89.070572 -17.80724 -14.838728
16430000000 -8.368391 170.25891 -49.911907 -109.2094 -49.991276 -105.70025 -18.121086 -17.639969
16440000000 -8.1522846 168.73723 -47.715347 -130.75864 -47.660015 -131.5654 -18.413422 -18.584557
16450000000 -8.0680046 166.91499 -46.254642 -161.22566 -46.516144 -162.74741 -18.769869 -18.583586
16460000000 -8.02281 165.77132 -46.12114 168.83206 -46.608799 166.34108 -19.161819 -18.639179
16470000000 -8.0520811 164.81531 -45.834373 142.45404 -46.331985 143.69156 -19.503321 -18.415524
16480000000 -7.9808898 164.41129 -45.957695 114.7741 -46.184193 116.27103 -19.697987 -17.381685
16490000000 -7.8861709 163.86714 -45.994228 90.013695 -46.053444 90.267052 -19.943377 -13.947959
16500000000 -7.660233 163.58595 -45.902645 68.915703 -46.301811 68.150391 -20.204031 -9.1688108
16510000000 -7.3717427 162.01286 -46.19194 44.144493 -46.370384 46.811913 -20.940573 -4.3829441
16520000000 -7.1607146 160.55638 -46.18671 27.841459 -45.904915 31.014927 -21.952993 -0.5037939
16530000000 -6.9876375 158.51709 -45.04126 3.4219804 -44.7869 3.906642 -22.926067 -0.23431247
16540000000 -6.9413714 157.54353 -44.665051 -21.302269 -44.421623 -22.949448 -23.313772 -3.3589664
16550000000 -6.8252597 156.47891 -44.599072 -51.055717 -44.463043 -49.824085 -23.188923 -7.1677823
16560000000 -6.7718339 156.06995 -45.036785 -77.211105 -44.593559 -75.822708 -22.888859 -7.8161516
16570000000 -6.6477761 155.552 -45.461121 -99.211945 -45.235329 -99.185471 -22.901247 -5.0118546
16580000000 -6.4927506 155.31206 -45.726719 -119.82395 -45.138554 -119.08592 -22.961542 -1.6023815
16590000000 -6.3052902 154.27686 -45.540882 -139.33432 -45.13567 -140.86505 -23.090956 0.70748138
16600000000 -6.1324968 153.07698 -45.311657 -161.51079 -44.632721 -163.90686 -23.194324 0.75777847
16610000000 -5.9862404 151.5408 -45.109444 174.32924 -44.752613 170.04929 -23.35486 2.7052562
16620000000 -5.8675508 150.25833 -44.939465 153.45483 -44.587017 151.28099 -23.391457 7.1698298
16630000000 -5.7085018 148.8331 -44.469368 129.58037 -43.99453 125.7188 -23.702152 14.215181
16640000000 -5.581429 147.61668 -44.609146 102.07259 -44.225826 97.436935 -24.295443 21.36997
16650000000 -5.4566383 146.62636 -45.17207 80.555153 -45.288822 75.074272 -25.43553 26.735605
16660000000 -5.311337 145.96283 -45.311665 55.838402 -45.381916 52.03545 -26.677166 29.169163
16670000000 -5.1249919 145.24561 -45.457092 36.073402 -45.507797 30.723991 -27.247478 26.538111
16680000000 -4.950974 144.34241 -45.433281 13.971676 -45.817978 8.7640724 -26.902409 22.19549
16690000000 -4.7697468 143.36929 -45.399326 -7.7162738 -45.685913 -12.213594 -26.166241 22.420788
16700000000 -4.613801 142.22435 -45.295712 -30.702919 -45.785084 -34.432236 -25.212408 27.08724
16710000000 -4.455122 140.80063 -44.993107 -55.0597 -45.505714 -58.118366 -24.381495 34.062504
16720000000 -4.3483572 139.28232 -45.416725 -81.340446 -46.082561 -83.495354 -23.653666 39.740471
16730000000 -4.2365417 137.8571 -45.586781 -105.33477 -46.205265 -105.34103 -23.116823 43.142227
16740000000 -4.1218934 136.74806 -46.9114 -124.95971 -47.366676 -124.71844 -22.828148 45.183472
16750000000 -3.9669931 135.53024 -46.420753 -141.59258 -46.676754 -140.45676 -22.657417 47.000462
16760000000 -3.8062432 134.38147 -45.89896 -165.25258 -46.236095 -165.44734 -22.539309 49.12429
16770000000 -3.6351523 133.03487 -46.026482 169.29736 -46.54216 169.55045 -22.444742 49.978355
16780000000 -3.4776001 131.89407 -46.612312 147.14799 -46.925098 149.49974 -22.531565 48.98753
16790000000 -3.3220901 130.46988 -47.143986 125.23061 -46.906216 127.91793 -22.677137 45.572342
16800000000 -3.2055128 129.10786 -47.165253 104.40392 -47.067253 104.96857 -22.668472 40.25663
16810000000 -3.0957074 127.71613 -47.166485 84.545654 -47.142094 86.341354 -22.507092 34.739044
16820000000 -2.9889221 126.33347 -47.037415 61.610889 -46.559746 63.289299 -22.031771 30.471226
16830000000 -2.8681281 124.74863 -47.11232 39.658806 -46.604694 39.256378 -21.494806 27.759253
16840000000 -2.7613628 123.30546 -46.929382 15.120757 -46.665848 14.254223 -21.022141 26.931923
16850000000 -2.6378202 121.73017 -47.454243 -6.7362843 -46.89814 -7.3952489 -20.72204 27.589531
16860000000 -2.5146916 120.24439 -47.348892 -28.827698 -46.913136 -29.96002 -20.754202 29.155025
16870000000 -2.3867893 118.75731 -47.699322 -48.594326 -47.262718 -51.730503 -21.035358 30.787409
16880000000 -2.2620158 117.34507 -46.800358 -72.578377 -46.561054 -75.552299 -21.745939 31.065414
16890000000 -2.1445136 115.91287 -47.139851 -99.991699 -46.791157 -101.45994 -22.731213 29.344982
16900000000 -2.0354524 114.65415 -48.048439 -123.45927 -47.43322 -128.431 -23.889608 24.729731
16910000000 -1.9285815 113.14105 -48.215824 -143.59758 -48.159824 -150.06821 -24.857639 18.972252
16920000000 -1.8551369 111.7037 -48.260788 -166.30037 -48.601082 -171.39003 -25.400661 13.44713
16930000000 -1.7739109 110.16056 -48.519581 170.69481 -48.530151 167.23463 -25.552948 9.6120605
16940000000 -1.7049413 108.65825 -48.232052 148.04341 -48.079544 145.54846 -25.87639 7.3416781
16950000000 -1.6149826 106.98854 -48.651253 118.17912 -48.488808 114.19681 -26.539396 8.5584641
16960000000 -1.5335276 105.38314 -49.432079 95.17942 -49.515434 90.679497 -27.497831 13.421269
16970000000 -1.4380956 103.75088 -49.789783 72.127632 -49.963867 69.541977 -28.307882 24.001623
16980000000 -1.3459498 102.1567 -50.482388 50.472694 -50.280178 46.555443 -29.023615 36.320843
16990000000 -1.2496262 100.54649 -50.949718 24.362469 -51.070362 20.956884 -29.453836 52.165451
17000000000 -1.1661983 99.022255 -51.528542 3.0338588 -51.867767 -0.23919584 -29.503901 70.263641
