!Keysight Technologies,P9374A,MY57211807,A.19.30.04
!Date: Friday, May 08, 2026 14:36:02
!Correction: S11(C  2-Port  ) 
!S21(C  2-Port  ) 
!S12(C  2-Port  ) 
!S22(C  2-Port  ) 
!S2P File: Measurements: S11, S21, S12, S22:
# Hz S  dB   R 50
13000000000 -19.042233 59.310856 -43.444691 151.61253 -43.436943 149.81151 -8.9994392 22.483107
13010000000 -18.941706 60.930767 -42.412304 130.11284 -42.34621 129.26015 -9.0370045 18.490261
13020000000 -18.985445 59.964336 -41.979225 105.72599 -42.014923 105.26568 -9.1357803 14.728521
13030000000 -19.255146 59.705196 -41.791359 79.463852 -41.705059 78.24411 -9.220788 10.81916
13040000000 -19.965586 61.234955 -42.501614 60.37664 -42.571098 59.16872 -9.3807259 6.9729629
13050000000 -19.82431 63.746609 -42.58926 44.868847 -42.579914 43.186356 -9.6240616 3.589113
13060000000 -20.054674 63.777534 -41.269043 26.513107 -41.325764 25.484442 -9.8972025 0.2889443
13070000000 -19.829159 64.713997 -40.196686 2.8344271 -40.211742 2.2501729 -10.232564 -3.1342425
13080000000 -19.694056 64.141724 -39.898373 -24.642309 -39.808632 -25.786249 -10.649786 -6.9091907
13090000000 -19.428087 61.285648 -39.955105 -49.070259 -39.92004 -50.918625 -11.073534 -10.462594
13100000000 -19.794605 60.749043 -40.304211 -72.555473 -40.230873 -73.243309 -11.420412 -13.508766
13110000000 -19.392305 61.621292 -40.270031 -92.809608 -40.256393 -93.973 -11.833172 -16.32538
13120000000 -19.612583 60.215469 -40.143223 -114.97166 -40.192841 -115.80129 -12.280904 -18.811178
13130000000 -19.442862 60.528255 -39.904648 -136.6274 -39.801674 -138.22328 -12.855244 -21.398687
13140000000 -19.635973 61.276669 -39.555836 -160.16951 -39.552658 -161.66052 -13.50333 -24.025665
13150000000 -19.474073 60.761444 -39.78159 175.25967 -39.716599 174.52339 -14.12424 -26.345079
13160000000 -19.82785 62.468937 -39.920071 156.21869 -39.923416 153.9572 -14.66733 -27.998383
13170000000 -19.406673 63.229855 -39.490982 132.53514 -39.533455 131.85074 -15.203184 -29.255774
13180000000 -19.283295 61.231922 -39.410477 110.64359 -39.380196 109.11975 -15.923414 -30.186277
13190000000 -19.001884 59.429928 -38.935123 84.96669 -38.96743 83.733322 -16.909491 -30.78756
13200000000 -18.925112 55.661453 -39.255642 59.033184 -39.319843 58.126263 -18.054735 -31.598333
13210000000 -19.001253 52.498924 -40.123142 35.69598 -40.037834 34.725582 -19.17914 -32.813126
13220000000 -19.638365 49.418751 -40.438393 19.585585 -40.525486 18.64506 -20.070282 -33.285698
13230000000 -19.848171 53.092777 -40.002495 -0.98977166 -39.939816 -1.7856237 -20.826347 -32.265343
13240000000 -19.771328 54.510105 -39.431866 -21.984884 -39.410561 -23.584162 -21.642082 -28.785204
13250000000 -19.395996 54.757023 -39.273022 -46.930805 -39.14056 -47.872562 -22.941063 -21.850212
13260000000 -19.210758 55.023674 -38.839626 -73.56694 -38.867085 -74.987053 -24.489019 -11.342691
13270000000 -18.828917 51.862602 -39.709469 -99.290619 -39.717064 -100.67482 -26.142393 1.7336857
13280000000 -18.948711 47.915169 -40.059711 -119.29623 -40.113792 -120.39726 -27.313723 16.511898
13290000000 -19.238688 45.610703 -40.148087 -140.52936 -40.000927 -140.67964 -27.284698 29.662167
13300000000 -19.392239 42.893238 -39.980278 -162.94035 -39.824718 -165.36954 -26.185387 38.26722
13310000000 -20.012136 40.087463 -40.192543 175.00693 -40.086075 174.12947 -24.583855 45.440189
13320000000 -20.17421 41.901939 -39.837563 150.84665 -39.915611 149.96758 -22.984316 52.564159
13330000000 -20.096382 39.600182 -40.310711 130.11342 -40.138504 129.5031 -21.479448 58.756752
13340000000 -20.326866 40.952251 -40.309853 104.15487 -40.19326 102.72381 -20.239937 61.907784
13350000000 -20.336439 41.058521 -40.529694 83.181847 -40.562069 81.38446 -19.480894 62.403019
13360000000 -19.756138 42.580799 -40.202934 61.184711 -40.400597 59.904839 -18.84071 60.749413
13370000000 -19.477083 37.02911 -40.440807 37.581429 -40.401852 37.553146 -18.0296 57.65966
13380000000 -19.559189 33.706825 -40.599255 13.08428 -40.568775 11.711459 -16.97085 54.32262
13390000000 -20.190514 28.699179 -41.150364 -10.084786 -41.098152 -11.021817 -15.948146 51.788471
13400000000 -20.635538 27.781862 -41.29467 -30.902584 -41.195789 -31.933741 -15.09889 50.33334
13410000000 -21.657835 23.633141 -41.037239 -52.765118 -40.974785 -54.306072 -14.508473 49.501469
13420000000 -22.245945 29.61327 -40.98344 -78.101257 -40.972946 -79.615334 -14.113105 47.733891
13430000000 -22.087055 28.661472 -41.306492 -104.55737 -41.344616 -105.60815 -13.885449 44.875599
13440000000 -21.893276 31.321857 -41.609795 -127.18782 -41.687328 -127.88869 -13.686229 41.332245
13450000000 -21.240736 29.001667 -42.11869 -153.33217 -42.052139 -154.48306 -13.372369 37.271671
13460000000 -20.859278 23.62055 -42.28717 -173.27724 -42.293327 -175.26781 -13.022272 33.339867
13470000000 -21.731989 17.117292 -42.358799 159.79434 -42.507092 159.65724 -12.760314 29.967196
13480000000 -21.980072 18.74091 -43.143078 134.75319 -43.107117 135.07637 -12.637051 27.25823
13490000000 -22.615965 13.412082 -43.710304 112.58265 -43.593044 110.78101 -12.585386 24.868694
13500000000 -23.304911 13.145393 -43.605755 89.306244 -43.695797 86.782524 -12.617828 22.157845
13510000000 -24.617668 15.696484 -44.302494 56.381073 -44.414738 55.721611 -12.707224 19.259943
13520000000 -24.510889 19.740597 -46.524132 35.198921 -46.326706 33.696598 -12.826741 16.566559
13530000000 -24.772696 20.751125 -46.647243 17.132439 -46.643471 16.638075 -13.023561 14.435828
13540000000 -24.020054 20.691214 -46.979164 -5.899776 -46.653545 -7.8549123 -13.234715 12.844481
13550000000 -23.778004 17.411791 -47.674519 -34.518372 -47.728886 -33.645916 -13.49232 11.344121
13560000000 -23.325729 11.03073 -48.44561 -58.863239 -48.523148 -59.663097 -13.822275 9.8203354
13570000000 -24.723528 5.3263593 -50.57859 -80.169006 -50.363766 -80.694153 -14.110144 8.524518
13580000000 -24.81554 3.5816202 -50.774643 -102.90165 -50.586132 -103.42866 -14.313471 7.6806059
13590000000 -27.321617 -0.55317158 -51.854664 -126.78673 -51.405495 -130.08882 -14.435125 7.1244478
13600000000 -28.135225 15.253535 -51.896572 -158.05792 -52.096481 -161.8347 -14.498601 7.3466325
13610000000 -27.738232 28.03405 -55.735554 166.68489 -56.238415 162.86491 -14.586345 8.2517538
13620000000 -26.008451 24.717712 -56.973804 140.26361 -56.889687 142.09201 -14.652019 9.6913052
13630000000 -26.436668 21.463099 -59.541203 151.34639 -59.463348 151.74492 -14.715312 10.710467
13640000000 -25.862045 14.936242 -56.155899 94.927681 -56.250755 93.600487 -14.753329 11.360319
13650000000 -27.135391 6.3652649 -57.557381 47.071072 -57.466209 48.12846 -14.700882 11.308017
13660000000 -27.69434 6.5958786 -57.594582 -15.73235 -57.0228 -10.391331 -14.586004 10.801826
13670000000 -29.243036 6.2575498 -56.413433 -60.348869 -56.250336 -64.207008 -14.38964 10.28926
13680000000 -29.635935 13.164206 -55.683903 -107.63461 -55.896526 -110.03099 -14.068344 9.9788876
13690000000 -29.715311 22.171915 -55.773495 -147.32855 -55.649456 -147.31596 -13.7521 9.1690626
13700000000 -28.279072 27.579441 -55.754402 -172.11348 -55.499065 -175.32365 -13.493192 8.158082
13710000000 -27.84605 27.42342 -54.818825 173.51242 -54.595482 173.85744 -13.258726 6.3474145
13720000000 -27.316523 27.325716 -52.015175 150.43384 -51.932858 145.80305 -13.142897 3.9413235
13730000000 -27.227678 24.957251 -50.017826 128.95689 -50.106388 128.74469 -13.001272 1.6852925
13740000000 -26.55896 19.789534 -48.048409 93.703415 -48.025459 93.412247 -12.835265 -0.81935143
13750000000 -28.195156 7.9157557 -47.729328 62.82608 -47.720234 62.31974 -12.687511 -3.5452309
13760000000 -29.651644 11.907643 -47.170784 30.703661 -46.947651 30.262182 -12.707116 -6.3080983
13770000000 -30.859833 13.126276 -48.251434 9.2798014 -48.249092 7.1863852 -12.858001 -9.3150091
13780000000 -31.289299 23.718252 -48.139297 -6.3088565 -48.332123 -9.0389471 -13.102598 -12.69228
13790000000 -29.412437 32.547512 -46.400158 -30.020662 -46.475826 -31.183544 -13.278254 -16.520706
13800000000 -27.608433 29.021307 -45.847321 -56.532928 -45.742256 -57.543156 -13.440933 -21.20064
13810000000 -26.14399 19.275818 -45.631657 -82.767616 -45.618107 -84.596603 -13.603919 -25.011248
13820000000 -26.090704 6.0382166 -45.209766 -106.92048 -45.109882 -108.26099 -13.868541 -28.030691
13830000000 -26.799862 1.2549438 -44.792858 -134.61565 -44.978359 -136.18616 -14.234603 -30.143312
13840000000 -27.677269 -8.6722593 -45.410671 -159.94623 -45.408649 -160.45303 -14.715238 -32.20533
13850000000 -29.752293 -2.1222267 -46.069775 -177.57791 -45.896202 -179.22931 -15.256948 -34.856339
13860000000 -29.792782 1.0223684 -45.27108 163.1149 -45.340332 161.54842 -15.912761 -38.122993
13870000000 -29.664352 7.0288887 -44.700413 141.74803 -44.724373 140.46143 -16.581676 -40.564339
13880000000 -29.385771 6.3287902 -43.882507 115.50886 -44.101349 114.12484 -17.253965 -42.223282
13890000000 -27.781887 6.7409568 -44.024513 89.863472 -44.085945 89.627998 -18.064259 -43.271744
13900000000 -27.440655 -7.4582143 -44.316624 67.932716 -44.213379 66.322647 -18.99197 -43.387058
13910000000 -27.768299 -9.2764864 -43.837193 44.389904 -43.819645 43.397762 -19.948959 -43.251465
13920000000 -27.143465 -17.000864 -44.381371 19.603302 -44.443268 19.066711 -20.823851 -43.512211
13930000000 -27.565582 -27.510746 -44.260349 0.25526682 -44.220528 0.8109054 -21.550516 -42.345654
13940000000 -28.561983 -37.511917 -44.256809 -22.664646 -44.047867 -22.585232 -22.036833 -39.894402
13950000000 -30.580597 -43.340851 -43.586689 -40.15065 -43.557289 -42.061485 -22.440046 -35.062332
13960000000 -32.023979 -44.574123 -42.689133 -65.960831 -42.404984 -66.583221 -22.893818 -27.958527
13970000000 -33.621864 -32.554199 -42.877705 -94.310738 -42.674828 -97.302559 -23.160494 -19.446556
13980000000 -31.35906 -26.188297 -43.178391 -118.06371 -43.210178 -119.72208 -23.353355 -12.847119
13990000000 -29.116835 -35.566799 -43.018917 -141.20354 -42.960094 -143.17361 -23.532858 -7.5536761
14000000000 -28.132959 -50.925423 -43.226021 -164.56175 -43.223942 -165.21356 -23.660107 -4.8992848
14010000000 -27.319899 -59.283897 -43.306564 177.00223 -43.006424 174.61961 -23.878246 -4.5056477
14020000000 -27.007107 -72.634628 -42.689392 150.13309 -42.673576 148.63434 -24.050308 -3.4204352
14030000000 -27.914574 -84.749428 -42.839233 125.34779 -42.866966 124.49168 -23.873638 -1.9750735
14040000000 -30.043919 -90.641945 -42.576542 103.49202 -42.575375 102.00612 -23.75209 -2.3567848
14050000000 -30.728018 -80.413094 -42.13353 75.695396 -42.12635 74.053726 -23.717621 -1.9230441
14060000000 -31.27149 -83.64151 -42.891731 48.844406 -42.879066 45.794456 -23.78932 -1.4746506
14070000000 -31.385355 -82.19323 -42.997906 22.218626 -42.968292 19.982185 -23.902122 -2.0127966
14080000000 -31.640375 -90.427559 -43.660969 -3.4884844 -43.686455 -4.8656893 -24.13806 -1.9001815
14090000000 -31.462503 -84.276329 -44.230274 -22.793209 -44.173084 -23.873146 -24.177195 -1.2239014
14100000000 -29.820219 -98.781548 -44.014011 -47.214657 -44.013485 -48.764893 -23.987919 -0.51266617
14110000000 -28.789616 -102.20552 -43.749908 -74.396606 -43.844917 -75.6782 -23.92128 0.28969955
14120000000 -27.520985 -119.46882 -44.380341 -102.65893 -44.513088 -103.71181 -24.059454 2.274658
14130000000 -27.437119 -129.84866 -44.641445 -129.07211 -44.606598 -129.1911 -24.318727 3.7940848
14140000000 -27.469633 -141.53758 -45.8008 -162.32523 -45.571609 -162.29503 -24.825266 3.4310172
14150000000 -28.912395 -147.72536 -47.2043 173.78082 -46.937115 172.4752 -25.485533 0.99453449
14160000000 -30.223801 -152.95517 -48.735107 150.55853 -48.582573 147.36533 -25.996391 -1.1177855
14170000000 -32.734837 -136.31462 -49.109901 125.49213 -49.543041 124.3969 -26.234098 -2.8680189
14180000000 -30.029402 -125.43006 -51.153728 102.91125 -51.239014 99.482407 -26.689844 -2.4401588
14190000000 -28.207718 -132.59789 -51.636623 78.397667 -51.378494 75.924004 -27.623722 0.83718169
14200000000 -26.823824 -145.14249 -52.298756 47.965481 -51.885941 47.52425 -29.186489 8.3201551
14210000000 -26.775047 -154.34006 -53.902248 4.0500937 -53.479942 1.4234612 -31.50593 20.275093
14220000000 -26.568995 -163.24434 -57.216434 -37.720074 -57.842979 -41.893646 -33.660748 40.093044
14230000000 -27.469524 -171.70483 -61.949574 -100.61442 -61.927345 -102.61854 -34.713127 65.156281
14240000000 -27.769712 -168.32275 -72.835587 121.3334 -75.320488 125.16577 -32.911098 89.465477
14250000000 -27.879911 -171.11345 -76.058556 53.301369 -72.697632 68.356079 -30.134153 99.082596
14260000000 -28.124054 -171.86542 -86.902382 41.290573 -86.370552 34.632397 -27.730061 104.5996
14270000000 -28.532179 -169.53848 -64.177032 118.72215 -64.326668 106.18889 -25.764967 107.57047
14280000000 -28.592152 -171.11745 -61.259865 89.96785 -61.987595 88.064087 -24.140947 109.28458
14290000000 -28.580933 -166.63791 -56.656208 49.83617 -57.066536 49.339848 -22.75927 107.68355
14300000000 -27.775827 -165.94821 -54.46677 9.9417706 -54.005814 11.005657 -21.800209 104.4441
14310000000 -26.170633 -169.57304 -54.061752 -19.864239 -54.445061 -24.026699 -20.782679 100.76341
14320000000 -25.884941 175.02942 -56.89061 -42.4505 -56.618515 -38.951996 -19.800028 97.104271
14330000000 -26.358885 168.85243 -53.979633 -54.977558 -53.972168 -61.599422 -18.690674 94.790421
14340000000 -27.72818 159.60495 -52.716179 -79.748665 -53.290886 -81.602646 -17.685053 92.702385
14350000000 -29.39525 165.59392 -52.787277 -98.521187 -53.226261 -100.88329 -16.91412 90.494102
14360000000 -30.786751 177.63263 -50.163681 -125.4006 -50.476433 -127.65055 -16.390476 88.718697
14370000000 -28.41902 -168.37883 -50.559044 -152.33643 -50.427723 -150.53119 -16.02103 86.810684
14380000000 -27.155626 -176.98398 -49.83419 -178.95921 -49.758999 178.287 -15.677096 84.509987
14390000000 -26.345665 179.46188 -50.234566 153.81581 -50.438843 155.51732 -15.342546 81.303162
14400000000 -26.530624 167.86282 -50.775608 131.94052 -50.397194 131.56143 -14.977278 77.900215
14410000000 -27.554775 162.64552 -50.65678 113.27939 -50.692577 114.67399 -14.604896 74.575645
14420000000 -29.187918 163.28685 -50.246796 95.146217 -50.079617 92.961014 -14.241428 71.670876
14430000000 -28.411112 171.83104 -50.716953 66.038544 -50.733845 63.501949 -13.979241 68.964096
14440000000 -28.438116 167.41093 -50.741989 50.38538 -50.641911 49.417927 -13.813212 66.749222
14450000000 -28.391216 173.59418 -50.572632 30.803946 -50.461494 30.082567 -13.642519 64.669174
14460000000 -28.370766 176.62723 -50.501202 9.0872431 -50.188454 5.7152705 -13.480263 62.427963
14470000000 -27.205656 -179.62561 -51.225101 -13.685245 -51.02663 -15.565421 -13.359078 59.958961
14480000000 -26.758608 -179.98433 -51.312126 -19.258718 -51.187199 -21.396799 -13.337409 58.258694
14490000000 -26.377144 177.43077 -49.66642 -42.974289 -49.643684 -44.884644 -13.368951 56.833836
14500000000 -25.9438 175.97546 -49.290939 -64.685577 -49.133595 -65.705292 -13.491199 55.84203
14510000000 -26.097324 166.4928 -49.400791 -84.049751 -49.511364 -88.081825 -13.570479 54.034374
14520000000 -28.271568 168.13863 -48.92794 -101.09663 -49.127964 -101.5248 -13.697069 51.93343
14530000000 -28.412472 172.97171 -48.55621 -124.0717 -48.470467 -123.87868 -13.694551 49.641228
14540000000 -28.126896 -169.92865 -47.79668 -135.83521 -47.393936 -138.11765 -13.681479 48.406418
14550000000 -25.389738 -172.86415 -45.983776 -162.50392 -45.79425 -165.39278 -13.551632 48.220032
14560000000 -24.369789 -177.25844 -45.557312 170.34329 -45.615124 167.02031 -13.443069 48.058285
14570000000 -23.728792 171.32996 -46.133972 146.62323 -46.285053 144.36356 -13.452239 47.947189
14580000000 -24.568645 170.23477 -45.737411 125.15375 -45.632797 124.13451 -13.575227 47.755539
14590000000 -24.781807 167.11479 -45.635719 106.38682 -45.764576 102.37583 -13.582129 47.949532
14600000000 -25.371387 174.91541 -44.542095 84.18856 -44.562519 82.947403 -13.518238 47.357128
14610000000 -24.658951 175.32689 -43.868168 57.592594 -43.997231 55.487465 -13.437322 46.860493
14620000000 -24.292648 179.59521 -43.952541 28.870562 -43.962582 28.222462 -13.404432 46.374268
14630000000 -23.37657 174.89543 -45.10033 6.0902386 -44.94088 4.6191926 -13.423095 46.121635
14640000000 -23.275682 173.7422 -45.262527 -8.090229 -45.280193 -9.6728392 -13.425076 45.597157
14650000000 -22.909847 171.1187 -43.999123 -26.435236 -44.230751 -27.25386 -13.294352 44.627056
14660000000 -22.449446 170.55565 -42.893238 -53.18784 -42.937305 -53.867409 -13.123274 42.530121
14670000000 -22.311102 166.52997 -42.706745 -83.439453 -42.654369 -84.417656 -12.983107 41.102615
14680000000 -21.77482 164.87619 -43.849174 -109.78288 -43.714085 -111.5439 -12.796035 40.208138
14690000000 -22.063662 159.25546 -44.502377 -129.67023 -44.576015 -131.27348 -12.668693 39.80505
14700000000 -22.498854 161.20851 -44.84589 -146.19597 -45.160751 -146.46417 -12.576665 39.255489
14710000000 -22.533867 164.35139 -43.701305 -161.67433 -43.675198 -161.63466 -12.578649 38.400131
14720000000 -21.971113 166.27547 -42.671104 170.42802 -42.492794 169.56447 -12.670585 37.22496
14730000000 -21.292986 165.02844 -42.4534 140.66353 -42.444439 139.03651 -12.79455 36.113667
14740000000 -20.451223 160.73634 -43.49123 111.5203 -43.337597 111.60084 -12.933831 34.420204
14750000000 -20.363338 153.39783 -44.729446 92.757797 -44.793251 91.319908 -13.114187 32.510696
14760000000 -20.575266 147.69705 -44.494286 75.690598 -44.327473 76.125313 -13.223829 30.803802
14770000000 -21.578104 145.9659 -44.349892 55.542828 -43.998196 55.042843 -13.285899 28.888042
14780000000 -21.207447 149.05318 -43.988976 30.593491 -43.677517 28.971115 -13.354308 27.819536
14790000000 -21.287193 149.48671 -43.888531 7.2353759 -43.747047 5.1343312 -13.393476 27.443974
14800000000 -20.418497 150.51184 -44.68996 -20.136034 -44.648682 -21.570864 -13.554325 27.052649
14810000000 -20.214092 146.6507 -45.61187 -42.4035 -45.270981 -43.032246 -13.776958 27.215208
14820000000 -19.956194 143.78059 -46.251228 -61.056183 -45.90097 -63.350517 -13.966576 27.340414
14830000000 -20.418879 141.91196 -46.810505 -80.584702 -46.566746 -83.5056 -14.154642 27.108814
14840000000 -20.183462 139.88553 -47.413651 -91.980019 -47.361645 -96.490395 -14.383672 27.112509
14850000000 -20.721207 137.71507 -46.317387 -114.00501 -46.530983 -115.57986 -14.61714 27.914703
14860000000 -20.483688 136.20476 -46.541382 -136.27762 -46.537846 -139.84335 -14.858272 28.594065
14870000000 -20.744562 133.05147 -46.510708 -162.74792 -46.827351 -163.77879 -15.125178 29.249289
14880000000 -20.723349 129.21159 -48.292984 176.79213 -48.527107 175.91141 -15.388508 28.388395
14890000000 -21.388832 127.88099 -48.292557 172.45953 -48.323071 170.99509 -15.559249 27.879574
14900000000 -21.249256 129.71088 -47.53233 149.97414 -47.875076 148.83281 -15.500311 27.585577
14910000000 -20.871901 131.4837 -46.804462 127.86066 -46.970196 127.00084 -15.328224 28.446356
14920000000 -20.117908 126.78233 -47.229816 110.4661 -47.770809 110.39323 -15.231807 30.331802
14930000000 -20.326708 123.70671 -47.244667 89.79306 -47.24828 91.328743 -15.250222 33.102791
14940000000 -20.490599 118.44166 -46.816174 74.782089 -46.6539 75.583153 -15.438892 35.623245
14950000000 -21.428873 118.10605 -46.342747 50.919933 -46.001968 50.27425 -15.62364 37.681473
14960000000 -22.013149 117.89236 -45.740231 29.725302 -45.708698 28.682802 -15.704173 38.464661
14970000000 -22.359692 124.11294 -46.734406 6.5355768 -46.467236 6.8573318 -15.804175 38.480656
14980000000 -22.143333 120.59069 -45.810173 -5.8584886 -45.637466 -6.7343173 -15.858475 40.373802
14990000000 -22.131834 123.14729 -44.946323 -32.539257 -44.790867 -33.949883 -15.747392 42.528336
15000000000 -21.85598 115.36531 -45.202885 -56.515785 -45.137829 -58.115643 -15.656827 43.75264
15010000000 -22.480776 113.92132 -45.728497 -76.106239 -45.442478 -78.586365 -15.601616 43.792492
15020000000 -23.191292 109.72411 -45.621685 -96.027893 -45.746189 -98.401718 -15.466749 43.011002
15030000000 -23.487165 116.78999 -45.313427 -112.38545 -45.026161 -113.56198 -15.137615 42.699512
15040000000 -23.137674 113.84266 -44.030441 -134.19821 -43.834538 -135.62119 -14.708128 43.361786
15050000000 -23.265472 115.85113 -43.918266 -161.17877 -43.796772 -163.92776 -14.187821 45.277405
15060000000 -23.556295 113.20045 -44.443718 174.82858 -44.571209 171.78969 -13.840055 46.651741
15070000000 -23.984163 116.48407 -44.636143 155.31773 -44.847881 155.06985 -13.776773 47.385773
15080000000 -24.527254 118.2027 -44.222054 133.93265 -44.190342 131.92598 -13.920024 47.955898
15090000000 -24.08782 123.4472 -44.425392 109.71867 -44.345871 109.04015 -13.860551 47.654713
15100000000 -24.101494 120.40564 -44.653831 91.78981 -44.723885 89.516632 -13.732796 46.383232
15110000000 -24.252827 120.85365 -44.487732 71.663475 -44.590675 69.095871 -13.504583 44.512123
15120000000 -24.559484 119.51411 -44.059483 49.225574 -44.300419 49.334763 -13.369149 42.877399
15130000000 -24.673405 116.81832 -43.987572 28.723186 -43.932816 28.255291 -13.3425 41.973793
15140000000 -25.776045 121.22239 -43.503181 1.9491493 -43.446365 2.7560928 -13.243631 41.418915
15150000000 -24.9632 127.21096 -44.698235 -17.313726 -44.628559 -18.420263 -12.976603 40.569862
15160000000 -24.368292 128.45854 -43.865395 -35.099743 -43.853283 -36.500381 -12.74832 39.226078
15170000000 -23.742661 126.22607 -43.117809 -62.066441 -43.262005 -61.905682 -12.617637 38.170097
15180000000 -23.824848 124.4955 -43.868408 -90.821617 -43.687469 -91.123177 -12.677061 38.073177
15190000000 -23.707636 124.99455 -45.679394 -112.42738 -45.649429 -113.19591 -12.808356 38.653839
15200000000 -23.912682 125.7984 -45.883488 -119.49964 -45.722019 -122.34471 -12.918476 38.828247
15210000000 -23.680538 125.49063 -44.348145 -135.76442 -44.285103 -136.02579 -13.002155 37.61869
15220000000 -23.847698 128.16103 -43.225906 -163.97601 -43.256832 -164.7265 -13.197445 35.118099
15230000000 -23.300056 125.76379 -43.398502 165.35016 -43.318165 164.64673 -13.459962 33.429848
15240000000 -23.616858 126.06168 -44.808147 138.76057 -44.780243 138.61946 -13.579509 33.217213
15250000000 -23.397778 123.27504 -45.912231 126.18842 -45.807503 124.48572 -13.530822 33.006653
15260000000 -23.753721 125.8091 -45.388775 112.07526 -45.391445 110.44207 -13.400575 32.253708
15270000000 -23.112356 127.01765 -44.830612 86.337097 -44.738747 85.917984 -13.402104 31.501274
15280000000 -22.087864 124.17858 -45.543018 65.386635 -45.554756 64.697395 -13.481013 32.092052
15290000000 -22.168056 116.75161 -45.699211 49.867435 -45.722954 48.089428 -13.570858 33.981533
15300000000 -22.547401 113.69907 -44.97459 32.493824 -44.878716 30.024979 -13.585001 36.158344
15310000000 -23.188635 112.51381 -43.715229 8.030592 -43.956314 6.4014068 -13.673898 36.951267
15320000000 -23.376879 114.13625 -44.347679 -23.266552 -44.306759 -24.733011 -13.888822 36.823795
15330000000 -23.648935 117.39133 -45.514385 -47.246929 -45.679699 -47.163063 -14.095415 36.423813
15340000000 -22.974941 116.9174 -46.803749 -59.367035 -46.776001 -59.217442 -14.229604 36.38649
15350000000 -22.845726 117.78789 -46.136913 -71.520927 -46.017742 -72.815041 -14.177508 36.762558
15360000000 -22.258722 110.52158 -45.194691 -95.596771 -45.184853 -97.026291 -14.092825 36.917576
15370000000 -22.878759 107.29668 -45.632088 -116.65567 -45.543404 -117.82471 -14.027955 36.969063
15380000000 -22.873268 101.19846 -45.480316 -135.94139 -45.38702 -137.77109 -13.965406 36.259026
15390000000 -24.225901 101.09866 -44.990482 -155.05602 -44.900402 -157.79762 -13.886688 35.971828
15400000000 -24.033287 100.72488 -44.955318 176.69531 -45.082676 174.16237 -13.673439 36.163601
15410000000 -24.278671 100.90821 -46.418991 157.07457 -46.53672 156.82236 -13.41055 37.113255
15420000000 -24.546072 96.187035 -46.75769 144.73073 -46.686222 144.32684 -13.307446 38.09491
15430000000 -25.334112 100.36655 -46.021423 129.76859 -45.792965 129.4339 -13.425136 39.249542
15440000000 -24.772175 98.058647 -45.00629 112.91283 -44.882786 110.75499 -13.700149 40.000698
15450000000 -25.449545 97.441597 -43.935776 85.461006 -44.141445 84.212585 -13.878087 39.767075
15460000000 -25.252401 94.394424 -44.828918 64.337875 -44.817059 64.699921 -13.931465 38.071217
15470000000 -25.539709 91.565529 -43.995884 47.266655 -43.966488 45.857735 -13.924783 35.747604
15480000000 -25.963228 82.719696 -43.279831 23.803936 -43.15675 23.747931 -13.881545 34.642525
15490000000 -27.467911 81.441216 -43.509678 -2.6500955 -43.27676 -3.8067753 -13.892445 34.669922
15500000000 -28.589577 73.123131 -43.956116 -20.794371 -44.098801 -21.443951 -13.858259 35.987339
15510000000 -30.807707 83.381638 -44.119495 -35.678833 -43.884766 -36.021225 -13.74614 36.879509
15520000000 -30.719362 88.708237 -42.394112 -52.567898 -42.273502 -54.092102 -13.637542 37.203575
15530000000 -29.849438 92.379364 -41.337482 -81.438683 -41.189831 -83.052887 -13.638503 37.447365
15540000000 -30.250967 81.896225 -41.550655 -109.69469 -41.436165 -112.14005 -13.734638 38.379601
15550000000 -31.062151 82.080254 -41.835155 -131.11671 -41.947853 -133.61707 -13.86902 40.255795
15560000000 -32.774872 70.11718 -41.917347 -154.17435 -41.935814 -154.49576 -13.933371 41.908489
15570000000 -34.964725 73.804413 -41.63472 -174.33417 -41.623322 -175.05284 -13.969687 42.612282
15580000000 -39.269001 50.265469 -41.662033 162.12656 -41.647736 159.82536 -14.041584 41.848377
15590000000 -42.903912 106.95084 -41.461372 141.86673 -41.478912 140.0834 -14.216257 41.04932
15600000000 -48.179234 75.383003 -40.82687 118.60432 -41.009075 116.33516 -14.284545 40.991558
15610000000 -47.437943 166.72665 -40.898605 90.549324 -41.146671 90.360504 -14.095652 40.959129
15620000000 -46.291721 -134.61392 -41.464298 67.337997 -41.333851 66.401138 -13.849446 40.44717
15630000000 -40.080494 -157.77879 -41.961697 45.817631 -42.013233 44.233742 -13.64127 40.296909
15640000000 -39.796886 -143.95178 -41.786751 29.303789 -41.916401 27.806086 -13.489929 40.829811
15650000000 -37.984215 -165.80176 -41.379265 4.8639808 -41.476421 4.687746 -13.441434 42.352928
15660000000 -39.62701 -124.46175 -41.10527 -20.315378 -41.097954 -20.759964 -13.40782 44.05051
15670000000 -34.784611 -133.13463 -41.815315 -46.872162 -41.724171 -46.589947 -13.471284 44.963268
15680000000 -32.149876 -124.39669 -42.684311 -70.137215 -42.603878 -70.883011 -13.591355 44.939049
15690000000 -30.394314 -138.42914 -43.156242 -82.350586 -43.062416 -83.341423 -13.696547 44.558525
15700000000 -28.897654 -136.0948 -42.296043 -104.03727 -42.175453 -105.35181 -13.731997 44.2005
15710000000 -27.961739 -148.08769 -42.019821 -130.43806 -42.036404 -131.54787 -13.729795 44.153172
15720000000 -27.997925 -148.50668 -42.808113 -154.81801 -42.664467 -155.50038 -13.71604 45.055954
15730000000 -28.187366 -149.12105 -43.188667 -173.85353 -42.93396 -175.34499 -13.633072 45.598614
15740000000 -27.702227 -143.26389 -43.751942 163.73106 -43.835754 161.94115 -13.501961 45.411964
15750000000 -26.849388 -144.5489 -43.518372 145.78027 -43.501984 145.33664 -13.35194 44.872952
15760000000 -26.195028 -143.87569 -43.745979 122.05496 -43.617035 121.1248 -13.132106 45.134964
15770000000 -25.635489 -146.82744 -44.580074 102.90738 -44.482033 100.93723 -12.820043 46.519585
15780000000 -25.471127 -146.4066 -44.503353 86.880844 -44.331959 83.673088 -12.534399 48.787998
15790000000 -24.527166 -146.32986 -44.232155 66.269531 -44.294323 63.790115 -12.352385 50.614361
15800000000 -23.671059 -149.82913 -44.273937 44.57135 -44.350765 44.060081 -12.365826 51.743542
15810000000 -23.434649 -154.3488 -44.139835 23.290911 -44.130276 21.064976 -12.42293 51.543259
15820000000 -23.459116 -154.97684 -44.13895 2.3263192 -44.184071 -0.33014393 -12.446884 50.331242
15830000000 -23.152075 -154.18016 -44.486271 -19.008007 -44.419796 -22.196157 -12.310237 48.770176
15840000000 -23.135374 -154.70064 -44.512081 -39.366795 -44.626488 -41.185524 -12.075434 47.345791
15850000000 -23.221272 -153.12968 -44.599854 -57.948193 -44.666447 -58.351734 -11.79479 46.385975
15860000000 -22.583353 -148.43428 -44.269203 -77.310287 -44.416054 -78.089844 -11.507408 45.506054
15870000000 -21.862545 -151.09216 -44.088894 -99.919792 -44.026123 -100.06786 -11.271364 44.656384
15880000000 -21.537769 -152.76663 -43.614365 -120.30785 -43.803188 -122.28301 -11.043324 43.874706
15890000000 -21.521036 -155.72118 -43.710068 -143.39493 -44.035625 -145.57289 -10.81146 43.467041
15900000000 -21.577469 -156.72702 -43.727119 -167.21904 -43.903126 -166.76396 -10.598476 43.232319
15910000000 -21.431246 -156.3549 -44.216389 171.47823 -44.305576 172.16527 -10.451898 42.905289
15920000000 -20.930708 -156.06393 -44.224609 152.56485 -44.008015 151.93488 -10.420224 42.253784
15930000000 -20.793003 -157.58844 -44.07095 130.3922 -44.081593 129.91986 -10.468924 41.274677
15940000000 -20.624256 -155.98393 -44.244316 106.20073 -44.449123 105.64223 -10.527017 39.887455
15950000000 -20.246679 -155.06412 -44.791317 85.09848 -44.981941 85.141136 -10.536212 38.019936
15960000000 -19.79076 -155.15918 -44.942112 69.379898 -44.788319 71.186035 -10.508425 35.540421
15970000000 -19.618584 -155.60204 -44.42989 50.928345 -44.322102 49.918194 -10.472602 32.987621
15980000000 -19.511608 -154.08226 -43.887264 28.811726 -43.66404 27.443502 -10.375134 30.917469
15990000000 -18.848448 -152.91943 -43.445953 3.3131206 -43.536541 1.7379427 -10.234848 29.251904
16000000000 -18.652784 -156.53369 -44.184139 -22.303225 -44.096092 -21.951992 -10.130869 28.355442
16010000000 -18.656157 -156.79184 -44.790745 -41.938923 -44.313934 -44.165901 -10.030209 28.049694
16020000000 -18.70406 -156.8006 -45.261135 -58.895084 -45.036983 -61.022884 -10.054065 27.285246
16030000000 -18.374512 -154.72063 -44.476681 -76.639969 -44.460529 -78.913551 -10.247595 26.056986
16040000000 -17.869205 -155.07738 -44.489815 -101.56246 -44.397659 -102.43197 -10.519001 24.693495
16050000000 -17.46903 -156.10304 -44.352646 -121.36993 -44.250431 -123.70866 -10.685452 23.242031
16060000000 -17.159277 -155.83199 -44.540085 -144.15245 -44.660976 -145.38672 -10.777342 21.084936
16070000000 -16.70125 -156.20633 -44.300953 -163.42603 -44.252071 -166.02757 -10.897825 18.901102
16080000000 -16.340776 -157.12849 -43.674091 168.83847 -43.831169 166.6591 -11.104828 17.052603
16090000000 -16.156269 -158.10872 -44.663616 144.62399 -44.82724 142.77357 -11.321303 15.408477
16100000000 -16.004667 -158.01151 -45.447262 121.52404 -45.418083 121.45293 -11.463609 13.712276
16110000000 -15.778449 -158.01959 -46.381371 108.12519 -46.231159 106.76695 -11.491238 12.266082
16120000000 -15.463383 -158.43721 -45.072636 92.300415 -45.243359 89.662727 -11.45344 11.363347
16130000000 -15.227894 -159.31999 -44.720833 67.671066 -44.849117 64.885513 -11.475834 11.685982
16140000000 -15.017424 -158.90385 -44.668842 41.818958 -45.206261 40.84589 -11.662702 12.844995
16150000000 -14.506419 -159.71663 -45.243931 21.093218 -45.25013 21.390776 -12.002661 14.111276
16160000000 -14.14992 -161.38054 -45.518593 -2.3322785 -45.559647 -1.9299421 -12.372793 14.430129
16170000000 -13.712508 -162.46072 -45.748135 -22.547468 -45.826809 -24.122194 -12.758969 12.983596
16180000000 -13.514163 -164.4762 -46.953949 -42.772812 -46.95599 -43.31797 -13.056222 10.79506
16190000000 -13.289738 -165.19531 -46.73489 -58.982796 -46.565544 -58.631622 -13.249772 8.6277332
16200000000 -13.178193 -165.73248 -46.338154 -73.304428 -46.113239 -74.134804 -13.350449 7.8428245
16210000000 -12.990576 -165.97598 -45.044594 -95.806274 -44.963367 -98.100945 -13.367889 7.1354537
16220000000 -12.848099 -165.27859 -44.722931 -126.06953 -44.697662 -127.41461 -13.41669 6.3329473
16230000000 -12.347698 -165.7332 -45.958069 -151.59683 -45.884281 -153.54236 -13.476487 5.5667067
16240000000 -12.084048 -167.00291 -46.926392 -171.95958 -46.790295 -172.65654 -13.517911 5.6307535
16250000000 -11.787177 -169.18103 -47.205673 172.27179 -46.832787 169.86108 -13.490255 6.8015232
16260000000 -11.651949 -170.84351 -46.782215 155.7637 -46.935951 154.56645 -13.531427 8.568882
16270000000 -11.363534 -172.9864 -46.258827 137.19287 -46.153664 135.53749 -13.664874 10.053251
16280000000 -11.291825 -174.82579 -45.606026 110.51588 -45.7033 109.58058 -14.039791 10.08607
16290000000 -11.140866 -175.49728 -45.874897 85.3172 -45.63068 82.989227 -14.527066 9.07728
16300000000 -10.998069 -175.77684 -46.200256 58.442562 -46.248272 55.76812 -14.880307 7.0697045
16310000000 -10.67358 -175.99644 -47.892063 33.683693 -47.895527 33.553871 -15.024743 4.6591005
16320000000 -10.380939 -176.50734 -48.491875 23.480986 -48.593487 21.798193 -15.015042 2.4312963
16330000000 -10.068881 -177.72743 -48.759438 8.075758 -48.575027 6.6613903 -15.023276 0.57298928
16340000000 -9.8851566 -179.00336 -47.393349 -12.283622 -47.609348 -14.022942 -15.106794 -0.87551779
16350000000 -9.7074966 179.39401 -47.94054 -37.274704 -47.83754 -38.180546 -15.19113 -1.3627763
16360000000 -9.5602713 177.68016 -47.883789 -59.700855 -47.894844 -61.100018 -15.202619 -1.3363907
16370000000 -9.535512 175.69077 -49.097721 -83.405502 -48.924282 -82.459633 -15.261221 -1.0084964
16380000000 -9.5036612 174.63953 -50.100067 -95.935692 -49.866016 -97.967316 -15.574632 -0.45130187
16390000000 -9.3896875 174.16788 -50.213295 -108.82983 -49.997375 -110.89983 -16.155247 0.051332522
16400000000 -9.1476545 173.36818 -49.26709 -124.24275 -49.247234 -125.86696 -16.904963 -0.24782079
16410000000 -8.9216652 172.44923 -48.10358 -143.80193 -48.226604 -145.27116 -17.585018 -1.8807658
16420000000 -8.6734743 171.6524 -47.638584 -167.16797 -48.025017 -167.90128 -18.044683 -4.7136927
16430000000 -8.3502064 170.43771 -47.361626 165.98782 -47.50589 166.04112 -18.387035 -7.7691569
16440000000 -8.1880045 168.75894 -48.186378 143.51123 -48.073208 141.64227 -18.762142 -9.1366463
16450000000 -8.0657091 167.25706 -48.982212 125.33945 -49.211887 124.24655 -19.270365 -9.0802879
16460000000 -8.0683146 165.94612 -48.749817 113.41077 -48.477314 113.74868 -19.806412 -7.5545921
16470000000 -8.0712614 165.2448 -47.331615 94.040787 -47.309093 93.579079 -20.038958 -5.9718356
16480000000 -7.9916229 165.00954 -47.142895 71.552834 -46.926044 70.20414 -20.143072 -4.0502567
16490000000 -7.8128948 164.30289 -46.789387 48.504452 -46.641624 45.89661 -20.261902 -0.23930739
16500000000 -7.6566191 163.62874 -46.250618 25.873331 -46.126377 23.979164 -20.543089 6.0006042
16510000000 -7.3534346 162.35056 -45.959511 -0.68151081 -46.019417 -1.9748297 -21.067862 13.450949
16520000000 -7.1683254 160.73203 -47.041351 -24.681221 -46.947884 -25.241838 -21.814581 19.830671
16530000000 -6.9798107 158.82002 -47.164711 -43.950756 -47.226601 -46.168381 -22.718504 22.914011
16540000000 -6.9560814 157.69063 -47.789974 -58.991123 -47.67992 -59.684788 -23.242338 21.360664
16550000000 -6.85113 156.86719 -46.234386 -75.653435 -46.281631 -76.607361 -23.335367 18.27375
16560000000 -6.7823434 156.53006 -45.276829 -102.11313 -45.059208 -103.1993 -23.020536 17.259617
16570000000 -6.6322064 155.92639 -45.192108 -132.22337 -44.877563 -133.66887 -22.693495 19.27466
16580000000 -6.4991565 155.57518 -45.552189 -158.30814 -45.487419 -161.6861 -22.511105 22.122786
16590000000 -6.2947221 154.54364 -46.718426 178.49028 -46.797874 176.82625 -22.43454 25.306484
16600000000 -6.1413088 153.45148 -46.888596 161.0014 -47.026165 159.08846 -22.306416 26.445553
16610000000 -5.9646616 151.80672 -46.807144 137.83788 -46.933075 137.82819 -22.228302 28.716896
16620000000 -5.8644094 150.39398 -47.186195 118.15103 -47.284691 116.26222 -21.903471 33.311344
16630000000 -5.7082872 149.08098 -46.758862 99.111938 -46.799294 97.634674 -21.692022 39.687981
16640000000 -5.5905304 147.91379 -46.740318 71.490425 -46.861332 70.828583 -21.750866 46.219387
16650000000 -5.4488363 146.85934 -47.261402 48.146606 -47.3172 49.315212 -22.140221 52.005138
16660000000 -5.3438773 146.24403 -47.709949 25.055109 -47.645363 22.959917 -22.786097 55.164665
16670000000 -5.1444063 145.75575 -48.419353 2.1086071 -48.454777 1.3384814 -23.236187 54.979179
16680000000 -4.9260445 144.8954 -49.878967 -19.95249 -49.744492 -20.944603 -23.053411 52.218052
16690000000 -4.7228117 143.59737 -50.105591 -34.45673 -50.435349 -35.30645 -22.396971 50.055431
16700000000 -4.6074266 142.21815 -50.66811 -47.58168 -50.399544 -49.238026 -21.48785 50.046711
16710000000 -4.4618855 140.95331 -49.90509 -65.955917 -50.003414 -65.806602 -20.685354 51.925945
16720000000 -4.3629599 139.50365 -49.686932 -87.531372 -49.563148 -87.519829 -20.030714 54.457378
16730000000 -4.2488241 138.14499 -50.024975 -108.57813 -49.825497 -109.66522 -19.50757 56.368778
16740000000 -4.1347089 137.12149 -50.19202 -130.38698 -49.918812 -132.91606 -19.128111 57.601246
16750000000 -3.9629922 135.9874 -50.344471 -146.33031 -50.620686 -148.20169 -18.859907 58.23106
16760000000 -3.7838252 134.77872 -50.305119 -166.68719 -50.189381 -165.64734 -18.690334 58.672871
16770000000 -3.6017382 133.33501 -49.874443 179.15147 -50.007946 178.08931 -18.668167 58.419395
16780000000 -3.4774168 131.99147 -49.329205 154.06137 -49.567959 153.46857 -18.732264 57.469589
16790000000 -3.3436024 130.78076 -49.35482 135.26741 -49.195389 133.92155 -18.803497 54.897648
16800000000 -3.2121868 129.48378 -49.693943 114.6967 -49.525005 115.03856 -18.850605 50.494907
16810000000 -3.0817888 128.0117 -48.670471 96.549583 -48.472416 96.604378 -18.875557 45.543037
16820000000 -2.9862111 126.51888 -48.273956 72.77668 -47.998535 70.141365 -18.734255 41.637508
16830000000 -2.8733041 124.98438 -48.204475 48.112061 -48.331276 44.588573 -18.34725 39.089909
16840000000 -2.7726974 123.55176 -48.508053 24.601866 -48.589718 23.040501 -17.922539 37.47546
16850000000 -2.6372375 122.09209 -48.708996 6.3248062 -48.612263 4.6902084 -17.66486 36.769302
16860000000 -2.5085068 120.56776 -48.48914 -14.208549 -48.711777 -16.004473 -17.707874 37.326942
16870000000 -2.3741019 119.08955 -48.30051 -31.870544 -48.049648 -32.331409 -17.973337 38.268581
16880000000 -2.2521379 117.65997 -47.372128 -58.648895 -47.242725 -59.422394 -18.546125 39.416622
16890000000 -2.125248 116.19151 -47.545208 -83.355316 -47.394348 -84.310982 -19.202234 38.772572
16900000000 -2.0361569 114.80424 -47.986313 -105.26825 -47.93047 -107.96274 -20.001251 35.915775
16910000000 -1.947445 113.39638 -47.888657 -126.9081 -47.747112 -128.65028 -20.798151 32.059013
16920000000 -1.8680212 112.05512 -47.542095 -150.12196 -47.510178 -150.70529 -21.426567 28.545874
16930000000 -1.7740083 110.55989 -47.907494 -173.59319 -47.943336 -175.98387 -21.750166 26.524605
16940000000 -1.6973524 108.95678 -47.713371 163.3999 -48.135403 162.94366 -21.948378 25.657099
16950000000 -1.6073709 107.31728 -47.451881 140.83252 -47.631248 139.16742 -22.206383 26.530691
16960000000 -1.5249511 105.6551 -47.541172 115.02481 -47.627766 113.91949 -22.61265 30.015991
16970000000 -1.4319336 104.00717 -48.104401 91.223785 -48.031078 90.940147 -22.85462 36.20612
16980000000 -1.3468124 102.40736 -48.235973 67.819168 -48.314198 67.320511 -23.05567 43.630241
16990000000 -1.249698 100.84674 -48.478374 44.934078 -48.488483 43.546692 -23.154776 52.048573
17000000000 -1.1672531 99.303833 -49.028816 20.634724 -48.893059 19.360302 -23.127739 60.014256
