!Keysight Technologies,P9374A,MY57211807,A.19.30.04
!Date: Friday, May 08, 2026 15:00:45
!Correction: S11(C  2-Port  ) 
!S21(C  2-Port  ) 
!S12(C  2-Port  ) 
!S22(C  2-Port  ) 
!S2P File: Measurements: S11, S21, S12, S22:
# Hz S  dB   R 50
13000000000 -18.769978 58.888416 -44.947796 94.027878 -45.390465 95.088875 -8.7932062 22.316275
13010000000 -19.05327 58.261097 -44.443043 77.049805 -44.367325 78.880089 -8.8505392 18.312246
13020000000 -19.15521 59.951523 -43.881611 59.147232 -43.710754 58.102318 -8.9746189 14.497827
13030000000 -19.475904 59.770004 -43.373055 34.22176 -43.598995 32.585293 -9.1331987 10.722373
13040000000 -19.919102 61.577427 -43.852455 9.3308201 -44.098171 12.883443 -9.3093081 7.3013868
13050000000 -19.980978 64.003151 -44.800934 -10.1259 -44.262878 -6.4352236 -9.542201 4.0073113
13060000000 -19.832861 65.649757 -44.858364 -22.643206 -44.416378 -23.748728 -9.85536 0.70217454
13070000000 -19.502251 64.62645 -43.886501 -40.295811 -43.334892 -39.320133 -10.247409 -2.5038497
13080000000 -19.371828 62.253452 -43.198261 -63.28664 -42.679443 -64.330605 -10.671029 -5.7277055
13090000000 -19.340643 59.540337 -43.079849 -87.822174 -42.418846 -86.586227 -11.068532 -8.9519024
13100000000 -19.648249 58.5839 -43.503147 -108.2358 -42.607502 -110.50137 -11.440994 -11.631983
13110000000 -19.713755 59.059601 -43.297581 -126.2583 -42.6917 -129.14684 -11.86554 -13.985157
13120000000 -19.977669 59.86805 -42.8074 -146.60939 -42.324116 -150.90869 -12.353519 -16.089497
13130000000 -19.849155 63.187077 -42.379711 -168.79224 -42.11916 -172.64728 -12.967679 -18.185423
13140000000 -19.290354 64.067726 -42.189041 166.85757 -41.897793 165.62946 -13.609756 -20.094116
13150000000 -19.137154 61.650681 -42.750107 146.05933 -42.028675 141.9631 -14.162195 -21.975128
13160000000 -19.194252 62.024307 -42.944038 128.95471 -42.398842 122.41841 -14.651634 -23.294395
13170000000 -19.082645 58.661217 -41.954082 111.35739 -41.95937 103.44029 -15.187469 -24.101154
13180000000 -19.530663 57.253391 -41.251213 89.003563 -41.418507 83.801193 -15.863667 -24.208111
13190000000 -19.387224 58.026707 -40.580376 62.993065 -40.540947 59.091702 -16.746681 -23.964712
13200000000 -19.410038 55.283714 -40.472382 36.563351 -40.329948 32.299877 -17.717888 -23.701786
13210000000 -19.379284 55.502045 -40.958298 11.659624 -41.198189 5.1731825 -18.598434 -23.90502
13220000000 -19.211554 52.68586 -41.606941 -7.8009596 -41.915195 -13.5149 -19.284515 -23.66297
13230000000 -19.405636 52.821587 -41.432587 -27.710354 -41.97789 -33.333965 -19.857237 -22.223747
13240000000 -19.386185 51.938557 -41.294765 -44.20002 -41.759521 -47.593689 -20.442142 -18.987947
13250000000 -19.452353 52.179493 -40.674442 -66.357872 -41.165318 -70.738037 -21.328972 -12.966024
13260000000 -19.350605 52.96619 -39.897919 -90.160728 -40.561104 -93.54126 -22.320963 -4.7388034
13270000000 -19.02409 51.452507 -40.045025 -115.2441 -40.727615 -118.11295 -23.272264 4.1423764
13280000000 -19.028925 48.577587 -39.982681 -140.36273 -40.757423 -141.31456 -23.95899 12.38312
13290000000 -19.232046 45.170967 -40.388714 -164.8401 -40.921078 -164.29976 -24.119314 18.838699
13300000000 -19.463587 41.883842 -40.999306 176.82378 -41.131897 176.46407 -23.730371 24.708508
13310000000 -20.020872 40.443111 -40.406822 156.52005 -41.032814 154.41342 -22.901585 31.037886
13320000000 -20.281034 39.997879 -40.260422 133.11803 -41.021545 134.83473 -21.963715 38.421883
13330000000 -20.455347 42.259243 -40.289272 111.21921 -40.88171 114.47292 -20.939856 45.483097
13340000000 -19.856314 42.157768 -40.38945 85.84436 -40.433125 92.053467 -20.066559 50.143017
13350000000 -19.86253 39.646358 -40.829517 66.856766 -40.458805 68.264717 -19.476599 52.109383
13360000000 -19.548769 38.788773 -40.075901 47.566105 -40.165596 46.829895 -18.924953 51.471836
13370000000 -19.737059 33.830116 -40.01572 21.617973 -40.158764 23.325571 -18.267429 49.42725
13380000000 -20.006777 30.774658 -40.403641 -2.515779 -40.261288 0.83073241 -17.311417 47.451756
13390000000 -20.918201 30.027924 -40.940674 -22.311087 -40.480072 -20.832176 -16.329329 46.016037
13400000000 -20.875174 30.727215 -41.027893 -42.789322 -40.539322 -42.768116 -15.478117 45.356667
13410000000 -21.469103 28.066439 -40.494907 -60.152576 -40.206985 -61.445713 -14.927278 45.016754
13420000000 -21.297302 30.383253 -39.915405 -84.398659 -39.724022 -84.91732 -14.557902 43.717648
13430000000 -21.534454 25.082916 -39.918228 -108.75709 -39.790398 -108.8428 -14.346605 41.177273
13440000000 -21.773994 25.142241 -40.023262 -131.01666 -39.829231 -131.35947 -14.11576 37.855087
13450000000 -21.88328 24.098196 -40.026604 -154.60196 -39.921883 -155.12584 -13.765299 33.946827
13460000000 -21.618513 23.509953 -39.945164 -176.88232 -39.799595 -177.01688 -13.386918 30.299929
13470000000 -22.042597 19.998716 -40.161934 159.59837 -39.843674 159.73286 -13.12329 27.299734
13480000000 -21.913849 19.859724 -40.438931 138.18263 -39.996861 136.14665 -12.988943 24.767868
13490000000 -22.604931 14.550091 -40.410526 117.88836 -40.287636 116.46031 -12.96012 22.171736
13500000000 -23.016378 13.344884 -39.747551 97.572235 -39.713829 95.449875 -13.028131 19.233885
13510000000 -24.533791 13.718979 -39.790508 69.049538 -39.593544 68.269249 -13.155585 16.172888
13520000000 -24.515518 17.316351 -40.169201 45.716667 -40.203617 45.307747 -13.280329 13.658442
13530000000 -25.021723 19.797144 -40.357941 24.849642 -40.146252 24.113979 -13.413112 11.480947
13540000000 -23.976778 20.175388 -40.228722 0.85207629 -40.020275 0.73972309 -13.620591 9.3422537
13550000000 -23.868984 14.56336 -40.892345 -22.301329 -40.397667 -22.295713 -13.95924 7.5405893
13560000000 -23.771154 7.6690927 -41.1064 -43.474926 -40.633179 -44.672031 -14.363938 6.0032597
13570000000 -25.336884 5.7143588 -41.005615 -62.585331 -40.455109 -65.685654 -14.724833 4.6251645
13580000000 -25.532146 3.7651579 -40.812645 -85.882263 -40.564152 -90.616653 -14.980561 3.8720963
13590000000 -27.776554 10.51024 -40.639606 -111.21885 -40.637848 -113.32561 -15.190489 3.4283366
13600000000 -26.779745 16.028513 -41.27306 -136.59381 -40.858379 -138.6646 -15.383861 3.645931
13610000000 -27.022266 25.702986 -41.668633 -156.63506 -41.515865 -160.45085 -15.571038 4.9785414
13620000000 -25.730125 17.989954 -41.726295 -177.87726 -41.474861 179.46603 -15.713949 6.6320705
13630000000 -27.089586 14.396438 -41.800694 159.5316 -41.557159 156.87006 -15.831777 8.003871
13640000000 -26.987656 9.788887 -42.099224 134.4816 -41.728954 131.21953 -15.942124 9.00424
13650000000 -28.938852 11.80874 -42.575092 116.0219 -42.441399 110.52678 -15.925392 9.9460831
13660000000 -28.177776 14.147713 -42.234249 92.789063 -42.286537 88.889664 -15.733233 10.096889
13670000000 -28.942368 16.202446 -42.677563 69.89756 -42.759071 66.745293 -15.462657 9.9412317
13680000000 -28.200859 15.751927 -42.71941 46.100914 -42.61882 42.868263 -15.155645 9.5296316
13690000000 -28.872433 17.078083 -43.300594 24.2311 -43.51255 19.900183 -14.792444 9.0569429
13700000000 -28.725401 18.96557 -43.509033 3.3181331 -43.745564 0.77766198 -14.531486 7.9894228
13710000000 -28.709066 27.595724 -43.808727 -20.399635 -43.612011 -24.097818 -14.346271 6.372066
13720000000 -28.020763 24.493402 -44.422588 -40.65564 -44.424702 -46.842361 -14.201298 4.1136765
13730000000 -27.957266 29.617043 -44.424149 -64.885109 -45.142696 -69.669876 -14.02665 1.3614602
13740000000 -26.736452 22.507381 -44.945431 -86.475639 -45.695332 -88.23555 -13.846776 -1.8716375
13750000000 -28.440424 13.522883 -45.571461 -107.55705 -45.828011 -108.30118 -13.722841 -4.9016275
13760000000 -29.152338 12.71336 -46.131165 -127.97054 -46.09576 -130.06894 -13.74787 -7.9082055
13770000000 -31.066738 12.717419 -46.632809 -146.90329 -46.828236 -151.50882 -13.944305 -11.122972
13780000000 -30.960711 29.598845 -46.685486 -164.79442 -47.358353 -168.10371 -14.24087 -15.039164
13790000000 -28.830982 30.406763 -46.967999 170.93394 -47.532639 169.62456 -14.569542 -19.559086
13800000000 -27.510006 24.281961 -47.390911 154.30466 -47.987041 152.34773 -14.816367 -24.468269
13810000000 -26.724754 15.790578 -47.645042 137.48383 -48.227764 137.58449 -15.053266 -28.893187
13820000000 -26.748779 4.8447938 -47.147038 118.33932 -47.716568 120.48641 -15.410707 -32.268612
13830000000 -27.695936 4.0475316 -46.921413 95.022041 -47.477718 95.760475 -15.954004 -35.214531
13840000000 -27.987638 -2.5314405 -47.033165 71.159729 -47.213505 74.124008 -16.710485 -37.794468
13850000000 -30.043297 2.1120024 -48.575951 52.587601 -48.556278 51.434513 -17.593069 -40.848583
13860000000 -29.003933 7.653162 -47.869694 38.941803 -48.67503 39.407906 -18.519575 -44.330193
13870000000 -28.924768 5.6706939 -47.502144 16.807474 -48.530846 21.796539 -19.441761 -47.044868
13880000000 -28.73918 3.054682 -47.09462 -3.3902807 -46.869064 1.0917708 -20.500246 -48.571991
13890000000 -28.204113 -0.14964512 -47.180103 -23.763056 -46.992523 -23.752365 -21.826656 -48.168438
13900000000 -28.367411 -8.7653189 -46.397106 -46.177715 -46.565784 -45.464176 -23.391649 -46.434635
13910000000 -27.818151 -6.5767288 -46.612453 -71.209084 -46.976463 -70.370941 -25.159264 -44.779202
13920000000 -27.113195 -19.240578 -46.839172 -92.497894 -47.070015 -88.347733 -26.84622 -41.689392
13930000000 -28.434416 -27.786257 -46.990799 -114.019 -46.693058 -113.05472 -28.293432 -34.753849
13940000000 -29.090607 -33.912312 -46.948627 -130.65732 -46.848667 -129.5159 -28.678823 -22.589798
13950000000 -31.274603 -36.384937 -45.565868 -153.86853 -45.792545 -150.73517 -28.235884 -8.988328
13960000000 -31.684504 -32.210239 -46.395985 178.57437 -46.297009 -178.3302 -27.307213 4.925386
13970000000 -31.600721 -31.796692 -45.953388 158.05141 -45.292583 161.27034 -26.221127 15.209408
13980000000 -30.577301 -32.957489 -46.0723 133.65442 -45.54472 133.63139 -25.437517 22.036015
13990000000 -29.102995 -42.499702 -46.108322 111.51818 -45.648449 110.81168 -24.915873 26.724194
14000000000 -28.371166 -56.496147 -45.532589 88.244583 -45.168262 85.64975 -24.645441 29.237595
14010000000 -28.190847 -67.556435 -45.893398 59.820026 -45.464237 57.655056 -24.426184 30.156488
14020000000 -28.575943 -74.223938 -46.289818 39.341393 -46.07217 35.668888 -24.149767 29.792988
14030000000 -29.55896 -77.716629 -46.325279 12.347669 -45.879704 10.356176 -23.969435 28.472097
14040000000 -29.378328 -76.959618 -46.756989 -7.5246515 -46.429916 -12.658982 -23.945566 27.515209
14050000000 -30.153593 -82.237831 -46.516582 -32.211895 -45.972271 -37.332485 -23.917328 27.251575
14060000000 -30.711512 -81.808983 -46.197811 -56.001831 -46.025448 -63.96455 -23.975882 27.226669
14070000000 -31.284496 -85.487267 -46.670357 -84.349197 -46.3563 -91.852928 -24.028997 27.840849
14080000000 -31.717857 -88.395172 -46.36084 -107.4545 -46.371433 -117.77448 -24.006498 28.087797
14090000000 -31.256155 -87.636826 -46.559113 -137.87364 -46.891548 -145.11913 -23.971125 28.23407
14100000000 -29.383991 -100.86044 -47.807858 -165.75272 -47.460384 -175.03864 -23.841576 28.338854
14110000000 -29.138882 -111.2913 -48.383171 169.45534 -47.859245 158.08363 -23.778381 28.45912
14120000000 -27.955383 -121.92537 -48.88995 141.97282 -48.462101 128.63655 -23.766024 30.168348
14130000000 -27.94335 -135.3101 -50.364487 123.28735 -49.873222 102.20401 -23.87888 32.352715
14140000000 -28.633007 -143.85681 -49.754612 94.772102 -50.05814 81.460327 -24.218086 34.293659
14150000000 -30.574778 -144.724 -50.046062 61.167686 -49.281425 46.12244 -24.712448 35.175694
14160000000 -30.608913 -135.70766 -50.475266 30.569994 -49.878345 13.729222 -25.243889 35.260086
14170000000 -30.794846 -128.43015 -51.887997 -5.639606 -51.370026 -21.620407 -25.506268 36.490734
14180000000 -28.570925 -129.61522 -52.162811 -43.416073 -51.133366 -50.15778 -25.501934 38.627689
14190000000 -27.865728 -138.66765 -55.288422 -78.347359 -52.501099 -84.108261 -25.753874 44.018082
14200000000 -26.75495 -147.99866 -55.36013 -112.54163 -52.244484 -116.66484 -25.738609 55.179813
14210000000 -26.983673 -160.90182 -57.306389 -149.74564 -52.531712 -146.24454 -25.28343 66.41761
14220000000 -26.976458 -166.58914 -56.108936 -165.97029 -52.173992 -177.27638 -24.767818 75.24408
14230000000 -27.996372 -176.91583 -53.933636 154.03078 -51.519016 153.62054 -24.284428 81.955994
14240000000 -28.941349 -171.81396 -53.62965 115.25765 -51.319584 119.39347 -23.432365 86.966805
14250000000 -29.310669 -167.70084 -53.152187 85.599579 -50.668163 89.172646 -22.382408 88.921005
14260000000 -28.860617 -161.47289 -52.356495 55.694199 -50.555183 56.589546 -21.421417 90.261208
14270000000 -27.820602 -159.61334 -51.501205 26.312731 -50.142982 27.018156 -20.46015 92.000305
14280000000 -27.166807 -165.8414 -52.193329 0.60688418 -50.62442 1.2264154 -19.520523 92.631119
14290000000 -26.908436 -168.97961 -51.104607 -20.213314 -49.541862 -18.97826 -18.767424 91.550476
14300000000 -26.652811 -176.77458 -50.431229 -43.60598 -48.848 -49.751373 -18.135521 88.992027
14310000000 -27.07729 177.57391 -49.364346 -69.06118 -48.73439 -73.939316 -17.488276 86.202812
14320000000 -27.252352 171.99182 -48.460361 -95.668671 -47.852329 -104.58283 -16.791376 83.514542
14330000000 -27.665815 169.03078 -48.082577 -122.71654 -48.126274 -130.54929 -16.107676 81.548874
14340000000 -28.638866 166.89874 -48.499081 -145.72719 -48.338242 -158.56288 -15.476902 80.592987
14350000000 -29.164364 171.58119 -48.143627 -166.72244 -49.058537 -176.78082 -14.927026 79.538681
14360000000 -29.766354 178.49696 -47.800182 172.08229 -47.762646 164.34634 -14.489964 77.849144
14370000000 -28.517439 -172.26675 -46.64204 149.70233 -47.228123 138.7791 -14.264172 75.486855
14380000000 -27.452145 -175.25327 -45.980175 119.58467 -46.420597 110.3957 -14.083264 72.909904
14390000000 -26.542141 -177.40102 -46.001774 93.503746 -46.866535 82.511528 -13.907187 70.268608
14400000000 -25.95199 172.80418 -46.783833 68.631622 -47.304157 58.77195 -13.652955 67.79538
14410000000 -26.522652 163.9436 -46.319206 52.490051 -47.568645 44.256844 -13.336857 65.333488
14420000000 -27.39164 156.43394 -45.589794 29.426025 -45.96759 23.845762 -13.043139 63.144108
14430000000 -29.132492 155.56717 -44.808559 -0.7797156 -45.03344 -7.6212378 -12.786355 60.885094
14440000000 -30.272995 161.21754 -45.089012 -27.944063 -45.447464 -34.967152 -12.649275 58.619408
14450000000 -30.44684 178.4147 -45.191555 -49.328209 -45.776043 -55.311089 -12.589413 56.787392
14460000000 -28.745785 -173.48586 -45.050175 -73.131386 -45.209724 -77.760513 -12.513543 54.908817
14470000000 -26.801271 -171.84113 -44.251514 -97.183868 -44.574425 -98.448921 -12.458259 53.008816
14480000000 -25.569895 -177.43987 -44.370869 -125.94791 -43.998646 -127.26263 -12.453405 51.599979
14490000000 -25.399372 175.0137 -43.756351 -148.3378 -43.737938 -151.07275 -12.485723 50.161129
14500000000 -25.671844 169.64499 -43.723831 -177.64674 -43.557072 179.75764 -12.614609 48.894531
14510000000 -26.627466 162.43556 -43.299458 154.53619 -43.349659 154.95613 -12.703837 47.559177
14520000000 -28.45175 170.10085 -43.573662 126.8322 -43.225719 127.80186 -12.724951 45.397266
14530000000 -28.24531 174.71387 -43.682205 104.28687 -43.196514 103.38396 -12.735092 43.210098
14540000000 -27.815622 -173.83833 -43.19223 76.167068 -43.477539 77.327682 -12.692433 42.084435
14550000000 -25.863688 -176.53166 -43.092281 50.821724 -42.842438 52.991013 -12.632754 41.663094
14560000000 -25.284832 -179.25832 -42.552319 22.546148 -42.722771 23.511955 -12.624819 41.821125
14570000000 -24.555532 175.45424 -42.288387 -5.9387307 -42.557159 -6.1362791 -12.639029 42.051674
14580000000 -24.747534 175.15358 -42.397053 -36.18306 -43.12891 -34.069683 -12.698188 41.874329
14590000000 -24.486525 172.58116 -43.372681 -66.259972 -43.646862 -63.146259 -12.672132 41.264648
14600000000 -24.530245 176.64607 -43.799744 -87.393875 -44.317993 -86.942268 -12.667944 39.923237
14610000000 -23.905775 174.4865 -43.909008 -113.48441 -44.169559 -114.40244 -12.674613 39.127892
14620000000 -23.631592 175.68614 -43.845104 -139.49641 -44.984749 -142.87875 -12.717892 38.809868
14630000000 -23.262714 170.55876 -44.366917 -166.90764 -44.832153 -168.07571 -12.704755 38.871124
14640000000 -23.466757 169.8192 -44.339245 166.02126 -45.362625 162.08664 -12.637432 38.290157
14650000000 -23.280996 168.35823 -45.140919 137.10541 -46.160011 130.8759 -12.540982 36.854099
14660000000 -23.262671 168.03169 -45.710617 112.27417 -46.89991 104.10925 -12.426575 35.089954
14670000000 -23.16218 169.44208 -46.13739 80.787018 -47.4888 75.451637 -12.304564 33.682739
14680000000 -22.33642 170.10728 -47.722866 54.398651 -48.886917 49.145386 -12.214475 32.898556
14690000000 -21.884512 167.55019 -48.810215 29.539021 -49.189552 25.978939 -12.147073 32.686501
14700000000 -21.505955 165.80708 -49.484566 3.9572525 -49.127079 -3.6839848 -12.08432 32.347599
14710000000 -21.20491 162.33409 -50.070629 -27.202076 -48.830097 -37.916035 -12.075938 31.306408
14720000000 -21.337032 159.30072 -51.661942 -58.780289 -49.797943 -78.335442 -12.160616 29.871143
14730000000 -21.395929 157.93671 -53.27317 -83.576546 -52.37373 -106.56116 -12.298256 28.106512
14740000000 -21.326227 156.1451 -52.414398 -121.54663 -52.647106 -133.57076 -12.456774 26.545607
14750000000 -21.258255 154.71823 -54.676685 -151.49673 -53.324951 -159.70349 -12.597494 25.017447
14760000000 -21.034857 152.54955 -53.036125 167.94919 -52.432709 164.37299 -12.66021 23.622828
14770000000 -21.044823 149.72122 -53.46484 129.08353 -52.453838 135.02751 -12.651516 22.04388
14780000000 -20.925884 147.61046 -54.241299 107.37172 -53.868641 111.60576 -12.714133 20.549809
14790000000 -21.158564 146.69691 -52.463272 70.358627 -52.277493 80.198769 -12.831484 20.145439
14800000000 -20.900915 148.46397 -50.718624 37.437496 -51.014114 44.222755 -12.967113 19.82435
14810000000 -20.581724 148.99361 -50.41058 -5.0155845 -51.480396 3.395154 -13.217237 19.353004
14820000000 -19.972973 147.73123 -52.568073 -33.055817 -54.302605 -27.224594 -13.455297 19.1071
14830000000 -19.759359 143.9388 -52.921619 -52.091755 -53.023525 -40.323368 -13.669087 18.654188
14840000000 -19.602806 139.26466 -51.499828 -65.335381 -53.203636 -66.787277 -13.833664 18.477461
14850000000 -20.035845 133.79185 -49.982674 -94.568413 -52.028168 -86.623665 -13.990831 18.733583
14860000000 -20.59482 130.3694 -49.565136 -122.68587 -51.940029 -113.43917 -14.190821 18.740282
14870000000 -21.548903 128.59668 -50.399845 -151.73506 -50.344261 -139.17529 -14.479193 18.631428
14880000000 -21.860426 130.77763 -50.239082 -169.12672 -50.316715 -169.18427 -14.769228 17.753868
14890000000 -21.858366 134.24341 -49.353992 174.29184 -49.602398 166.61018 -15.000189 16.945961
14900000000 -20.971863 134.67374 -48.58326 143.69005 -49.807907 136.19382 -15.016142 17.221087
14910000000 -20.224867 132.46135 -49.437496 109.11829 -50.827145 104.24053 -14.871915 18.115515
14920000000 -19.822079 125.69826 -50.329197 96.750069 -50.613979 94.054947 -14.830639 19.661785
14930000000 -20.073442 122.16531 -50.973236 77.913254 -50.285873 62.684643 -14.949205 21.802464
14940000000 -20.337976 116.79079 -49.610256 57.577641 -51.05798 46.341682 -15.21269 23.384197
14950000000 -21.445189 115.9148 -49.244148 35.916027 -49.176388 26.125391 -15.558674 23.983105
14960000000 -22.46307 116.26404 -49.322296 8.2047396 -49.468792 -1.3650453 -15.789084 24.468351
14970000000 -22.557058 126.26907 -49.199059 -13.45149 -48.981636 -26.932606 -15.870173 24.91511
14980000000 -22.255835 122.97846 -48.127865 -38.779812 -48.872086 -51.033001 -15.900099 26.767178
14990000000 -21.864264 125.74729 -47.764267 -71.56752 -48.169853 -77.140739 -15.868257 28.684803
15000000000 -21.543633 116.87334 -49.73502 -107.70207 -50.416359 -103.41499 -15.889623 30.232374
15010000000 -21.9575 114.16617 -52.184467 -122.00983 -49.234138 -121.42977 -15.936675 30.397997
15020000000 -22.637653 106.9866 -51.778347 -136.45041 -50.248325 -137.86404 -15.881786 29.813667
15030000000 -23.449261 110.46716 -50.387306 -147.22577 -48.082649 -158.25189 -15.652661 29.687168
15040000000 -24.156248 109.53642 -49.178444 -179.10791 -48.134445 172.4978 -15.333418 31.28034
15050000000 -24.44343 119.21033 -49.178776 152.29044 -48.326134 143.40479 -14.920455 33.906116
15060000000 -23.831919 122.07357 -49.077332 121.19802 -48.661339 121.90266 -14.679055 36.156891
15070000000 -22.940739 122.82732 -50.388897 103.27563 -49.143715 105.38069 -14.592682 37.27742
15080000000 -23.17005 116.98019 -49.588009 78.673164 -48.07626 79.215698 -14.679989 37.196911
15090000000 -23.356869 117.77773 -49.30402 57.727207 -48.057354 53.447048 -14.692715 36.258892
15100000000 -24.088604 112.52978 -49.582882 32.313644 -48.519032 29.320503 -14.66665 35.197968
15110000000 -25.095751 115.65417 -49.252632 10.261341 -49.35347 4.2835927 -14.451792 34.947609
15120000000 -25.751314 120.51863 -48.414082 -12.37858 -48.633976 -8.1494179 -14.208225 34.409603
15130000000 -25.083162 123.85204 -48.571152 -35.818848 -48.275841 -34.82016 -14.078801 33.889702
15140000000 -25.249199 124.22654 -48.382843 -60.654968 -47.88406 -60.552299 -13.959652 32.937859
15150000000 -24.51239 127.53352 -48.660503 -88.638901 -48.820435 -88.148254 -13.824019 31.673141
15160000000 -24.450384 125.86613 -49.205761 -109.87226 -49.373508 -109.68101 -13.68543 30.735687
15170000000 -23.911446 128.07353 -49.318459 -126.48766 -48.630581 -123.77068 -13.564538 30.659128
15180000000 -23.611774 126.53714 -48.679951 -149.2852 -48.409912 -153.38882 -13.485071 31.178478
15190000000 -22.999376 126.97388 -48.963982 -175.19368 -48.217567 176.79414 -13.521487 31.339067
15200000000 -23.132881 122.67681 -49.259346 161.50327 -49.706989 155.38629 -13.648935 30.691607
15210000000 -23.323044 120.26465 -49.865692 144.16028 -49.351532 134.88435 -13.835078 29.602169
15220000000 -24.326834 121.30221 -49.624573 124.35397 -50.167168 112.97731 -13.976542 27.914501
15230000000 -24.360649 123.54903 -49.311939 95.075798 -48.85944 89.966179 -14.105374 26.475748
15240000000 -24.928461 129.55135 -50.546055 65.484207 -50.335709 55.513763 -14.200549 25.800289
15250000000 -23.581711 134.12181 -52.553154 43.968235 -50.770947 37.699127 -14.213477 25.612846
15260000000 -22.844906 131.00214 -53.155663 28.060951 -51.803448 14.053127 -14.128118 25.447014
15270000000 -22.015913 127.66019 -52.777836 8.2904053 -51.361145 -5.038578 -14.067554 25.05945
15280000000 -21.540155 119.85933 -53.082752 -12.516478 -52.390739 -28.214661 -14.095721 25.469444
15290000000 -21.795221 113.14333 -53.501766 -40.035801 -51.444611 -48.426506 -14.145757 26.799015
15300000000 -22.647371 108.39096 -53.401215 -68.881866 -51.884285 -75.771301 -14.284886 28.271372
15310000000 -23.61565 109.79176 -54.992142 -102.48641 -53.682701 -104.25808 -14.464879 29.656258
15320000000 -23.937155 113.81218 -55.744781 -126.47392 -53.86903 -122.0725 -14.624471 30.215879
15330000000 -23.730137 119.82544 -56.035797 -149.26379 -53.422688 -147.15187 -14.684382 29.724962
15340000000 -23.086842 118.54841 -55.19392 173.14551 -54.872803 177.80977 -14.752157 28.928888
15350000000 -22.401115 119.38077 -57.527088 134.14473 -57.230648 170.58325 -14.737058 28.919271
15360000000 -22.13604 109.2577 -58.475647 132.91455 -55.221432 158.10617 -14.738036 29.484968
15370000000 -22.844643 107.69382 -55.093086 97.658684 -53.218674 120.99776 -14.702193 29.926861
15380000000 -22.793909 100.18731 -54.641205 56.193474 -54.372883 78.773132 -14.599657 29.745893
15390000000 -24.107473 99.979362 -55.977131 27.828835 -57.274837 40.747459 -14.444424 29.223
15400000000 -24.347267 99.817841 -55.141281 -5.1373286 -60.487656 2.5449438 -14.216931 28.981064
15410000000 -24.49024 103.13107 -57.030449 -19.872469 -61.458279 33.310314 -14.051523 29.814342
15420000000 -24.321795 98.89019 -55.30875 -46.103775 -58.919147 -17.127901 -13.98529 31.409605
15430000000 -24.405792 99.941193 -56.081467 -82.051598 -59.650578 -78.524361 -14.035405 32.826015
15440000000 -24.569338 92.975792 -55.666889 -97.472565 -61.111031 -100.77412 -14.206972 32.984974
15450000000 -25.200851 91.779945 -55.049393 -132.49083 -60.724842 -145.50969 -14.458048 31.971659
15460000000 -25.951069 86.441208 -54.618465 -160.32944 -58.785069 -175.5117 -14.55394 29.977789
15470000000 -27.083786 92.226631 -55.925468 155.17464 -56.968349 135.09999 -14.559555 28.436235
15480000000 -26.976648 88.659828 -62.474018 130.84596 -59.241844 78.7827 -14.439093 27.999166
15490000000 -27.717495 90.56852 -61.149208 122.16369 -59.155052 69.501503 -14.288953 28.386007
15500000000 -27.806158 86.311363 -57.653526 110.16043 -59.060104 46.03532 -14.225746 28.74017
15510000000 -28.026773 84.693237 -56.634056 53.154133 -57.103294 19.085892 -14.245704 29.0728
15520000000 -29.306904 75.332237 -58.638424 21.38056 -56.758194 3.3902223 -14.265224 29.850458
15530000000 -30.091679 81.966644 -57.109478 -21.182476 -53.243011 -29.332916 -14.226418 30.577576
15540000000 -31.469353 73.792587 -58.666111 -55.488579 -53.110779 -61.935966 -14.271529 31.646954
15550000000 -32.337078 81.953094 -56.451687 -67.386101 -52.610962 -84.049309 -14.337433 33.333027
15560000000 -33.692036 71.9692 -54.009602 -113.81113 -51.479488 -119.67831 -14.409964 34.242298
15570000000 -35.565914 77.271797 -53.250088 -140.83916 -52.570564 -140.67639 -14.56227 34.299625
15580000000 -38.40556 54.76712 -54.426388 -173.20357 -51.964928 -165.64854 -14.729772 34.18829
15590000000 -46.05806 82.547951 -53.048443 179.08296 -52.183899 177.35263 -14.775482 33.810234
15600000000 -56.069538 -152.23846 -51.129543 151.6386 -51.248814 153.32098 -14.681368 33.09996
15610000000 -41.070019 -176.36536 -49.465897 126.72773 -49.818172 130.97719 -14.527582 32.599014
15620000000 -40.635807 -179.49141 -49.300945 101.1005 -50.623798 109.15494 -14.325333 32.49839
15630000000 -37.627724 156.39285 -47.916138 80.579613 -48.594662 88.342804 -14.110556 33.104721
15640000000 -47.309265 134.22247 -47.510372 53.716965 -48.530975 59.245014 -13.92088 33.699741
15650000000 -48.43359 -135.51538 -46.641937 29.953136 -47.883862 35.21283 -13.8845 34.958351
15660000000 -37.891037 -88.599472 -46.434917 6.7216492 -48.213947 7.7843904 -13.917136 36.274647
15670000000 -32.968136 -115.7509 -46.758114 -16.715616 -49.008152 -13.358267 -14.022125 36.911797
15680000000 -29.532997 -117.99801 -46.547695 -36.633404 -48.133266 -31.210978 -14.181077 36.611393
15690000000 -27.497004 -140.38538 -46.494801 -52.648582 -47.83532 -52.345478 -14.253751 36.331417
15700000000 -27.424751 -148.61292 -44.881138 -74.320358 -47.007938 -75.834389 -14.234426 35.441372
15710000000 -27.59532 -162.01611 -44.110157 -101.60198 -46.449524 -99.636185 -14.253197 35.366707
15720000000 -29.046816 -160.33072 -44.14225 -127.73685 -46.095642 -122.84171 -14.167771 36.25658
15730000000 -30.314775 -156.29471 -44.839626 -152.83276 -45.5243 -149.13586 -14.096575 36.565456
15740000000 -29.305878 -133.74158 -45.473114 -172.17761 -46.392532 -177.41438 -14.024442 36.494507
15750000000 -27.321217 -135.66371 -45.081116 169.30782 -46.051434 167.89108 -13.84453 36.425156
15760000000 -25.758213 -134.25751 -44.847469 150.41574 -45.969162 143.3862 -13.616274 36.767067
15770000000 -24.448484 -143.33929 -44.012718 127.33497 -45.246708 125.61877 -13.345811 38.465855
15780000000 -24.069656 -148.68968 -43.784588 102.19967 -44.41478 100.23325 -13.11854 40.481834
15790000000 -24.053556 -155.16541 -44.04538 76.73037 -44.011021 72.239113 -13.062124 42.255398
15800000000 -24.201706 -154.17441 -44.233727 54.976784 -44.405857 46.833332 -13.110216 43.373238
15810000000 -23.945826 -155.79518 -44.419369 28.111612 -44.840607 22.020025 -13.165428 42.859707
15820000000 -23.678089 -152.90855 -44.992264 8.2288933 -45.18948 4.6169553 -13.184363 41.185677
15830000000 -23.160107 -153.79887 -44.914768 -15.764152 -44.426479 -14.160501 -13.00086 39.714474
15840000000 -22.873909 -151.86229 -45.393105 -35.611458 -43.77359 -39.590981 -12.705038 38.504219
15850000000 -22.699163 -156.42552 -44.946136 -59.883266 -43.44178 -66.885811 -12.388831 37.809097
15860000000 -22.961512 -151.77505 -45.13026 -82.671043 -43.755337 -90.845177 -12.091258 37.563095
15870000000 -22.57205 -152.26582 -45.310741 -107.4565 -43.838455 -112.24838 -11.821345 37.01709
15880000000 -22.04863 -148.13103 -45.389755 -130.84224 -43.791363 -134.31688 -11.597901 36.259716
15890000000 -21.313087 -151.4128 -45.832775 -152.63062 -43.403736 -156.338 -11.438797 35.767056
15900000000 -20.76342 -153.50662 -45.368874 -177.36464 -43.175262 177.9375 -11.272802 35.698208
15910000000 -20.507259 -159.22612 -46.215473 155.66997 -43.483582 152.92038 -11.129048 35.508587
15920000000 -20.539551 -161.65657 -46.470615 136.73763 -43.624249 132.67624 -11.039142 34.819981
15930000000 -21.042795 -163.43532 -45.833221 116.49042 -43.323265 110.41872 -11.045514 33.528118
15940000000 -21.1915 -158.0959 -45.490612 90.034195 -43.24855 86.10466 -11.06365 31.959536
15950000000 -20.969244 -155.53236 -45.104774 61.900455 -42.977516 60.759552 -11.020473 29.893246
15960000000 -20.230089 -150.06041 -46.270412 37.916073 -43.653751 36.308243 -10.959555 27.624462
15970000000 -19.334246 -151.64561 -46.139465 17.923092 -43.525093 17.255049 -10.873024 25.336233
15980000000 -18.859142 -152.10304 -46.146851 -0.62444299 -43.528214 -7.269062 -10.743453 23.565182
15990000000 -18.448261 -155.59245 -44.862904 -20.855387 -43.30674 -26.720158 -10.566886 22.170721
16000000000 -18.500145 -157.88922 -44.446869 -50.445751 -43.098759 -52.140266 -10.449945 21.239286
16010000000 -18.647633 -159.82359 -44.615639 -73.22345 -43.371498 -77.327217 -10.383538 20.544304
16020000000 -18.847799 -158.48624 -44.203388 -96.260391 -43.453861 -98.897583 -10.455103 19.519567
16030000000 -18.608076 -156.5784 -44.550083 -121.60928 -43.788044 -124.75285 -10.625136 18.258564
16040000000 -18.163774 -154.49838 -44.650288 -139.37418 -44.6619 -142.69756 -10.805219 16.647902
16050000000 -17.585394 -155.69978 -44.080662 -161.44806 -44.115944 -163.00447 -10.88436 14.721974
16060000000 -17.138361 -154.7101 -43.746693 174.69682 -44.008438 174.43149 -10.956385 12.28378
16070000000 -16.598532 -156.72687 -43.489773 154.70299 -43.486721 153.56303 -11.034589 10.548262
16080000000 -16.390656 -156.71111 -42.626282 131.11493 -43.089539 127.77317 -11.130742 8.9593601
16090000000 -16.002295 -157.82751 -42.429157 106.12519 -43.448196 103.77645 -11.273143 7.1491518
16100000000 -15.828018 -158.16975 -42.32159 77.756233 -43.475479 78.069374 -11.430333 5.2305255
16110000000 -15.634361 -159.79735 -42.6936 56.860416 -43.67231 57.302418 -11.492549 3.8927627
16120000000 -15.478515 -159.1671 -42.480476 33.759377 -43.532387 33.294846 -11.475658 3.1164885
16130000000 -15.22602 -161.05135 -43.036938 11.435094 -43.981884 11.722804 -11.481123 3.2936907
16140000000 -15.172455 -159.7621 -42.47184 -6.4983587 -43.605289 -6.3357558 -11.618882 3.796077
16150000000 -14.73097 -160.6479 -41.817375 -31.498821 -42.902985 -31.535616 -11.942282 4.0324898
16160000000 -14.360534 -159.87627 -41.641239 -58.656906 -42.613384 -58.555214 -12.327678 3.6023784
16170000000 -13.733465 -161.70511 -41.640369 -84.961472 -42.622845 -85.719849 -12.646285 2.1016304
16180000000 -13.344037 -162.69069 -42.177834 -112.46938 -43.258419 -115.13923 -12.810521 0.17195131
16190000000 -12.975225 -165.79756 -42.8951 -134.67609 -44.443642 -134.72585 -12.830456 -1.6697584
16200000000 -12.976731 -166.8116 -43.10059 -155.36389 -44.18185 -154.48778 -12.861124 -2.6409829
16210000000 -12.899109 -168.09457 -43.159573 -177.99908 -44.073437 -176.24133 -12.918707 -3.3844652
16220000000 -12.922681 -167.07095 -42.774345 159.64491 -43.383968 159.63237 -13.029655 -4.0474863
16230000000 -12.675658 -167.36078 -42.672493 133.35956 -43.461773 132.05338 -13.095614 -4.8982754
16240000000 -12.389305 -166.0085 -42.552059 106.0041 -43.846096 106.07198 -13.104971 -5.1837902
16250000000 -11.852853 -167.6869 -43.168255 78.958656 -43.747021 83.197578 -13.045362 -5.0219398
16260000000 -11.464293 -169.49223 -43.978718 53.601177 -44.199543 53.964809 -13.131269 -4.2089257
16270000000 -11.148396 -173.16229 -44.493118 31.109341 -44.757942 32.054855 -13.321007 -3.2974305
16280000000 -11.101188 -175.59698 -44.790409 8.8822594 -45.042171 6.8670888 -13.639979 -3.1953981
16290000000 -11.047876 -177.24002 -45.055553 -16.508942 -45.552547 -15.15773 -13.908958 -4.5464725
16300000000 -11.035593 -177.34532 -45.469357 -39.38863 -45.630257 -40.715042 -14.097577 -7.0972986
16310000000 -10.857513 -177.19484 -45.418106 -68.591286 -45.568565 -63.484493 -14.130065 -9.8296909
16320000000 -10.615725 -176.29715 -46.131966 -94.80249 -45.529968 -93.68438 -14.166267 -11.956637
16330000000 -10.131307 -176.83226 -46.911312 -121.05782 -46.715321 -121.0062 -14.203905 -13.0059
16340000000 -9.8114452 -178.27121 -47.672855 -144.99889 -47.240559 -142.80548 -14.254564 -14.186955
16350000000 -9.5431747 179.11029 -47.821262 -170.15016 -47.521187 -165.02368 -14.269123 -14.994193
16360000000 -9.5332804 177.07758 -48.605217 161.07256 -47.881535 166.90527 -14.257809 -16.183149
16370000000 -9.4681997 175.01932 -49.523071 135.97617 -48.300262 149.38188 -14.339299 -16.813374
16380000000 -9.5276146 173.77773 -50.560226 110.33824 -48.333622 119.57259 -14.631944 -17.087849
16390000000 -9.4368944 173.30864 -51.102436 86.102768 -48.723091 92.1549 -15.099795 -17.166615
16400000000 -9.2615891 173.40138 -51.602772 62.172138 -49.977123 65.809158 -15.547435 -18.37035
16410000000 -8.9073315 172.45288 -51.740486 30.766359 -49.953968 44.317871 -15.976936 -20.967936
16420000000 -8.6723347 171.71686 -51.552589 -2.6601489 -49.759033 14.727204 -16.239746 -24.440542
16430000000 -8.3043499 170.02254 -53.591869 -30.921541 -50.258221 -12.124802 -16.462254 -27.132126
16440000000 -8.2012014 168.42645 -53.846466 -66.776878 -51.051186 -48.339924 -16.726574 -28.53887
16450000000 -8.0737267 166.86017 -55.852921 -94.160133 -53.746906 -75.39679 -17.074636 -29.048956
16460000000 -8.0744524 165.98236 -55.055809 -120.3532 -53.208488 -84.915848 -17.390301 -29.634722
16470000000 -8.0014687 165.03362 -55.047985 -163.31024 -52.936684 -118.0696 -17.655359 -30.410912
16480000000 -7.9826937 164.41858 -56.939194 166.19017 -52.996834 -141.87427 -17.82906 -30.480108
16490000000 -7.8136358 163.76567 -55.955135 131.54698 -52.010437 178.54117 -18.148304 -28.740019
16500000000 -7.6727209 163.23473 -55.854633 110.90044 -53.14225 142.81911 -18.528173 -25.067751
16510000000 -7.411315 161.68636 -55.448978 62.632229 -54.964523 113.84756 -19.196051 -22.535297
16520000000 -7.2511411 160.86598 -56.798786 45.402382 -54.766136 100.21317 -20.082354 -21.684383
16530000000 -6.9571724 158.92543 -56.683662 2.2775619 -55.307545 65.756821 -20.912563 -24.141518
16540000000 -6.9081469 157.67636 -56.373848 -3.8979113 -53.57795 41.069443 -21.229048 -27.649796
16550000000 -6.7737741 156.42554 -56.048264 -31.462959 -53.610355 4.3584375 -21.138971 -29.752653
16560000000 -6.7409039 155.80783 -54.329865 -66.211411 -54.098774 -30.684946 -20.901983 -29.668224
16570000000 -6.6557264 155.09407 -53.823944 -94.059692 -54.577972 -58.592525 -21.02619 -28.384026
16580000000 -6.5765734 155.14536 -53.974594 -127.90517 -54.683067 -84.843941 -21.364393 -26.85681
16590000000 -6.3475261 154.57744 -55.315437 -152.09766 -54.52425 -103.88622 -21.703058 -26.037161
16600000000 -6.1430426 153.53233 -54.60107 -168.22064 -52.379311 -134.95892 -21.852728 -26.102131
16610000000 -5.9402795 151.84959 -53.386806 163.58774 -52.507908 -171.99414 -22.027903 -25.641449
16620000000 -5.7880445 150.2755 -53.611042 136.6713 -53.682018 164.62927 -22.384882 -22.850634
16630000000 -5.6652632 148.35995 -53.187111 113.90944 -51.947628 142.9463 -23.194923 -18.063375
16640000000 -5.6271067 147.30397 -52.386333 81.124924 -51.817623 109.30919 -24.252106 -13.785148
16650000000 -5.4909854 146.47188 -54.039997 60.194519 -51.438553 83.465752 -25.713852 -14.512375
16660000000 -5.3756475 146.06815 -52.475586 37.874138 -51.36216 46.960587 -27.158331 -19.376438
16670000000 -5.1468039 145.64319 -52.514477 12.475509 -51.890514 21.260469 -27.580709 -24.854761
16680000000 -4.9195409 144.77837 -52.316319 -19.911777 -51.827541 -7.8200374 -27.02364 -25.64521
16690000000 -4.7013597 143.37683 -53.034973 -46.411278 -52.539654 -33.655083 -26.521627 -22.814825
16700000000 -4.5786324 141.96996 -54.13327 -66.564102 -53.085629 -58.036816 -26.461082 -14.88074
16710000000 -4.4488134 140.45566 -53.288635 -83.046265 -52.80859 -79.001518 -26.712759 -4.5185537
16720000000 -4.375524 139.08817 -53.288185 -110.10161 -52.369175 -110.57493 -26.734858 6.6130881
16730000000 -4.27005 137.82343 -51.527412 -135.70105 -52.187889 -136.59296 -26.573822 13.568951
16740000000 -4.1613827 136.90047 -53.12339 -171.58141 -53.756863 -167.97475 -26.650837 17.992157
16750000000 -3.9592245 135.78755 -54.611366 172.10118 -53.727901 176.90823 -26.832581 22.883245
16760000000 -3.7888992 134.50238 -53.865551 150.70157 -52.795219 146.95908 -26.906239 28.313293
16770000000 -3.601356 133.08339 -53.947033 125.68029 -54.040272 110.64566 -26.846552 30.519861
16780000000 -3.4550111 131.76384 -54.558544 101.38274 -56.456402 90.550087 -27.049274 29.506937
16790000000 -3.3254428 130.2856 -54.252247 70.059097 -57.062553 67.628876 -27.222284 24.731369
16800000000 -3.223465 129.04475 -55.578266 48.334885 -56.842014 51.548313 -26.976542 18.564058
16810000000 -3.1017654 127.67799 -56.187454 29.761354 -57.740623 20.05759 -26.116455 13.342728
16820000000 -3.0054929 126.32442 -55.220036 3.3810937 -58.40205 -3.5262764 -25.177622 9.8192654
16830000000 -2.8802638 124.82803 -55.982468 -20.885798 -60.79237 -23.714941 -24.250479 9.507618
16840000000 -2.7585819 123.39886 -55.317905 -42.985359 -59.789894 -39.26635 -23.677118 11.206376
16850000000 -2.6221058 121.73188 -56.250004 -79.474464 -61.482777 -72.330933 -23.280613 14.295496
16860000000 -2.5130429 120.27245 -57.627842 -94.994583 -62.709766 -85.411102 -23.362173 16.915701
16870000000 -2.371052 118.74765 -59.905785 -125.49 -64.4077 -97.239502 -23.879906 18.8328
16880000000 -2.2545235 117.30588 -59.355 -126.78305 -62.252419 -109.08903 -24.978327 18.889462
16890000000 -2.1442173 115.83086 -57.918224 -152.82338 -60.663113 -142.55611 -26.25396 15.908742
16900000000 -2.0413775 114.59242 -56.557484 170.08427 -61.084007 -178.20081 -27.45796 7.3243861
16910000000 -1.9405295 113.10758 -58.937435 123.13064 -63.527912 147.91148 -28.102726 -2.5598998
16920000000 -1.8693089 111.75095 -62.436745 99.915001 -69.369865 125.15642 -28.155256 -10.968717
16930000000 -1.7783767 110.2433 -63.762089 92.497055 -69.40696 156.45616 -27.967432 -15.572148
16940000000 -1.6968513 108.73251 -64.215698 79.662384 -65.071877 143.28426 -28.199934 -17.942509
16950000000 -1.6017087 107.0154 -61.471302 50.304016 -62.110767 85.737099 -29.181894 -16.698704
16960000000 -1.5185363 105.37169 -62.593719 3.2364519 -65.465485 53.510021 -30.770926 -11.032948
16970000000 -1.4267201 103.64761 -65.350029 -20.860519 -67.453644 33.523361 -32.824947 2.1949339
16980000000 -1.351542 102.05914 -69.931122 -63.38686 -70.146606 18.332775 -34.999783 21.42222
16990000000 -1.2644709 100.4959 -69.941353 -71.281006 -71.158379 -9.8370705 -36.88168 54.260155
17000000000 -1.180867 99.064133 -69.531372 -104.7987 -72.442535 -11.954781 -35.979027 91.369873
