!Keysight Technologies,P9374A,MY57211807,A.19.30.04
!Date: Friday, May 08, 2026 15:46:09
!Correction: S11(C  2-Port  ) 
!S21(C  2-Port  ) 
!S12(C  2-Port  ) 
!S22(C  2-Port  ) 
!S2P File: Measurements: S11, S21, S12, S22:
# Hz S  dB   R 50
13000000000 -19.179443 57.682251 -41.618874 69.715416 -42.678566 68.910774 -9.5252943 24.25729
13010000000 -19.40909 59.479671 -41.333107 46.877235 -42.450478 47.339642 -9.5570908 19.824186
13020000000 -19.40131 61.818001 -41.638618 22.913818 -42.154102 23.51688 -9.6117601 15.55718
13030000000 -19.569456 62.808899 -41.537201 3.644417 -42.08527 1.4652538 -9.7064962 11.150549
13040000000 -19.481592 64.907921 -41.384369 -17.554369 -42.017311 -22.28787 -9.8819656 7.0401211
13050000000 -19.488066 63.235943 -40.928684 -39.732166 -41.661354 -43.737713 -10.169127 3.110394
13060000000 -19.582914 62.642315 -40.551861 -64.093369 -41.578053 -68.815086 -10.569263 -0.78261334
13070000000 -19.74612 60.989307 -40.639729 -90.485764 -41.765846 -91.476013 -11.047982 -4.7764244
13080000000 -19.905016 61.185879 -40.829948 -114.007 -41.768864 -116.447 -11.579705 -9.2462444
13090000000 -19.866982 59.985214 -41.26516 -135.48959 -41.936798 -138.80171 -12.057923 -13.932385
13100000000 -20.080853 61.056721 -40.875488 -155.85487 -42.077507 -160.2399 -12.533469 -18.129526
13110000000 -19.806183 61.585487 -40.433399 -177.77293 -41.957859 178.78932 -13.075785 -21.647091
13120000000 -19.820757 63.30138 -40.137611 155.59644 -41.631599 156.14523 -13.738256 -24.710737
13130000000 -19.361963 63.475769 -40.308743 131.40138 -41.487396 129.27968 -14.575833 -27.616825
13140000000 -19.222029 62.636154 -40.412914 107.24738 -42.039791 106.40349 -15.489857 -30.683935
13150000000 -19.137745 60.60841 -40.825069 85.088516 -42.443512 83.565582 -16.379177 -33.641727
13160000000 -19.466099 60.23481 -41.08638 64.201889 -42.66127 63.202629 -17.304476 -36.215721
13170000000 -19.563049 59.203022 -41.085629 44.893337 -42.590462 42.716984 -18.438591 -37.911568
13180000000 -19.791647 59.687431 -40.838181 22.132532 -42.384388 20.645998 -20.016544 -38.255367
13190000000 -19.649647 58.950306 -41.054813 -2.4065225 -42.505947 -5.4406242 -22.032555 -37.515396
13200000000 -19.655621 58.412659 -41.344006 -26.290054 -42.722961 -26.348501 -24.466625 -37.75127
13210000000 -19.289568 57.059147 -41.734894 -50.425171 -42.807182 -50.721554 -27.234909 -38.718803
13220000000 -19.271843 55.125694 -42.113255 -71.62326 -43.209728 -72.317337 -30.232733 -36.883892
13230000000 -19.313093 53.40485 -41.991711 -93.345581 -43.230869 -92.120689 -33.530243 -20.22905
13240000000 -19.423449 53.578369 -42.319077 -116.82165 -43.101303 -115.16589 -33.925602 22.946438
13250000000 -19.297094 53.827606 -42.516514 -139.12019 -43.14027 -136.06975 -30.310984 56.405025
13260000000 -19.129734 52.96656 -42.638584 -162.13986 -43.136665 -160.31467 -26.778849 74.718948
13270000000 -19.231989 50.185158 -42.890968 176.00299 -43.240318 177.74002 -24.131636 84.131172
13280000000 -19.210024 49.155357 -43.592911 154.1774 -43.59906 156.81464 -22.313448 87.810715
13290000000 -19.70755 46.147625 -43.840027 135.42653 -43.589584 136.64993 -21.182228 88.785652
13300000000 -19.801519 45.760067 -43.344784 114.38313 -43.152374 113.56911 -20.045799 87.618637
13310000000 -20.134436 44.531883 -43.630188 88.19136 -43.526001 88.448097 -18.856178 84.766953
13320000000 -19.925676 44.764523 -44.022858 64.036781 -43.816177 65.551178 -17.737324 82.672791
13330000000 -20.027113 43.371895 -44.637398 41.819279 -44.566376 44.039032 -16.78421 80.833115
13340000000 -19.646067 43.021297 -45.886185 22.188284 -44.763348 27.956707 -16.114634 79.508583
13350000000 -19.626173 39.691933 -46.10783 7.3357821 -44.330769 5.9950252 -15.633862 77.906898
13360000000 -19.523811 37.11721 -45.350807 -13.877401 -44.217323 -15.977023 -15.146643 74.910461
13370000000 -20.065222 33.995995 -45.789139 -37.171608 -44.511703 -38.450645 -14.634607 70.375565
13380000000 -20.287964 33.372078 -46.427792 -59.305187 -44.767693 -59.675949 -14.015678 66.186485
13390000000 -20.917818 32.026142 -46.64299 -76.132332 -44.629776 -78.852257 -13.318421 63.004822
13400000000 -21.253021 32.77269 -46.846306 -99.6679 -45.086418 -103.50632 -12.691772 60.969978
13410000000 -21.669075 33.3605 -48.110668 -112.1189 -45.674377 -121.32678 -12.23402 59.420002
13420000000 -21.439676 35.732342 -47.051384 -134.9135 -46.41655 -141.53099 -12.010115 57.464958
13430000000 -20.875881 31.963312 -47.231789 -154.36737 -45.996063 -155.53557 -11.894813 54.828289
13440000000 -20.762905 27.842068 -47.337379 -177.31554 -45.642548 -176.4601 -11.827785 51.406254
13450000000 -20.933643 21.885626 -48.168587 160.46336 -45.811249 155.4055 -11.680541 47.552204
13460000000 -21.812395 18.943598 -49.456646 147.06157 -46.977425 140.94438 -11.479198 43.857426
13470000000 -22.365757 17.999216 -49.061653 133.63277 -47.723083 122.99072 -11.317464 40.808331
13480000000 -23.067526 21.366787 -47.960838 116.72035 -46.556324 108.41705 -11.253504 38.576019
13490000000 -23.211222 22.004496 -47.724358 97.972122 -46.849293 87.046684 -11.209916 36.596153
13500000000 -23.424376 26.311497 -47.568279 71.616051 -47.354019 65.851387 -11.281013 34.382954
13510000000 -22.806086 25.220955 -47.727962 58.521751 -47.012993 52.751068 -11.403686 32.354862
13520000000 -22.969511 20.667873 -47.214996 37.311363 -46.572262 32.122467 -11.502016 30.64393
13530000000 -23.232296 16.989046 -47.220608 13.275521 -45.993519 10.325871 -11.654447 29.186457
13540000000 -23.544716 12.594721 -46.654896 -1.4347241 -45.659771 -12.116954 -11.837676 28.156399
13550000000 -24.331284 9.3317623 -46.176994 -27.34132 -45.346058 -36.061188 -12.048937 27.442463
13560000000 -25.126942 9.1285458 -46.460682 -46.62875 -45.945316 -60.613579 -12.275995 26.801908
13570000000 -26.001301 13.323224 -45.587749 -72.311234 -45.916935 -81.205658 -12.444839 26.114288
13580000000 -25.826677 20.398813 -46.693184 -94.280968 -45.945698 -99.429153 -12.507133 25.611866
13590000000 -25.269491 22.539955 -46.509735 -109.40869 -45.408413 -122.9632 -12.509213 25.194508
13600000000 -24.956402 20.838894 -45.545643 -131.77962 -45.420715 -146.72946 -12.441355 25.168467
13610000000 -24.869749 18.40626 -45.313564 -154.49498 -45.796566 -170.45135 -12.360806 25.559843
13620000000 -25.539577 11.523498 -44.944214 -176.20628 -45.690247 169.08093 -12.296062 26.2794
13630000000 -26.897549 13.900138 -44.817066 157.73575 -46.603813 144.30991 -12.204765 26.741508
13640000000 -27.281918 12.767263 -44.779457 131.51048 -46.275768 126.16084 -12.153596 26.849495
13650000000 -28.138721 16.772713 -45.622726 103.07883 -46.719124 100.06635 -12.067298 26.63798
13660000000 -27.671579 16.635294 -47.166721 86.038864 -47.816315 84.164787 -11.925859 25.614414
13670000000 -28.623789 17.996334 -47.436897 68.937752 -48.523216 64.402458 -11.768752 24.341173
13680000000 -27.708755 26.686165 -47.628735 54.27121 -48.990429 55.619373 -11.580902 23.08386
13690000000 -26.353786 27.148045 -47.562584 34.072018 -47.696239 38.620659 -11.394069 21.950199
13700000000 -25.56599 19.460541 -47.432209 12.274218 -47.33984 14.051626 -11.22533 20.895447
13710000000 -26.179428 13.427314 -47.548969 -8.3875704 -47.716888 -7.7213306 -11.101535 19.551107
13720000000 -27.238056 10.207446 -48.398251 -27.238123 -47.729664 -23.072317 -11.019799 17.630354
13730000000 -28.844233 17.138651 -48.866203 -43.832275 -47.609482 -37.751003 -10.958183 15.475777
13740000000 -28.348083 21.920414 -48.743099 -50.44487 -46.799995 -56.283367 -10.923223 13.378903
13750000000 -29.036615 25.153908 -46.715237 -67.111549 -45.340633 -76.219604 -10.870282 11.643551
13760000000 -27.795744 28.559217 -45.78997 -94.972191 -45.050381 -101.91159 -10.880179 10.277836
13770000000 -27.44272 22.233156 -45.605343 -116.08327 -44.689789 -121.6438 -10.99486 8.6493835
13780000000 -26.889021 17.496737 -45.69075 -140.3112 -44.288353 -144.42847 -11.228386 6.6610694
13790000000 -26.948143 10.189132 -45.230888 -155.09734 -43.729206 -163.18056 -11.520162 4.6301436
13800000000 -27.08779 6.5655289 -43.793976 -178.68472 -42.845131 172.27814 -11.707102 2.4143717
13810000000 -27.485359 3.9880283 -43.468037 152.48785 -42.861858 146.19037 -11.793819 0.27216399
13820000000 -26.988489 3.261173 -44.441658 126.21945 -42.977177 124.61105 -11.915806 -1.1448286
13830000000 -27.967745 -2.8970938 -44.697327 110.34879 -42.528797 102.69147 -12.089265 -1.7290791
13840000000 -28.662096 2.0261781 -44.184608 91.315712 -42.584465 81.768326 -12.33 -1.9066352
13850000000 -28.85969 12.904009 -43.645733 72.561302 -41.806076 59.675022 -12.600822 -2.1023149
13860000000 -26.812874 9.7725468 -43.123264 51.183907 -41.972057 35.545719 -12.886325 -2.8042872
13870000000 -26.352942 -0.30468947 -42.233376 26.085785 -41.387131 12.004842 -13.133778 -3.2729738
13880000000 -26.691875 -9.9677114 -42.220688 0.54409528 -41.970684 -13.559255 -13.339911 -3.0183561
13890000000 -27.519022 -15.48693 -41.910084 -23.626778 -42.337589 -34.164803 -13.456724 -2.1234391
13900000000 -27.671915 -19.397713 -41.753582 -48.562397 -42.420723 -51.89085 -13.573346 -1.5918012
13910000000 -28.131308 -19.92207 -41.809792 -73.307831 -42.10783 -73.155853 -13.823192 -1.2201542
13920000000 -27.513714 -25.910027 -41.932888 -96.692909 -41.588921 -96.911903 -14.036417 -1.1326489
13930000000 -29.154245 -34.653427 -42.085751 -119.77444 -41.846703 -119.45695 -14.140348 -1.2474198
13940000000 -30.4403 -28.133364 -42.149811 -145.07838 -41.994324 -145.50551 -14.11735 -1.2485828
13950000000 -29.923641 -22.11521 -42.476795 -166.85721 -42.346581 -164.79231 -13.990115 -0.90925944
13960000000 -28.885498 -26.036682 -42.695587 171.33109 -42.240669 171.80602 -13.843485 -0.27201787
13970000000 -27.993126 -35.233112 -42.42128 149.44586 -42.629341 149.96837 -13.771954 0.55051941
13980000000 -27.803675 -49.183136 -42.125561 124.8026 -42.363174 127.39607 -13.780033 1.3224728
13990000000 -27.822166 -59.895672 -42.41053 98.971878 -42.635448 101.42474 -13.859746 1.5818115
14000000000 -27.945953 -69.274529 -42.70969 75.963135 -43.264645 79.15094 -14.00165 1.7164898
14010000000 -28.25993 -76.60553 -42.803928 50.628387 -43.269245 55.278381 -14.080955 1.6746283
14020000000 -29.01079 -80.860657 -43.817837 27.767809 -44.037094 31.756514 -14.089391 0.74436361
14030000000 -29.743303 -77.052742 -43.851746 7.4409566 -43.991531 10.202501 -14.185845 -0.5426349
14040000000 -30.261717 -74.794708 -43.824905 -13.023955 -43.847382 -11.88015 -14.311037 -1.511924
14050000000 -28.965242 -67.629768 -43.415672 -39.923309 -43.665863 -41.172535 -14.424542 -2.0123656
14060000000 -28.752138 -76.088715 -43.771103 -66.183144 -44.861767 -65.915779 -14.487532 -2.4856036
14070000000 -28.298355 -80.631241 -44.97118 -96.49926 -45.326962 -92.101364 -14.551891 -3.532774
14080000000 -28.065525 -93.014412 -46.037807 -113.18813 -46.010181 -114.87015 -14.645238 -4.4839163
14090000000 -28.111778 -104.59082 -46.387474 -130.42256 -46.363663 -133.20416 -14.695205 -5.0068011
14100000000 -28.354469 -119.31358 -46.39296 -154.95444 -46.133621 -159.16991 -14.686134 -5.1674371
14110000000 -28.950811 -126.51878 -47.108898 -177.73193 -46.62867 175.26906 -14.643253 -5.172771
14120000000 -29.798008 -131.43318 -47.635262 160.19432 -47.177879 147.13254 -14.737649 -5.0984378
14130000000 -29.699528 -125.34949 -47.815083 140.59727 -47.793369 123.48177 -14.919283 -4.7795849
14140000000 -28.781446 -128.485 -48.190464 112.65706 -48.921955 102.58766 -15.164466 -5.0764141
14150000000 -29.227718 -124.93023 -49.295143 89.832489 -49.351788 80.581718 -15.38261 -6.4700913
14160000000 -27.413923 -128.36977 -50.656742 66.655823 -49.510693 57.805744 -15.540117 -8.2865667
14170000000 -27.431803 -133.68147 -51.423912 52.95031 -50.361969 30.708103 -15.613598 -9.6664886
14180000000 -26.888968 -142.39874 -50.452187 33.89138 -51.368446 9.5614586 -15.692628 -10.024672
14190000000 -27.417955 -151.51645 -51.038872 3.5662234 -52.178051 -16.101757 -15.794844 -9.8097
14200000000 -27.463593 -155.13931 -53.378403 -29.755501 -54.983955 -45.339417 -16.067917 -9.9776344
14210000000 -27.774998 -162.35336 -55.28896 -37.392113 -55.371109 -48.723179 -16.583115 -10.438989
14220000000 -27.740368 -160.61188 -56.498638 -53.884464 -54.588169 -72.798721 -17.148642 -10.58694
14230000000 -27.747122 -165.64754 -55.44746 -72.324913 -56.436684 -103.75746 -17.586182 -10.547394
14240000000 -27.675447 -160.70096 -56.685081 -108.02274 -56.064209 -139.03653 -18.012648 -10.522492
14250000000 -27.015844 -163.64177 -59.763405 -156.19339 -60.393719 163.49609 -18.495132 -9.6553755
14260000000 -26.846132 -165.49696 -67.332298 150.03108 -67.195999 93.093277 -19.119284 -7.8444629
14270000000 -26.794041 -167.04504 -65.97686 -36.735027 -70.873001 -35.492348 -19.743765 -5.6762958
14280000000 -26.709753 -170.57115 -65.60511 -102.91445 -70.287849 -47.516758 -20.404863 -4.1614079
14290000000 -26.71937 -175.64769 -70.468613 -80.704811 -64.271545 -30.352507 -20.91551 -2.178236
14300000000 -27.229881 -178.98206 -65.011444 -58.843658 -58.62775 -63.828781 -21.166718 0.64160037
14310000000 -27.065601 176.90741 -56.816505 -72.883598 -57.089333 -87.863266 -21.086201 5.1814747
14320000000 -28.040878 174.9955 -54.79686 -110.20542 -54.349388 -115.1184 -20.791204 10.67449
14330000000 -27.289175 177.18495 -53.591881 -132.43343 -52.600983 -135.09807 -20.543308 17.2176
14340000000 -28.132488 174.28296 -51.290142 -161.18491 -50.484505 -161.12015 -20.309372 24.08515
14350000000 -27.131058 -178.75073 -50.490055 169.5457 -49.482594 165.16013 -20.126213 30.597277
14360000000 -27.298176 176.35852 -50.532787 149.61638 -49.520573 141.90068 -19.952003 36.200745
14370000000 -26.580378 178.13574 -49.467052 127.79183 -48.994633 120.06641 -19.6469 39.935635
14380000000 -26.914549 172.92993 -48.304291 110.36443 -48.168613 108.28649 -19.240477 41.375984
14390000000 -26.804356 170.70132 -46.846897 83.127747 -46.451778 83.252846 -18.783043 41.3414
14400000000 -27.933727 165.9866 -46.405945 61.138744 -45.511505 57.72818 -18.165028 40.940231
14410000000 -28.067696 168.39575 -45.502209 40.767387 -44.637566 33.91692 -17.505714 40.359493
14420000000 -28.8599 167.81441 -44.590473 15.167885 -44.297379 9.3308868 -16.936554 40.491814
14430000000 -28.221014 175.06955 -44.059341 -8.8334103 -43.61927 -13.52477 -16.37299 41.064976
14440000000 -27.90588 173.80942 -43.333767 -34.038879 -43.012997 -37.151917 -15.876751 40.631821
14450000000 -26.611015 177.8504 -42.632977 -59.363018 -42.314339 -62.368423 -15.499621 39.873112
14460000000 -26.229538 170.23363 -42.60672 -81.50927 -42.111092 -85.413544 -15.156943 38.818176
14470000000 -26.285606 169.15192 -41.939342 -105.90758 -41.58448 -109.45979 -14.861924 38.153713
14480000000 -26.768225 168.99457 -41.075981 -129.65033 -41.04092 -133.66051 -14.659747 37.843109
14490000000 -27.168873 167.80687 -40.700497 -156.18477 -40.541531 -157.57327 -14.56349 37.462334
14500000000 -27.951735 175.68668 -40.46323 177.33411 -40.027573 175.99628 -14.618107 36.508678
14510000000 -27.303825 178.66385 -40.297703 152.96312 -39.864754 150.73334 -14.722642 34.813202
14520000000 -26.940441 -177.41547 -40.431725 129.58427 -39.789627 126.88403 -14.749741 32.493195
14530000000 -25.8916 -178.76598 -39.971668 105.90588 -39.464756 101.01009 -14.600784 30.607252
14540000000 -25.26898 177.93382 -39.857609 81.473053 -39.481369 77.692566 -14.328306 29.628565
14550000000 -25.008671 170.6006 -39.674034 57.120605 -39.394966 52.707348 -14.081494 29.477707
14560000000 -25.148184 169.25047 -39.724506 32.401546 -39.477215 29.276592 -13.987689 30.05896
14570000000 -25.479811 166.67065 -39.809917 7.7069659 -39.409809 4.752317 -14.019938 31.086815
14580000000 -25.681774 173.87337 -40.020866 -15.469813 -39.655079 -20.799553 -14.06594 31.644184
14590000000 -25.23774 174.59125 -40.097137 -35.722923 -39.788689 -41.921761 -14.072116 31.649458
14600000000 -24.475409 -178.30135 -39.729862 -59.36375 -39.718483 -63.982243 -14.029635 31.394617
14610000000 -23.456982 177.11528 -39.647007 -83.575134 -39.456169 -87.991982 -13.944042 31.446325
14620000000 -23.123207 176.37064 -39.588661 -108.5434 -39.534363 -113.07747 -13.897902 31.521791
14630000000 -22.515017 169.20224 -39.689198 -131.74696 -39.565506 -136.49219 -13.862293 31.535408
14640000000 -23.194702 165.28644 -39.766277 -152.909 -39.722046 -160.48712 -13.820764 30.640909
14650000000 -23.254667 164.91199 -39.863197 -177.24559 -39.988281 178.16617 -13.728948 29.584644
14660000000 -23.482681 165.4783 -39.69268 160.77267 -39.639679 155.82153 -13.494585 28.491161
14670000000 -23.197666 167.61703 -39.651798 137.41542 -39.864861 130.5748 -13.174447 27.886187
14680000000 -22.57448 170.4852 -39.652588 112.66303 -39.952972 108.30064 -12.856286 27.733437
14690000000 -21.613615 167.22324 -39.960072 89.578773 -40.187492 84.514946 -12.645652 27.912947
14700000000 -21.401413 165.09865 -40.284924 68.086662 -40.541653 63.49958 -12.545067 27.852346
14710000000 -20.943779 161.27263 -39.817471 44.788315 -40.181168 40.583153 -12.551712 27.446882
14720000000 -21.252813 156.45628 -39.921719 20.509464 -40.301144 16.982218 -12.60743 26.508968
14730000000 -21.526417 155.27165 -39.94907 -3.7422817 -40.304745 -8.7222557 -12.686707 25.188406
14740000000 -21.744673 154.41206 -40.279385 -29.249828 -40.675243 -33.004673 -12.745855 23.6518
14750000000 -21.718561 155.60501 -40.617996 -51.195263 -41.215965 -55.957718 -12.755716 21.623608
14760000000 -21.269329 154.64163 -40.90287 -74.650917 -41.569733 -77.053925 -12.758152 19.477982
14770000000 -20.947474 152.15434 -41.008129 -97.243004 -41.544518 -99.094254 -12.71637 17.841194
14780000000 -20.460358 150.64835 -41.231201 -120.51406 -41.865223 -122.72475 -12.663776 16.710594
14790000000 -20.219286 146.42813 -41.659214 -143.32637 -42.218189 -144.47577 -12.667783 16.240042
14800000000 -20.203077 144.91682 -42.074718 -166.03062 -42.539169 -168.02591 -12.750147 16.269331
14810000000 -20.230156 142.02641 -42.287781 172.03699 -43.146194 171.84561 -12.864267 16.186382
14820000000 -20.412638 141.40663 -42.863049 149.88242 -43.466869 151.88042 -13.021948 15.638375
14830000000 -20.587431 140.33672 -42.876076 129.48691 -43.453423 130.40291 -13.206868 14.835905
14840000000 -20.594357 140.71811 -43.197861 106.28663 -43.806274 110.07603 -13.436587 14.504614
14850000000 -20.690813 138.06725 -43.609318 83.347984 -43.703987 87.236382 -13.636868 14.672858
14860000000 -20.632227 137.40981 -43.884003 61.299984 -44.233322 64.240585 -13.848578 14.852161
14870000000 -20.694225 133.22282 -44.90773 38.918251 -45.057022 44.966869 -14.090506 14.361308
14880000000 -20.716188 132.20422 -45.039486 20.934626 -44.475761 24.624018 -14.280339 13.020699
14890000000 -20.502731 128.02628 -45.215275 -2.1386719 -44.91169 1.474409 -14.347418 11.598895
14900000000 -20.689297 125.84122 -45.506382 -21.158894 -45.115295 -19.972878 -14.262138 11.074114
14910000000 -20.731091 123.54363 -45.647472 -43.418644 -45.470768 -41.842056 -14.129065 11.907389
14920000000 -20.817318 123.27064 -46.179123 -62.366055 -45.836338 -59.479534 -14.059374 14.064177
14930000000 -20.970066 122.29558 -46.458099 -88.83606 -46.281059 -81.625633 -14.17957 16.0212
14940000000 -21.054459 122.54247 -47.363873 -103.95916 -46.005077 -98.551888 -14.524105 17.576948
14950000000 -21.199781 121.57269 -47.500893 -122.38912 -46.402996 -121.29343 -14.878787 18.452591
14960000000 -21.417593 121.84837 -48.029198 -145.03445 -46.49144 -142.73434 -15.128263 18.419537
14970000000 -21.485548 120.76511 -47.440334 -158.84024 -45.847206 -162.41051 -15.253942 18.593262
14980000000 -21.769411 117.21313 -47.497257 176.58501 -46.385574 170.11691 -15.279207 19.291595
14990000000 -22.269344 116.29542 -48.079556 152.20496 -47.081444 147.96159 -15.342306 20.137156
15000000000 -22.487556 113.23141 -48.999577 132.23659 -47.209831 128.09196 -15.478054 20.879211
15010000000 -23.093527 113.88597 -49.471832 116.85492 -48.074043 103.66083 -15.596401 20.888472
15020000000 -23.091026 112.73984 -49.942677 97.014992 -48.910892 83.851631 -15.511709 20.812004
15030000000 -23.340704 114.27959 -49.999638 86.500786 -49.946022 67.205887 -15.170219 21.389416
15040000000 -23.149324 113.64145 -49.606567 67.503799 -50.14019 55.090126 -14.738914 22.823292
15050000000 -23.366207 115.04036 -49.492702 47.754677 -49.899326 32.98661 -14.464178 25.415552
15060000000 -23.25165 114.63984 -49.563877 25.733465 -49.972805 13.916833 -14.392038 28.13257
15070000000 -23.646353 115.08797 -49.52459 7.7306132 -50.266544 -5.1353931 -14.510598 30.185223
15080000000 -23.84289 113.75261 -49.346748 -8.9234324 -51.183403 -28.450399 -14.679983 30.957893
15090000000 -24.754938 117.21175 -49.32238 -30.469389 -52.601563 -42.594318 -14.773394 30.254627
15100000000 -24.560085 117.17888 -50.103012 -49.036243 -53.828243 -48.232899 -14.705804 29.081989
15110000000 -25.322107 121.15813 -49.41713 -56.70882 -52.146156 -58.268555 -14.478706 28.00749
15120000000 -24.809097 121.58036 -48.332642 -79.892372 -50.205891 -70.268295 -14.275784 27.182352
15130000000 -25.171484 122.78496 -47.563019 -99.161438 -49.45306 -95.107224 -14.13865 26.650764
15140000000 -24.444269 123.07352 -46.993893 -122.68001 -48.920059 -116.52776 -13.997163 26.228567
15150000000 -24.400196 121.75359 -47.03886 -145.06361 -48.936321 -137.91133 -13.792269 25.771832
15160000000 -24.330994 121.12943 -46.630741 -165.04826 -47.924877 -151.668 -13.575517 25.578201
15170000000 -24.313086 122.81624 -46.762188 171.4005 -47.432133 -176.66342 -13.422404 25.831448
15180000000 -24.22925 121.27613 -46.760269 152.20888 -47.247955 163.78696 -13.372987 26.501869
15190000000 -24.375021 126.20063 -46.257057 137.97392 -46.164295 147.55637 -13.427796 26.879635
15200000000 -23.972281 125.68981 -45.455994 112.83792 -45.231159 125.49043 -13.601803 26.28014
15210000000 -24.161848 128.64775 -45.082962 92.86451 -44.360802 100.10281 -13.822844 24.922958
15220000000 -23.622429 129.03773 -44.196594 69.579826 -43.894806 75.615707 -14.016561 23.227091
15230000000 -23.358971 127.6795 -43.8624 43.45335 -43.478523 51.286282 -14.097507 21.729567
15240000000 -23.40242 125.49547 -43.879486 20.574501 -43.363514 27.460695 -14.127336 20.40563
15250000000 -23.088791 123.66753 -43.920975 -4.1957474 -43.032272 3.7059937 -14.110608 19.42342
15260000000 -23.426191 120.98672 -44.088345 -25.401867 -42.991814 -18.494755 -14.087334 18.914827
15270000000 -23.029722 120.85242 -43.762306 -44.933853 -42.520851 -42.1343 -14.010153 19.165522
15280000000 -23.390284 116.51288 -43.479927 -67.177963 -42.356674 -63.421463 -13.937347 20.154903
15290000000 -23.292467 119.81138 -42.904217 -90.568947 -41.823326 -88.40358 -13.95381 21.510201
15300000000 -23.28665 117.53642 -42.634087 -115.43225 -41.570702 -114.63567 -14.137321 22.913193
15310000000 -22.96736 119.80035 -42.922756 -141.02107 -41.584553 -138.8261 -14.401917 24.179522
15320000000 -22.788008 117.07249 -42.879559 -161.66302 -41.858913 -164.66629 -14.713969 24.462267
15330000000 -22.584743 116.04374 -42.80864 173.92389 -41.646763 173.74998 -14.946871 24.309208
15340000000 -22.752207 112.09412 -42.989368 150.97443 -41.84938 148.80379 -15.06405 23.746828
15350000000 -22.749117 110.26224 -42.913143 129.90562 -41.85387 126.17229 -15.100609 23.542883
15360000000 -23.386486 104.68077 -42.931572 106.46425 -41.986378 102.3845 -15.105225 23.691984
15370000000 -23.875521 106.03228 -42.607426 83.412331 -41.854721 78.928787 -15.098039 23.531342
15380000000 -24.21669 103.26453 -43.0429 59.610264 -42.054298 55.785248 -15.040048 23.304966
15390000000 -24.436832 106.80744 -42.693516 38.561871 -42.166676 34.040726 -14.840465 23.252857
15400000000 -24.111231 104.38811 -42.81028 12.975944 -42.180367 9.6203117 -14.575021 23.797403
15410000000 -23.993887 103.82883 -42.910797 -8.4207926 -42.4081 -10.162442 -14.357222 25.5446
15420000000 -23.958807 98.25869 -42.596279 -32.525101 -41.714851 -34.720985 -14.245076 27.929514
15430000000 -24.228336 96.246819 -42.924911 -56.646355 -42.052944 -61.137043 -14.340374 29.76586
15440000000 -24.724247 89.364784 -43.541367 -79.235748 -42.543823 -85.850853 -14.632435 30.193541
15450000000 -25.879065 89.755608 -43.439812 -99.535027 -42.987736 -104.0868 -14.971609 29.089972
15460000000 -26.620512 86.771103 -43.063931 -121.44602 -42.169872 -126.95738 -15.187355 26.984001
15470000000 -27.649225 92.910797 -42.830513 -146.13261 -42.09396 -153.32703 -15.181332 24.832895
15480000000 -27.518566 92.288857 -42.757267 -173.33351 -42.090874 -179.33768 -15.06896 23.865461
15490000000 -27.630671 91.89357 -43.319164 162.9344 -42.450146 154.69508 -14.930166 23.823317
15500000000 -27.638268 87.353203 -43.614319 141.5545 -43.102871 131.53848 -14.825067 24.351221
15510000000 -28.241085 80.102196 -43.408638 117.47974 -43.310139 107.28635 -14.77444 24.865595
15520000000 -29.455769 76.286591 -44.285782 93.929413 -43.801922 84.35672 -14.746975 25.703453
15530000000 -30.735052 72.184402 -43.899956 72.060364 -44.006458 61.536617 -14.74385 27.183533
15540000000 -33.262539 72.515831 -44.127415 47.245602 -44.287529 34.234402 -14.743794 29.104488
15550000000 -34.296478 82.572914 -44.38327 22.951395 -45.085453 13.054844 -14.839958 30.913477
15560000000 -35.299282 86.458672 -44.850044 -0.48947009 -45.975063 -7.7113075 -15.040125 32.055069
15570000000 -36.058449 88.1605 -44.854637 -24.732441 -46.015198 -28.036858 -15.324254 32.644215
15580000000 -37.819672 82.266327 -45.188999 -48.218704 -45.257339 -48.78899 -15.612548 32.454277
15590000000 -41.852989 68.782021 -45.335381 -69.419899 -45.506451 -76.205612 -15.788588 31.696409
15600000000 -52.302299 127.7051 -45.136929 -93.851089 -45.815464 -103.45306 -15.784932 30.475771
15610000000 -53.937115 -175.55942 -45.326962 -121.97256 -46.476582 -125.11938 -15.622208 29.241522
15620000000 -42.64146 -147.46327 -46.605186 -147.31891 -47.023132 -148.93877 -15.35423 28.724596
15630000000 -41.044556 -162.9101 -47.077084 -166.25713 -47.37373 -170.40471 -15.081736 29.148066
15640000000 -40.627541 -143.49956 -46.904465 173.50414 -46.83083 166.60037 -14.824797 30.842167
15650000000 -38.614792 -136.89168 -46.8978 148.57195 -47.486382 137.58929 -14.677197 32.988064
15660000000 -35.825359 -126.15643 -47.278233 121.38406 -48.380283 109.91801 -14.703653 35.11385
15670000000 -32.730751 -129.60596 -47.368786 94.771759 -49.092682 90.05809 -14.892662 36.347603
15680000000 -30.575989 -134.96089 -48.578609 69.053215 -49.012836 66.899879 -15.191776 36.548748
15690000000 -29.374954 -142.97443 -49.095154 49.411354 -49.575775 41.957798 -15.497583 35.991512
15700000000 -28.774662 -149.83505 -48.384159 24.47669 -50.286747 15.796598 -15.672058 35.698551
15710000000 -29.569933 -149.61263 -49.122032 -2.985697 -51.244522 -7.4281969 -15.688258 35.483372
15720000000 -28.612892 -144.43127 -49.307976 -29.102856 -51.772797 -22.608446 -15.691765 35.507957
15730000000 -28.37693 -141.10472 -49.823883 -56.251453 -50.971024 -47.186508 -15.713158 35.239071
15740000000 -26.816227 -137.79948 -51.038876 -80.13623 -50.752575 -72.273537 -15.747924 35.147038
15750000000 -25.807089 -140.4839 -51.104248 -106.76214 -50.080875 -102.77384 -15.54471 35.652218
15760000000 -25.001116 -145.63441 -51.985851 -125.62356 -50.91708 -130.7363 -15.193521 36.987637
15770000000 -24.634878 -150.36037 -51.509903 -156.81331 -52.116165 -159.81303 -14.734321 39.609238
15780000000 -24.776794 -154.5027 -52.288544 -178.32547 -51.542702 177.61424 -14.47279 42.60434
15790000000 -24.941561 -153.26904 -51.65023 146.48335 -50.843231 142.51639 -14.408264 46.04118
15800000000 -24.495005 -152.13844 -53.335987 116.05393 -51.637329 114.36593 -14.563168 48.530586
15810000000 -24.113815 -149.06557 -53.647305 91.836105 -51.429768 83.765778 -14.78766 49.318386
15820000000 -22.963978 -149.88716 -54.309898 71.183922 -51.731712 52.522091 -14.95603 48.443783
15830000000 -22.579218 -152.3929 -54.130802 43.83905 -52.23661 22.039131 -14.878354 46.935055
15840000000 -22.223013 -154.46838 -53.059158 18.115915 -52.458141 -10.688343 -14.563375 45.303154
15850000000 -22.297806 -156.28871 -53.474693 -15.9984 -52.605488 -36.43082 -14.172573 43.951073
15860000000 -22.490683 -156.29219 -53.632469 -41.56432 -52.861855 -71.170715 -13.744111 43.095531
15870000000 -22.436127 -154.10847 -53.704227 -62.139874 -53.27673 -97.688683 -13.360161 42.572216
15880000000 -22.178593 -152.42001 -52.325897 -92.219574 -53.594002 -130.23889 -12.989452 42.531902
15890000000 -21.577681 -151.94528 -52.470715 -122.28125 -55.350899 -154.13931 -12.645966 42.825798
15900000000 -21.002264 -155.36798 -52.57431 -157.22516 -55.499069 179.38602 -12.380316 43.417439
15910000000 -20.865396 -157.66843 -53.819412 -179.36368 -56.339073 165.73672 -12.240467 43.881672
15920000000 -20.653988 -160.52965 -54.548847 161.12773 -55.7439 146.07634 -12.180408 43.83897
15930000000 -20.957991 -160.14955 -53.008957 142.8952 -55.433239 130.37891 -12.240639 42.97448
15940000000 -20.803764 -157.98476 -52.076748 118.69493 -54.073509 108.2086 -12.329067 41.438591
15950000000 -20.475506 -155.35254 -51.538193 89.048454 -52.828274 80.228836 -12.386868 39.000584
15960000000 -19.821529 -153.0985 -51.151417 60.810734 -52.240734 52.951626 -12.382848 36.326946
15970000000 -19.240297 -153.93729 -51.142677 37.494389 -51.898586 31.263449 -12.267408 33.408028
15980000000 -18.774319 -155.93506 -50.642078 13.002104 -51.188999 6.1356993 -12.05401 30.78289
15990000000 -18.880356 -158.68636 -50.27972 -10.630804 -50.786961 -22.318584 -11.796161 28.906946
16000000000 -18.982483 -158.79239 -50.176086 -33.347279 -50.790081 -48.030739 -11.552468 28.254377
16010000000 -19.182699 -158.39351 -49.414066 -59.975132 -50.795849 -72.187019 -11.417531 28.14867
16020000000 -19.084366 -154.65302 -50.07217 -86.007515 -50.855686 -97.17717 -11.458641 28.281286
16030000000 -18.36483 -153.31104 -48.967861 -106.10658 -51.096458 -114.34396 -11.644251 27.486269
16040000000 -17.729958 -153.35088 -49.337273 -133.05461 -50.217728 -139.92036 -11.94828 25.678461
16050000000 -17.003593 -155.79094 -49.288422 -153.06035 -49.926071 -164.89908 -12.238579 23.048498
16060000000 -16.748182 -158.44534 -48.31805 -177.3653 -50.500874 170.5565 -12.448473 20.278975
16070000000 -16.590506 -160.35078 -48.582901 158.35112 -50.919662 148.59828 -12.546746 17.85383
16080000000 -16.73432 -161.0275 -48.324409 135.60477 -50.01849 132.94714 -12.677969 15.522271
16090000000 -16.717728 -159.1899 -48.128777 113.38963 -49.978115 108.53607 -12.834643 13.110776
16100000000 -16.530787 -156.36343 -47.931278 89.331673 -49.512402 87.655067 -12.991977 10.686313
16110000000 -15.811849 -155.04166 -48.016445 69.075539 -49.723938 66.444206 -13.034493 8.9630785
16120000000 -15.319999 -155.8669 -46.991127 42.641766 -48.520744 45.801254 -12.99647 8.2680759
16130000000 -14.65343 -158.48083 -47.248524 19.650845 -48.812912 20.616386 -13.00668 9.2374096
16140000000 -14.571645 -161.4953 -46.827526 -4.2471881 -47.738422 -2.0787311 -13.202892 11.039663
16150000000 -14.358778 -163.86082 -47.304306 -26.875175 -47.760105 -28.278631 -13.635878 12.402555
16160000000 -14.49534 -165.02019 -47.494217 -49.787651 -47.750145 -51.649101 -14.2572 12.351743
16170000000 -14.316442 -164.0704 -46.962646 -68.694046 -47.509071 -76.993942 -14.907837 10.287514
16180000000 -14.077884 -163.1521 -46.88332 -94.230133 -48.076481 -102.08295 -15.349785 7.0788255
16190000000 -13.528922 -162.21965 -46.578705 -115.81214 -47.945419 -124.56441 -15.540286 4.1805601
16200000000 -13.02107 -162.8465 -46.34824 -140.09933 -48.689533 -146.05482 -15.580925 2.5386946
16210000000 -12.557071 -164.58655 -46.442142 -161.17209 -48.58942 -160.17088 -15.62748 1.8654363
16220000000 -12.396226 -166.90332 -45.875355 175.86308 -47.793018 176.75012 -15.70549 1.1450423
16230000000 -12.236194 -168.73904 -45.522095 152.49808 -47.319195 153.86324 -15.797073 0.71525037
16240000000 -12.305219 -170.13499 -45.517677 126.77489 -47.865036 127.42202 -15.860511 1.197433
16250000000 -12.206413 -170.34724 -45.613861 102.34108 -47.922485 111.46452 -15.845442 3.146451
16260000000 -12.030292 -170.73447 -45.644802 79.845619 -47.196117 88.397644 -15.963946 5.7287087
16270000000 -11.679766 -171.15741 -45.631275 57.229858 -46.837479 66.026054 -16.292843 8.3186731
16280000000 -11.30415 -172.5435 -45.645279 33.90303 -46.563206 44.19928 -16.881126 9.8876972
16290000000 -10.954812 -174.10977 -45.546673 10.199662 -46.243828 22.654421 -17.541281 8.7666531
16300000000 -10.723009 -175.89154 -45.412994 -14.31007 -45.18523 -4.3538885 -18.111465 5.3891215
16310000000 -10.516489 -177.23221 -45.484203 -40.723541 -45.368698 -32.034046 -18.398205 1.1436641
16320000000 -10.401354 -177.99959 -45.459084 -63.059135 -44.989574 -56.351963 -18.429863 -1.6960099
16330000000 -10.207764 -178.76793 -45.925381 -88.233459 -45.548164 -85.906036 -18.349228 -3.2969697
16340000000 -10.077465 -179.65813 -46.172127 -113.16541 -46.080742 -107.83176 -18.262308 -4.5751457
16350000000 -9.9175568 179.43062 -46.142284 -138.46729 -45.998241 -133.94762 -18.281628 -5.7650375
16360000000 -9.7682028 178.46303 -46.901321 -161.35974 -46.650578 -155.21365 -18.368776 -5.933825
16370000000 -9.59268 176.914 -47.497169 174.20012 -46.812611 179.33063 -18.554482 -4.6636567
16380000000 -9.4697332 175.74341 -47.63554 154.53133 -47.074276 155.30507 -18.964073 -2.6163313
16390000000 -9.2655993 174.48296 -47.837566 129.81143 -47.993019 127.53594 -19.723722 -1.5201849
16400000000 -9.0684967 173.36073 -48.824612 106.47202 -49.442524 107.00513 -20.929251 -2.5965271
16410000000 -8.7984381 171.89709 -49.226112 84.969131 -49.973343 88.044884 -22.269434 -6.5286431
16420000000 -8.6304092 170.64671 -50.226227 66.665138 -50.207363 68.214203 -23.302114 -12.22459
16430000000 -8.4442415 169.23534 -50.595524 43.804188 -51.446983 44.551193 -23.866528 -17.273094
16440000000 -8.3982334 168.2827 -51.157341 26.083452 -52.067394 33.619484 -24.312178 -21.287283
16450000000 -8.2905607 167.70836 -52.213558 4.9969602 -52.561031 9.165946 -25.161209 -23.522375
16460000000 -8.2088804 167.45154 -53.343376 -8.4446287 -53.370182 -0.57811296 -26.195724 -24.089121
16470000000 -8.0165043 166.84514 -53.308804 -22.624439 -53.151413 -15.409112 -26.997717 -22.651258
16480000000 -7.8532887 165.87166 -53.282936 -39.487106 -52.352646 -25.423643 -27.472084 -16.979435
16490000000 -7.6306071 164.47995 -52.552727 -55.929214 -51.022575 -47.715454 -27.896437 -4.7102289
16500000000 -7.4845352 162.679 -52.24015 -80.863541 -50.66988 -71.678581 -28.13097 14.463397
16510000000 -7.3489294 160.84154 -53.307774 -100.23563 -51.556007 -93.565643 -28.296535 36.495155
16520000000 -7.3265553 159.53908 -52.8983 -106.81429 -51.284634 -100.62605 -28.687559 58.612053
16530000000 -7.2123542 158.77567 -51.048164 -123.6973 -49.512459 -121.5265 -29.349089 76.978363
16540000000 -7.1069579 158.47678 -49.658573 -148.43623 -47.979988 -147.70544 -30.273453 87.750465
16550000000 -6.8833914 158.13052 -49.411877 -175.51915 -47.615025 -177.34952 -31.344845 86.389458
16560000000 -6.6802464 157.41927 -50.062786 161.99902 -48.297546 154.71039 -31.514782 76.923523
16570000000 -6.4840684 156.537 -50.24123 143.80545 -48.442383 134.94223 -30.889769 69.998039
16580000000 -6.3245358 155.05354 -49.119461 123.28888 -47.811932 115.36823 -29.668928 71.250755
16590000000 -6.2477107 153.74826 -49.107666 99.69799 -47.141323 90.575127 -28.543945 72.496635
16600000000 -6.1730785 152.39191 -49.019234 73.604523 -47.281231 61.765587 -27.761656 71.618332
16610000000 -6.1165547 151.51009 -48.890614 50.560863 -47.827301 38.723869 -26.954819 71.404793
16620000000 -5.9695344 150.6631 -48.785961 23.219297 -47.80135 13.807398 -25.713196 74.704361
16630000000 -5.7948365 149.66551 -49.338104 3.0509102 -48.068787 -10.985865 -24.246414 81.043106
16640000000 -5.5878973 148.64249 -49.223553 -16.929523 -48.857891 -29.256897 -23.172993 88.307243
16650000000 -5.3809032 147.49715 -48.798244 -41.76965 -48.444637 -53.198387 -22.720999 95.77063
16660000000 -5.2005849 146.21246 -48.593102 -63.297199 -48.56773 -75.472221 -22.839346 103.58881
16670000000 -5.0618196 145.25905 -48.652962 -92.434341 -48.650074 -105.1254 -23.163143 107.52197
16680000000 -4.9121556 144.11357 -49.765362 -111.92018 -50.058994 -128.47919 -23.580381 105.75052
16690000000 -4.8090153 143.3065 -49.81329 -130.46303 -51.26178 -151.8618 -23.73493 99.65358
16700000000 -4.6490707 142.31302 -49.701355 -153.03575 -51.79427 -164.68086 -23.268635 93.46608
16710000000 -4.5218906 141.15262 -49.820953 -174.73817 -51.796112 175.03313 -22.140015 89.598289
16720000000 -4.3549385 139.93311 -50.532318 164.09332 -51.905876 154.83141 -21.025839 87.282089
16730000000 -4.2256298 138.43892 -50.906956 142.29909 -52.808796 132.59213 -20.179823 86.322609
16740000000 -4.0741119 137.18089 -51.290863 124.42616 -54.250362 121.43466 -19.594629 86.609238
16750000000 -3.9273915 135.74402 -50.403038 104.72373 -52.302586 110.16872 -19.102236 87.918045
16760000000 -3.7675083 134.47232 -50.773663 82.133995 -51.964207 87.804008 -18.722889 88.616013
16770000000 -3.624563 133.18211 -49.675606 55.984806 -51.496445 61.181702 -18.627245 88.594406
16780000000 -3.4687941 131.90875 -50.801846 32.472187 -52.742794 40.549793 -18.856922 88.040253
16790000000 -3.3440595 130.63232 -51.268772 17.002087 -52.026695 25.574821 -19.28727 86.547523
16800000000 -3.2206407 129.36462 -50.073044 -2.001951 -50.963707 5.3657293 -19.813738 82.869057
16810000000 -3.1176362 128.06383 -50.04821 -24.88611 -50.510033 -18.075129 -20.244921 77.439484
16820000000 -2.9936233 126.73777 -49.383793 -48.248188 -50.254505 -42.139156 -20.383669 70.604294
16830000000 -2.8745594 125.23752 -50.293591 -70.78418 -50.544563 -68.049828 -20.176861 64.291962
16840000000 -2.7409854 123.75874 -50.204659 -88.415474 -50.741734 -88.706757 -19.759119 60.635353
16850000000 -2.5977626 122.0951 -49.423634 -111.56181 -50.153049 -112.24146 -19.270613 59.544777
16860000000 -2.4760358 120.43533 -49.935966 -139.78999 -50.587791 -134.974 -18.980577 60.465458
16870000000 -2.3568714 118.83772 -50.488724 -159.24289 -50.181473 -157.76727 -19.10696 62.753319
16880000000 -2.2488005 117.35392 -50.222229 177.76346 -50.578285 176.42496 -19.604893 65.904182
16890000000 -2.1505034 115.94275 -49.773304 156.36249 -50.697868 156.92535 -20.484253 68.358955
16900000000 -2.0638499 114.7206 -50.039707 129.05118 -50.908016 131.45198 -21.642336 69.176384
16910000000 -1.9625796 113.45372 -50.330875 106.51813 -51.330841 108.08701 -23.006422 68.400009
16920000000 -1.8732735 112.1702 -50.120678 87.586227 -51.290863 87.886894 -24.404266 66.599754
16930000000 -1.7647061 110.6703 -50.581905 62.64806 -51.785526 64.003944 -25.375189 63.694641
16940000000 -1.6794821 109.01267 -50.392864 41.002186 -52.090443 42.555046 -25.975149 60.872402
16950000000 -1.587558 107.27482 -50.699123 15.230784 -52.103115 22.818439 -26.401129 60.449799
16960000000 -1.513105 105.51289 -51.915554 -3.9240227 -52.464245 -1.0522116 -26.19488 64.99102
16970000000 -1.4332794 103.85934 -52.232376 -26.740547 -52.264572 -22.374334 -25.524004 72.308601
16980000000 -1.353021 102.2682 -52.575405 -48.149628 -52.510086 -45.441814 -24.662294 81.454262
16990000000 -1.2684941 100.74516 -52.97266 -75.298996 -52.21804 -70.0093 -23.720505 91.141563
17000000000 -1.1798974 99.328911 -54.068386 -100.90408 -53.045467 -94.475662 -22.972113 100.53712
