!Keysight Technologies,P9374A,MY57211807,A.19.30.04
!Date: Friday, May 08, 2026 15:46:26
!Correction: S11(C  2-Port  ) 
!S21(C  2-Port  ) 
!S12(C  2-Port  ) 
!S22(C  2-Port  ) 
!S2P File: Measurements: S11, S21, S12, S22:
# Hz S  dB   R 50
13000000000 -18.79236 60.215836 -43.681789 71.643288 -43.315681 52.974915 -9.5452547 22.640612
13010000000 -19.054806 58.776539 -43.047489 47.232243 -43.582161 29.256556 -9.5519123 18.247995
13020000000 -19.211153 59.955948 -43.082016 22.76549 -43.601631 8.6498785 -9.5829773 14.06398
13030000000 -19.648138 59.595558 -42.975643 -0.84957945 -43.67234 -14.147504 -9.6426439 9.6695261
13040000000 -20.043274 64.057281 -42.814644 -19.422764 -43.411098 -33.077942 -9.7900152 5.4885664
13050000000 -19.865395 65.941124 -42.080597 -42.799221 -42.942513 -57.280884 -10.049376 1.5595182
13060000000 -19.470493 66.475693 -41.546669 -66.082497 -42.948437 -81.379028 -10.402833 -2.4264112
13070000000 -19.225677 62.657532 -40.987335 -93.714981 -42.864773 -105.23 -10.832504 -6.5118361
13080000000 -19.348408 59.045441 -41.235184 -119.89063 -43.274357 -130.31819 -11.298351 -11.158404
13090000000 -19.831617 56.157162 -41.467239 -142.80377 -43.505093 -148.33372 -11.719309 -15.888811
13100000000 -20.3605 57.789951 -41.875427 -161.67943 -43.56744 -168.56046 -12.136837 -20.214447
13110000000 -20.656565 61.557457 -40.890961 177.86391 -43.220543 171.96608 -12.628272 -23.985147
13120000000 -20.068361 67.05172 -40.124718 150.60716 -42.771484 146.20514 -13.241498 -27.355505
13130000000 -19.275555 67.593102 -40.284828 122.10043 -43.019165 121.78143 -14.000951 -30.689714
13140000000 -18.601583 64.892593 -40.693375 96.811775 -43.16433 98.861115 -14.813942 -34.309402
13150000000 -18.645718 59.228786 -41.166943 73.127419 -43.494652 78.364044 -15.62666 -37.88562
13160000000 -19.173885 56.687065 -41.429035 53.227837 -43.735317 57.905327 -16.450243 -41.083248
13170000000 -19.822529 56.047852 -40.896389 30.405977 -43.29253 38.390488 -17.462759 -43.871616
13180000000 -20.283993 58.22847 -40.876823 4.9032688 -43.101654 14.725442 -18.865669 -45.718937
13190000000 -20.118353 60.861446 -41.140232 -22.133602 -43.179234 -6.2016296 -20.637856 -47.803478
13200000000 -19.658604 60.893314 -41.504509 -46.229492 -42.958115 -28.290476 -22.737186 -51.613083
13210000000 -19.189667 59.620689 -42.197701 -70.342377 -42.834557 -52.492447 -24.996628 -57.210609
13220000000 -18.923195 55.49585 -42.281868 -89.954071 -42.95409 -75.739792 -27.256821 -62.571228
13230000000 -19.08839 53.122471 -42.587612 -116.44209 -43.259731 -96.992256 -30.344776 -63.709766
13240000000 -19.163332 52.279793 -43.173019 -139.88718 -43.211521 -117.66631 -36.099094 -47.487164
13250000000 -19.426907 50.953541 -43.812637 -161.6747 -42.82901 -138.04836 -39.802013 42.540157
13260000000 -19.361425 52.640041 -44.863834 176.53894 -42.717152 -164.52196 -31.554327 86.499596
13270000000 -19.291159 50.434437 -44.933743 159.5336 -42.888496 173.28403 -26.788715 96.177979
13280000000 -19.53821 49.136948 -45.294411 138.1062 -43.108917 153.07176 -24.216372 98.376343
13290000000 -19.72904 47.962578 -45.768063 118.26897 -42.765079 128.31476 -22.676661 98.207764
13300000000 -19.785988 47.019737 -45.796917 100.38233 -42.934315 107.18313 -21.314011 95.542938
13310000000 -19.908909 45.600739 -45.462364 79.798286 -42.465294 81.920601 -19.931269 91.362221
13320000000 -19.713987 44.436661 -45.417534 53.304096 -42.705112 53.370308 -18.640453 88.093445
13330000000 -19.752966 42.323112 -46.5882 32.314392 -43.763557 31.843172 -17.550608 85.626869
13340000000 -19.609575 40.511345 -47.307102 15.548102 -43.931675 10.135632 -16.818731 84.063004
13350000000 -19.873804 37.769901 -47.056458 0.42997 -44.248688 -13.782996 -16.271269 82.221321
13360000000 -19.981373 37.069805 -45.978764 -17.2908 -44.445099 -32.088417 -15.757637 78.779106
13370000000 -20.348877 36.18121 -45.600456 -44.223003 -44.388115 -54.421898 -15.217381 73.602608
13380000000 -20.413166 37.196098 -46.362186 -68.643044 -44.463684 -80.811813 -14.568983 68.791153
13390000000 -20.429062 35.120949 -46.429821 -87.565292 -45.327492 -105.98617 -13.83543 65.259262
13400000000 -20.567919 32.976109 -46.368755 -109.10056 -46.298046 -126.24197 -13.162781 62.919903
13410000000 -21.135931 29.486111 -47.062237 -133.41537 -46.966343 -145.97263 -12.663207 61.165684
13420000000 -21.54237 29.939175 -47.411945 -158.13171 -47.216274 -165.83115 -12.419925 59.033421
13430000000 -21.638931 29.179771 -48.211002 -171.573 -47.354378 176.41731 -12.302537 56.285824
13440000000 -21.599443 29.727013 -47.878551 168.74304 -47.856834 152.23969 -12.237575 52.802906
13450000000 -21.370899 27.167555 -47.18428 148.32788 -48.183796 133.73 -12.089879 48.754318
13460000000 -21.339817 24.744139 -47.930897 120.15186 -49.117054 113.37719 -11.886221 44.871632
13470000000 -21.420607 19.655016 -49.247429 103.49708 -49.556068 96.258698 -11.729951 41.755161
13480000000 -22.39629 16.420141 -49.063446 89.307625 -49.320316 80.310913 -11.665207 39.443985
13490000000 -23.277309 16.325369 -48.714512 66.224373 -49.739979 58.91021 -11.616413 37.272575
13500000000 -24.206842 23.252813 -49.608303 48.647442 -50.494255 35.888988 -11.703892 34.90979
13510000000 -23.746897 27.374521 -48.665791 35.763142 -50.342449 36.017433 -11.839226 32.83963
13520000000 -23.143412 26.900665 -48.671745 9.0417099 -49.665218 9.3244648 -11.942691 31.027418
13530000000 -22.687557 20.585506 -48.551792 -7.763525 -48.713654 -10.264213 -12.107265 29.630003
13540000000 -22.871016 13.006441 -48.271458 -27.770067 -48.545738 -33.033829 -12.301273 28.642958
13550000000 -23.772676 5.7530441 -47.726971 -49.04586 -49.177391 -54.46154 -12.516824 27.982519
13560000000 -25.286272 4.1969819 -48.290501 -70.469002 -49.21463 -73.388031 -12.792233 27.40711
13570000000 -26.546385 11.387453 -47.548576 -90.588295 -48.324959 -94.028923 -12.971752 27.031656
13580000000 -26.601061 21.054237 -47.389889 -112.37749 -48.783031 -115.13731 -13.040494 26.500616
13590000000 -25.569733 28.195469 -47.824024 -135.51857 -48.715183 -133.5087 -13.052481 26.176229
13600000000 -24.450378 25.460629 -47.721535 -153.05522 -47.735138 -156.25699 -12.979064 26.179996
13610000000 -24.215269 18.171936 -47.07674 -175.5701 -48.206997 -178.11105 -12.90044 26.687244
13620000000 -24.871107 10.515752 -46.626038 161.14584 -47.591721 162.79015 -12.827241 27.63051
13630000000 -26.548973 6.3978252 -46.996422 136.12662 -47.987724 135.59976 -12.70375 28.314484
13640000000 -27.96583 7.4442344 -46.790668 110.61505 -47.968742 116.43226 -12.635932 28.526564
13650000000 -29.529537 15.885761 -47.738903 85.300919 -48.665924 90.195236 -12.526192 28.377203
13660000000 -28.588552 25.350069 -48.89381 67.360153 -49.105648 74.61776 -12.354019 27.314714
13670000000 -27.594021 26.94644 -48.744175 49.917946 -48.767426 53.557537 -12.194723 26.200228
13680000000 -26.49522 26.449968 -48.979145 33.95422 -49.433239 36.924751 -11.982716 24.963974
13690000000 -25.719536 21.673565 -48.5154 7.1309719 -49.252991 15.432262 -11.777051 23.761654
13700000000 -25.832262 14.450452 -49.680576 -12.761315 -49.111397 -6.3527617 -11.585593 22.62985
13710000000 -26.544857 11.746902 -49.795712 -30.232193 -49.110767 -25.42621 -11.449675 21.120636
13720000000 -27.459906 10.524528 -50.089104 -50.696808 -48.902565 -49.455921 -11.365386 19.028669
13730000000 -28.979307 13.364088 -50.68401 -72.569801 -50.386337 -70.938042 -11.309787 16.870201
13740000000 -29.344555 25.151918 -51.364807 -81.50956 -50.741444 -81.054802 -11.260941 14.719687
13750000000 -28.970297 32.742348 -50.657181 -99.108994 -49.411087 -95.006752 -11.205426 12.890813
13760000000 -27.402279 31.499319 -50.257401 -106.87301 -48.880974 -118.98115 -11.222342 11.468038
13770000000 -26.62273 24.770287 -48.822197 -130.72466 -48.228806 -138.21205 -11.342183 9.8862257
13780000000 -25.893988 15.773342 -47.759136 -152.19321 -48.73904 -163.86214 -11.596789 7.8694315
13790000000 -26.226227 3.6118908 -47.814468 -175.97668 -48.547272 -173.97829 -11.908669 5.8371501
13800000000 -27.348888 -3.0785458 -47.167294 167.27153 -47.636074 161.44276 -12.122368 3.6805162
13810000000 -28.686485 -2.1974866 -46.511337 142.25439 -47.217453 143.17282 -12.223843 1.4277365
13820000000 -29.030449 3.866086 -46.34264 123.44844 -47.104137 119.45616 -12.367308 0.030615782
13830000000 -29.205917 13.220369 -45.445969 99.792412 -46.638832 102.67046 -12.548856 -0.51071995
13840000000 -27.305429 16.718046 -45.327049 74.853111 -45.837551 77.684898 -12.813281 -0.4728367
13850000000 -26.251396 11.963634 -44.734116 54.300438 -45.949371 55.738262 -13.091584 -0.29109302
13860000000 -25.776297 -0.4810102 -44.473389 29.049345 -44.929672 36.273006 -13.364318 -0.6604265
13870000000 -26.353838 -9.0321283 -43.542 4.5180364 -44.183517 10.385658 -13.591397 -1.0009716
13880000000 -27.370428 -19.532625 -43.90572 -23.055756 -43.976318 -15.271263 -13.801558 -0.69202465
13890000000 -29.100126 -18.520714 -43.896709 -48.117214 -44.112354 -42.270626 -13.923052 0.41294152
13900000000 -29.21487 -16.119267 -44.695618 -72.735756 -44.652515 -61.612663 -14.029865 1.235747
13910000000 -28.989523 -10.420462 -44.443295 -89.179359 -44.077267 -81.494057 -14.251545 1.6695787
13920000000 -27.510271 -13.935449 -43.84771 -114.40248 -43.133316 -104.41183 -14.472631 1.8670493
13930000000 -27.300404 -21.719601 -43.925911 -138.02594 -43.051601 -130.75479 -14.537416 1.8805957
13940000000 -27.395113 -32.361649 -43.426403 -163.53142 -42.74295 -157.26204 -14.456999 1.8921396
13950000000 -28.602793 -40.756683 -44.047634 170.67653 -42.88203 178.45549 -14.291379 2.1144142
13960000000 -30.217028 -45.437897 -44.386635 146.70573 -43.01231 154.09013 -14.115396 2.6760097
13970000000 -30.883934 -40.360886 -44.866562 123.66505 -43.125233 132.19534 -14.021201 3.5271332
13980000000 -30.069061 -41.874466 -44.768276 103.52731 -42.53162 106.03017 -13.999142 4.3499074
13990000000 -28.700933 -44.105125 -44.601048 75.570374 -42.968231 79.111832 -14.04343 4.517312
14000000000 -26.991644 -57.794075 -45.53194 50.547535 -43.258133 55.384529 -14.215106 4.6023684
14010000000 -26.872671 -71.075996 -46.082432 26.302408 -43.268505 29.721163 -14.287077 4.597867
14020000000 -27.132717 -82.604538 -47.249397 2.9621921 -43.829712 2.9430559 -14.314508 3.5028996
14030000000 -28.685673 -89.588844 -47.877956 -12.491382 -44.271103 -20.665125 -14.412333 2.2883227
14040000000 -30.810654 -88.515007 -47.085461 -24.895397 -44.331268 -38.990337 -14.515383 1.1581916
14050000000 -31.471239 -72.573318 -46.396648 -57.767014 -43.754627 -65.971466 -14.631676 0.55792713
14060000000 -30.096449 -65.113762 -47.399933 -83.079613 -44.461899 -96.261856 -14.697474 -0.016457092
14070000000 -28.310722 -70.561562 -48.612686 -112.06432 -45.036087 -123.64256 -14.758026 -0.86226296
14080000000 -27.17284 -85.028915 -50.251884 -120.52338 -46.494785 -147.86188 -14.836858 -1.8264955
14090000000 -26.936142 -102.13003 -49.40131 -136.76613 -47.413616 -163.57359 -14.881195 -2.3592963
14100000000 -26.977749 -120.34936 -48.90741 -160.0201 -46.692253 170.61633 -14.865639 -2.522336
14110000000 -28.22327 -135.84798 -49.13958 176.99864 -47.318954 143.0329 -14.843745 -2.4278989
14120000000 -29.873419 -140.27809 -49.038868 151.5748 -48.435238 112.62975 -14.927733 -2.3667104
14130000000 -31.247837 -133.18777 -50.063957 131.48598 -49.814075 96.002419 -15.120977 -2.1000204
14140000000 -30.159435 -121.90918 -50.066051 107.57754 -49.358883 69.30201 -15.346264 -2.4162836
14150000000 -29.07943 -118.80734 -49.764008 91.520081 -50.138821 41.280941 -15.584175 -3.8280141
14160000000 -27.086901 -121.31121 -49.763771 61.126915 -51.784889 6.4468703 -15.741321 -5.568841
14170000000 -26.444859 -133.54109 -49.806152 34.372597 -53.649136 -11.559878 -15.797078 -7.1164522
14180000000 -26.472775 -143.15376 -50.529499 9.8477268 -54.985607 -24.909014 -15.889566 -7.4897637
14190000000 -26.641386 -153.72774 -51.298927 -14.345922 -53.210743 -54.341793 -15.99393 -7.1232457
14200000000 -27.513235 -161.8604 -51.718586 -44.668568 -54.265808 -100.33878 -16.250978 -7.070837
14210000000 -28.200106 -165.74883 -52.803505 -68.806274 -57.416401 -129.62674 -16.773245 -7.1970978
14220000000 -28.732569 -163.3558 -52.573715 -90.952003 -59.396713 -169.3374 -17.368214 -6.9813628
14230000000 -28.475523 -161.50975 -54.201698 -125.84099 -60.88118 173.76344 -17.821753 -6.7922173
14240000000 -27.854977 -156.25043 -55.152149 -142.16791 -59.86499 128.73755 -18.249086 -6.4238539
14250000000 -26.841675 -158.56184 -54.098648 -179.35027 -58.763699 86.964935 -18.711592 -5.2216992
14260000000 -26.170845 -160.81758 -55.861393 138.08112 -56.866974 48.397861 -19.28466 -3.1070249
14270000000 -25.576097 -168.51288 -57.238503 111.66947 -57.367924 -1.9625964 -19.89324 -0.74120837
14280000000 -26.249043 -177.05783 -57.16473 77.506279 -57.629074 -23.504725 -20.51438 1.4728969
14290000000 -26.687368 178.87642 -55.418835 37.798279 -56.798332 -46.562576 -20.977995 3.9329584
14300000000 -28.048306 172.57797 -56.17654 -2.6774273 -57.825268 -73.217194 -21.08939 7.1501637
14310000000 -29.021782 178.34911 -55.351719 -37.243423 -54.920895 -84.878349 -20.890291 11.510545
14320000000 -28.678654 -177.16322 -55.347588 -61.190811 -52.815117 -111.60036 -20.486362 16.983236
14330000000 -27.565981 -171.76277 -52.54998 -86.400925 -50.991127 -141.59706 -20.055542 22.977911
14340000000 -26.384724 -176.77625 -50.90538 -126.16704 -50.871346 -176.53998 -19.733892 29.003033
14350000000 -25.646873 177.41652 -50.915169 -157.99551 -51.097958 159.11118 -19.460529 34.816467
14360000000 -26.070578 168.78419 -50.206997 178.00375 -51.094242 142.02513 -19.242548 39.440372
14370000000 -26.809355 165.58537 -49.331882 154.40933 -50.839146 121.37103 -18.936493 42.442749
14380000000 -28.634827 162.86482 -47.767548 128.80562 -49.001717 104.48934 -18.535645 43.420723
14390000000 -29.098574 175.88548 -47.166473 101.96712 -48.52478 80.476318 -18.082148 43.058235
14400000000 -28.7707 179.16299 -45.998249 76.3283 -47.670761 52.820755 -17.510424 42.258575
14410000000 -27.374916 -176.79041 -45.154598 49.548008 -47.082302 33.181332 -16.919296 41.567837
14420000000 -26.343262 173.51407 -44.979843 23.094269 -46.741116 8.0840826 -16.332415 41.555271
14430000000 -26.445509 166.2666 -44.578514 0.85799021 -46.037872 -12.183453 -15.811021 41.639843
14440000000 -27.299362 161.99944 -43.358063 -22.901323 -44.954533 -35.021778 -15.352371 41.125935
14450000000 -27.721712 163.72112 -42.686386 -52.57896 -44.259903 -63.954327 -14.994288 40.157928
14460000000 -28.828445 170.49661 -42.271988 -76.940651 -44.150734 -85.275948 -14.694421 38.933525
14470000000 -27.423853 179.54601 -42.209827 -103.20624 -43.533569 -107.98657 -14.434847 38.091633
14480000000 -26.623547 -179.25359 -41.692654 -127.26705 -42.731716 -133.57967 -14.25672 37.600586
14490000000 -25.543137 176.63425 -41.267754 -152.07326 -42.351437 -158.81075 -14.190402 37.107464
14500000000 -25.921007 169.37865 -40.694469 -177.84445 -42.114441 174.2451 -14.238599 36.193844
14510000000 -26.870663 168.17108 -40.516998 155.37027 -42.106522 150.41696 -14.33117 34.329357
14520000000 -27.616701 172.4821 -40.393379 131.20734 -41.851944 128.4249 -14.350812 32.029552
14530000000 -27.754944 178.94427 -40.122402 104.64011 -41.669628 103.74083 -14.215257 30.104452
14540000000 -26.353155 -174.57986 -40.293667 80.527367 -41.358727 82.187988 -13.970193 29.084007
14550000000 -24.89576 179.34892 -39.927429 57.504238 -40.790997 56.756897 -13.729841 28.972532
14560000000 -24.349674 174.72247 -39.892757 31.85084 -40.806568 30.154613 -13.65589 29.45804
14570000000 -24.082062 167.50027 -39.830116 6.0072751 -41.068588 4.5648293 -13.690475 30.279865
14580000000 -25.12199 164.26192 -40.220482 -20.059099 -41.465549 -18.294649 -13.738967 30.514858
14590000000 -25.638626 170.13455 -40.526669 -41.437202 -41.505386 -37.612694 -13.78836 30.300564
14600000000 -25.556612 177.48215 -40.510399 -63.065392 -40.935741 -58.345116 -13.749966 30.023039
14610000000 -24.379425 -177.4287 -40.307835 -84.743416 -40.598396 -83.787308 -13.677723 29.872639
14620000000 -22.970011 -179.1021 -39.823772 -110.26498 -40.348507 -108.43234 -13.646877 29.93383
14630000000 -22.170597 173.55161 -40.030575 -135.32195 -40.585667 -133.34338 -13.606271 29.845615
14640000000 -22.316761 165.85403 -40.269844 -159.05379 -40.606384 -155.28966 -13.574152 28.881523
14650000000 -22.64855 161.13086 -40.40033 179.55223 -40.323204 -176.47322 -13.488632 27.8235
14660000000 -23.590742 160.0248 -40.221031 157.79408 -40.08242 158.06496 -13.266084 26.682606
14670000000 -23.800182 165.5087 -39.978245 133.56906 -40.096706 133.39963 -12.989953 26.107903
14680000000 -23.28076 170.88608 -40.154373 108.02972 -40.103024 109.34566 -12.69794 25.982086
14690000000 -21.880997 172.45412 -40.449753 83.867912 -40.626099 85.902489 -12.509739 25.956001
14700000000 -21.041271 167.30797 -40.809277 64.157829 -40.473358 66.334396 -12.453973 25.84079
14710000000 -20.620872 162.46184 -40.5411 40.40918 -39.987862 40.94846 -12.468844 25.416592
14720000000 -20.675396 155.94215 -40.624546 16.648735 -40.12669 16.397425 -12.537961 24.336241
14730000000 -21.303253 151.81239 -40.54311 -7.4618125 -40.014416 -11.186604 -12.625819 22.965416
14740000000 -21.995756 151.3011 -40.840862 -32.693054 -40.821716 -36.057083 -12.674834 21.363258
14750000000 -22.072556 154.09657 -41.424374 -54.179977 -41.37011 -57.266891 -12.698746 19.349169
14760000000 -21.786758 156.29918 -41.475597 -74.692856 -41.362179 -76.806618 -12.678357 17.356064
14770000000 -20.913357 154.93216 -41.41291 -98.476463 -41.147373 -100.80592 -12.636595 15.49484
14780000000 -20.454836 151.79063 -41.489029 -119.59196 -41.225998 -125.02723 -12.62289 14.361142
14790000000 -20.038218 147.73219 -41.562447 -144.74629 -41.819397 -152.15912 -12.671131 13.862738
14800000000 -19.926186 144.73582 -42.075943 -168.46825 -42.60725 -173.4313 -12.776917 13.920607
14810000000 -20.032265 141.07797 -42.115089 169.83342 -42.693897 165.83148 -12.90865 13.676221
14820000000 -20.3477 139.14679 -43.157925 150.12524 -43.506786 143.73637 -13.07696 13.088453
14830000000 -20.842083 139.09642 -42.626888 132.00772 -43.425529 124.34355 -13.266002 12.183668
14840000000 -20.835728 140.03046 -42.47945 104.86012 -43.689175 99.410599 -13.484632 11.726924
14850000000 -20.89406 139.34258 -42.565437 82.909019 -44.060593 79.674858 -13.688001 11.735614
14860000000 -20.862844 138.53679 -43.101616 59.112221 -44.7034 55.197071 -13.909018 11.579925
14870000000 -20.520832 136.27757 -43.566353 36.998924 -45.432552 37.360512 -14.191623 10.926585
14880000000 -20.466288 132.77718 -43.604115 19.550753 -45.275658 21.026375 -14.405816 9.517889
14890000000 -20.172197 128.67596 -43.503269 -4.8906012 -45.705837 -0.38762328 -14.496123 8.1722364
14900000000 -20.404839 123.06596 -43.468029 -27.511963 -45.576263 -18.282625 -14.444738 7.5250998
14910000000 -20.862333 121.26919 -43.791386 -53.090832 -45.693787 -41.676193 -14.355875 8.616888
14920000000 -21.096088 121.17979 -44.871742 -72.862862 -45.787125 -57.854843 -14.318266 10.714213
14930000000 -21.436375 122.81665 -44.846741 -92.749374 -46.012821 -78.113678 -14.464207 12.506297
14940000000 -21.337934 125.11389 -44.842861 -113.58057 -45.543064 -96.851768 -14.859621 13.707057
14950000000 -21.024498 125.16551 -45.425346 -136.08994 -45.407169 -118.18704 -15.300557 14.215583
14960000000 -20.983463 122.73629 -45.139843 -159.76074 -45.621529 -139.21269 -15.622719 14.14972
14970000000 -20.978586 119.84146 -45.999092 177.86557 -45.263741 -156.4856 -15.808459 14.246057
14980000000 -21.555326 113.78593 -46.198372 156.62448 -44.378098 -179.94179 -15.905186 15.242784
14990000000 -22.453485 112.5899 -46.346966 137.99838 -44.511131 154.45389 -16.02417 16.266823
15000000000 -23.165319 112.77345 -47.242722 112.33305 -44.607643 132.36896 -16.221956 17.217194
15010000000 -23.416708 116.15136 -47.253567 95.696838 -44.488338 110.69602 -16.413347 17.338062
15020000000 -23.100121 117.11702 -48.046322 69.591286 -45.146984 88.635887 -16.406538 17.597826
15030000000 -22.794479 115.6186 -49.228668 53.053219 -44.984257 67.109108 -16.095238 18.548944
15040000000 -22.704069 113.36757 -49.856918 42.097343 -44.729744 49.365833 -15.66591 20.35364
15050000000 -23.096758 110.26704 -49.223389 27.194092 -44.645836 24.689194 -15.396897 23.448166
15060000000 -23.698946 111.67196 -48.839149 6.5607777 -44.549484 2.6491084 -15.368343 26.991482
15070000000 -24.184687 113.92832 -49.033901 -12.802586 -44.202377 -19.635309 -15.490255 29.813393
15080000000 -24.571156 118.5397 -49.134384 -33.936996 -44.532799 -45.129868 -15.672572 31.050531
15090000000 -24.152454 121.14276 -49.782158 -48.818657 -45.010895 -66.692818 -15.789446 30.534494
15100000000 -24.035114 119.47953 -49.380028 -67.052345 -45.290485 -87.701805 -15.763952 29.475046
15110000000 -24.429949 116.3131 -48.831718 -80.494186 -45.389111 -108.3576 -15.546052 28.764874
15120000000 -25.022497 116.40826 -48.287888 -98.058334 -45.231773 -130.12035 -15.327606 28.40765
15130000000 -25.74667 118.24523 -47.244373 -118.03167 -45.39518 -154.03844 -15.17517 28.253361
15140000000 -25.618696 125.24279 -46.997047 -140.32361 -45.989094 -174.23659 -15.004956 28.201733
15150000000 -24.721272 128.77246 -46.286453 -160.57375 -45.907028 163.42278 -14.722704 27.958338
15160000000 -23.828005 127.02415 -45.575512 178.14499 -46.016766 145.87779 -14.438965 27.705719
15170000000 -23.285414 123.65765 -45.106636 152.99341 -45.940613 119.46244 -14.226773 27.92864
15180000000 -23.340429 118.02818 -44.821354 132.4856 -46.922184 101.54163 -14.162079 28.699629
15190000000 -24.262564 117.67071 -44.679523 108.48137 -46.852421 78.995636 -14.235714 29.340704
15200000000 -25.080835 120.98257 -44.2831 90.028259 -47.60965 62.930603 -14.421345 29.227873
15210000000 -25.310484 131.03807 -43.466953 65.592911 -47.147812 45.088928 -14.679432 28.291573
15220000000 -24.074884 136.42648 -43.505409 42.727272 -47.046356 26.21661 -14.881158 27.119593
15230000000 -22.848507 133.98476 -42.651478 17.700497 -46.203442 5.3347325 -14.919616 25.647816
15240000000 -22.34613 127.12956 -42.577785 -7.1014814 -46.846577 -17.287186 -14.956604 24.09874
15250000000 -22.236805 120.76608 -42.356544 -31.255049 -46.224827 -38.497662 -14.921718 23.175364
15260000000 -23.030365 113.89644 -42.722015 -56.020355 -46.49905 -57.011589 -14.863806 22.546835
15270000000 -23.776852 114.53814 -42.505413 -76.856613 -46.177406 -75.748985 -14.747131 22.647205
15280000000 -24.459984 115.98026 -42.266338 -100.23668 -45.69717 -96.870766 -14.688622 23.742615
15290000000 -24.023579 125.27775 -41.93874 -123.16634 -45.374931 -117.23782 -14.693526 25.66577
15300000000 -22.983562 124.23399 -41.908211 -150.95866 -44.523365 -138.96928 -14.814207 27.721331
15310000000 -22.311995 122.08764 -42.263397 -174.19989 -44.578785 -165.78261 -15.028464 29.275984
15320000000 -21.937176 116.29953 -42.231331 162.87326 -44.769558 172.91013 -15.333919 30.003576
15330000000 -22.25293 110.84725 -42.363682 140.78859 -44.366764 152.35414 -15.542006 30.234673
15340000000 -22.949795 107.85616 -42.145828 116.7249 -44.157997 127.06281 -15.664178 29.771654
15350000000 -23.591604 108.14537 -42.143143 91.721443 -43.805164 107.14102 -15.695955 29.555681
15360000000 -23.852468 108.2495 -42.27948 67.422539 -43.731201 81.303108 -15.729092 29.661259
15370000000 -23.955378 109.96828 -42.580372 44.768394 -43.729946 59.7747 -15.682174 29.802937
15380000000 -23.671947 106.95686 -42.43243 21.491333 -43.130871 38.226871 -15.552721 29.469698
15390000000 -23.758142 105.23949 -43.061523 -1.9977732 -43.044724 11.932159 -15.289479 29.150616
15400000000 -23.800367 101.07861 -42.895523 -23.690029 -43.253651 -12.481001 -14.995634 29.557224
15410000000 -24.398924 98.868118 -43.063915 -45.160427 -43.328976 -33.620594 -14.724792 31.445406
15420000000 -24.484175 98.001816 -42.649036 -66.905067 -43.088917 -56.234108 -14.556159 33.822048
15430000000 -24.92174 98.02581 -42.617241 -92.931351 -42.711212 -80.155418 -14.597303 35.711441
15440000000 -24.650934 95.305664 -42.642635 -119.66221 -42.669456 -106.67509 -14.887253 36.437439
15450000000 -25.296253 90.983658 -43.377762 -141.18213 -42.920597 -131.30492 -15.231318 35.901455
15460000000 -25.870184 87.612762 -43.198986 -167.11868 -43.211155 -154.98528 -15.445988 34.208515
15470000000 -27.118107 86.055695 -43.672001 172.74113 -43.228821 -175.87448 -15.475389 31.818077
15480000000 -27.927622 86.652351 -43.253281 149.66328 -42.766373 158.50156 -15.385613 30.695093
15490000000 -28.755568 90.082329 -43.144501 124.22945 -42.677872 134.84181 -15.211654 30.572958
15500000000 -28.50317 90.716728 -43.256901 98.654655 -42.952198 106.46095 -15.057621 31.046331
15510000000 -28.60059 89.357971 -43.604122 74.680107 -43.721706 84.444878 -14.95117 31.681713
15520000000 -28.546509 82.173027 -44.141251 47.291512 -43.516441 62.974358 -14.886659 32.543633
15530000000 -29.523996 74.496277 -44.45956 27.295761 -43.475307 37.884808 -14.843156 33.985115
15540000000 -31.564449 65.952995 -44.286655 1.002261 -43.344261 12.905469 -14.822109 36.180672
15550000000 -34.162827 67.477882 -44.985683 -23.576456 -43.95504 -13.881065 -14.850365 38.129139
15560000000 -37.534523 72.310814 -44.827034 -47.663307 -44.272614 -36.197277 -14.996912 39.534138
15570000000 -38.674747 94.711899 -46.010986 -75.189507 -44.703133 -60.674988 -15.259438 40.627834
15580000000 -39.614758 99.569397 -46.357601 -92.613907 -45.091934 -81.999306 -15.499192 40.83149
15590000000 -40.11462 105.72409 -46.286945 -117.35362 -44.748665 -104.19199 -15.651455 40.338379
15600000000 -43.838497 100.34503 -46.174217 -140.12698 -44.6073 -131.56731 -15.606342 39.33218
15610000000 -50.667953 119.48565 -46.107475 -172.04733 -44.966232 -157.13902 -15.409025 37.925201
15620000000 -50.325684 -138.69594 -48.082027 159.61559 -45.414711 176.6792 -15.119971 37.18396
15630000000 -42.487499 -127.35416 -49.203224 142.07768 -46.481762 154.31671 -14.778718 37.347958
15640000000 -38.804649 -135.07405 -49.337757 125.93174 -46.084461 134.69792 -14.487257 38.737064
15650000000 -37.236118 -129.58533 -48.992126 102.56335 -46.646816 111.20918 -14.299292 40.708961
15660000000 -34.40451 -132.74695 -49.610497 75.86602 -46.319649 87.10598 -14.220932 42.808743
15670000000 -32.498055 -135.44086 -49.505669 51.53796 -46.858887 61.29871 -14.343867 43.907173
15680000000 -30.959091 -140.46098 -50.561699 24.558392 -47.278801 38.338692 -14.586673 44.319107
15690000000 -29.858871 -144.66827 -51.621769 5.741189 -47.089302 15.797425 -14.796294 44.128601
15700000000 -29.536585 -148.34143 -51.75243 -14.803496 -46.875267 -10.131559 -14.905962 43.717472
15710000000 -29.520344 -146.65175 -51.693874 -36.786972 -47.213078 -34.450375 -14.880827 43.486134
15720000000 -28.822351 -141.90561 -52.254997 -68.537224 -47.445351 -57.593452 -14.834713 43.326923
15730000000 -27.733122 -139.89362 -53.994301 -83.992348 -47.457439 -86.022491 -14.781097 43.024696
15740000000 -26.716864 -139.55119 -52.867496 -105.24081 -47.916618 -110.42998 -14.745927 42.760975
15750000000 -25.634439 -141.22021 -54.025398 -131.53735 -47.913528 -130.76115 -14.505362 42.900444
15760000000 -24.990677 -147.93939 -54.445747 -144.40691 -47.703781 -156.09456 -14.150498 43.615021
15770000000 -25.013929 -151.0002 -53.889515 -164.71841 -47.655659 178.09857 -13.683235 45.681618
15780000000 -24.949228 -153.18674 -54.25325 174.57396 -47.631039 151.20409 -13.347291 47.899746
15790000000 -24.962912 -152.14281 -53.270313 145.34503 -48.189133 124.75231 -13.252527 50.447235
15800000000 -24.381926 -150.4491 -55.726379 121.41716 -48.580765 100.28813 -13.314863 52.393867
15810000000 -23.756479 -149.61722 -54.39888 112.28031 -47.795387 77.781776 -13.448027 52.720619
15820000000 -22.962139 -151.54764 -53.490555 82.598694 -47.750957 47.40416 -13.55285 51.506355
15830000000 -22.584747 -153.74564 -53.930595 62.789349 -48.036255 21.855839 -13.470667 49.616081
15840000000 -22.565845 -155.8064 -52.459797 38.547356 -48.469395 -3.0624728 -13.19592 47.709595
15850000000 -22.646996 -154.66475 -51.603168 9.3387346 -47.77272 -28.700714 -12.849769 46.080864
15860000000 -22.487181 -153.57014 -52.831879 -14.454346 -48.531067 -57.580437 -12.476326 44.871441
15870000000 -22.150576 -152.31134 -51.210865 -32.877335 -48.351315 -78.932434 -12.165657 44.033882
15880000000 -21.674604 -152.64993 -51.355495 -65.194618 -48.157848 -106.84666 -11.86027 43.633358
15890000000 -21.287485 -155.34457 -51.07074 -87.812981 -48.118221 -136.03908 -11.571864 43.633781
15900000000 -21.135077 -158.24599 -50.375313 -112.02248 -48.327305 -162.19099 -11.344083 43.813927
15910000000 -21.320099 -159.9828 -50.502117 -137.35739 -49.073837 173.26414 -11.213698 43.829647
15920000000 -21.374599 -159.21123 -50.074104 -157.4453 -49.319168 148.75356 -11.185419 43.39735
15930000000 -21.182875 -155.28174 -48.859905 173.35959 -48.971027 127.07029 -11.266859 42.367119
15940000000 -20.427887 -154.1434 -48.118706 147.45284 -48.607861 99.309303 -11.348944 40.662975
15950000000 -19.711464 -154.05714 -47.746361 116.14875 -48.886879 69.289566 -11.419576 38.214165
15960000000 -19.231741 -156.89694 -48.291775 84.920319 -49.52132 45.556263 -11.434019 35.5896
15970000000 -19.232904 -158.70361 -48.48584 66.621727 -49.810349 27.259304 -11.348084 32.745102
15980000000 -19.370193 -159.6181 -47.735226 40.836544 -48.702614 -0.16319238 -11.17707 30.265211
15990000000 -19.641973 -157.99828 -47.106339 15.473635 -48.824478 -28.498924 -10.961456 28.460545
16000000000 -19.527248 -154.5453 -46.582119 -12.012736 -50.277077 -57.720749 -10.786867 27.657604
16010000000 -18.918665 -152.26584 -46.610783 -41.179672 -50.101376 -74.979126 -10.699849 27.533083
16020000000 -18.290901 -153.04762 -46.53677 -67.045364 -50.102062 -100.67314 -10.774587 27.506166
16030000000 -17.695992 -155.01642 -46.407169 -94.537086 -50.237446 -125.84005 -10.959792 26.749676
16040000000 -17.438963 -158.60799 -46.936684 -120.46915 -50.811558 -151.1862 -11.249514 24.910913
16050000000 -17.462593 -159.98869 -46.687878 -142.64743 -51.147255 -172.90665 -11.523103 22.458858
16060000000 -17.411581 -159.45857 -46.037693 -169.99194 -50.975376 166.35873 -11.7106 19.856825
16070000000 -17.225651 -157.65497 -46.256031 161.39684 -50.484676 141.74255 -11.816016 17.57316
16080000000 -16.726437 -156.27397 -46.474037 135.81717 -51.611843 117.17112 -11.948996 15.381113
16090000000 -16.288004 -156.1729 -46.848228 110.36379 -52.364113 94.207771 -12.114854 13.095435
16100000000 -15.828585 -156.81673 -46.818058 89.289787 -52.923214 78.700119 -12.254549 10.943923
16110000000 -15.565967 -158.22627 -46.453053 61.98502 -52.303482 59.149303 -12.313275 9.2724628
16120000000 -15.372708 -159.38368 -46.764111 33.761051 -51.779121 34.74715 -12.283085 8.7139988
16130000000 -15.197399 -159.99977 -47.231518 10.410706 -52.111889 9.0991459 -12.302064 9.4970207
16140000000 -14.959741 -160.155 -47.811913 -11.455073 -53.005341 -11.724354 -12.474152 11.040813
16150000000 -14.565985 -161.1033 -48.098713 -32.893261 -53.650677 -26.57925 -12.86857 12.219067
16160000000 -14.245115 -162.55214 -47.948357 -57.072536 -53.679695 -50.4557 -13.424931 11.967772
16170000000 -13.963525 -163.55649 -48.345081 -81.299377 -53.340935 -61.450359 -14.015711 10.002559
16180000000 -13.732862 -164.40773 -48.460243 -107.04438 -53.545166 -87.773788 -14.409562 6.973412
16190000000 -13.529035 -164.61168 -49.120663 -130.53851 -52.714996 -99.942223 -14.582084 4.3562989
16200000000 -13.237227 -164.40077 -49.710098 -144.52286 -51.379135 -117.96791 -14.602267 2.7913637
16210000000 -12.874643 -164.25838 -48.993927 -164.05415 -50.347218 -142.26509 -14.641763 1.8726703
16220000000 -12.507836 -165.4794 -48.88525 171.45674 -49.860111 -166.03905 -14.714119 1.0773301
16230000000 -12.202624 -167.28058 -48.362831 150.0527 -49.43124 168.87685 -14.791462 0.49970344
16240000000 -12.08049 -169.33391 -48.749184 122.33609 -49.39901 147.07327 -14.86023 0.68520218
16250000000 -12.001197 -171.07863 -48.823719 101.09176 -49.190155 121.57249 -14.866584 2.2704711
16260000000 -11.970288 -171.89679 -48.976696 81.398102 -48.917381 103.20053 -14.977388 4.413609
16270000000 -11.757965 -172.43912 -48.766747 57.192974 -47.914474 75.853798 -15.291383 6.4538898
16280000000 -11.484976 -172.6311 -48.65844 37.190723 -48.028599 52.47929 -15.838784 7.5874858
16290000000 -11.079545 -173.69394 -48.241039 14.010094 -48.036537 28.427832 -16.416916 6.2471218
16300000000 -10.737611 -174.91594 -48.274815 -12.094519 -47.5271 1.7983602 -16.952026 3.0597715
16310000000 -10.439631 -176.62025 -48.425858 -34.916916 -47.713318 -21.678564 -17.157423 -0.83555287
16320000000 -10.276172 -177.99249 -47.716255 -60.041031 -47.45491 -45.464191 -17.201643 -3.8504856
16330000000 -10.130642 -179.31642 -48.289509 -88.600868 -47.104912 -73.058884 -17.189131 -5.3778896
16340000000 -10.088631 179.78874 -48.591198 -111.69719 -47.437275 -98.227409 -17.140602 -6.750577
16350000000 -9.9666538 179.05727 -49.056255 -135.4758 -47.704834 -124.7046 -17.181555 -7.7878518
16360000000 -9.8552475 178.33412 -49.487827 -160.27298 -48.481884 -148.68187 -17.290438 -7.9477544
16370000000 -9.653264 177.29359 -50.574429 175.67555 -48.920116 -170.12573 -17.450882 -6.8650346
16380000000 -9.4799423 176.10051 -50.839722 158.43675 -48.72945 170.12958 -17.818682 -5.2209034
16390000000 -9.2627878 174.85027 -50.938461 129.75049 -48.875675 140.08647 -18.482349 -4.4217434
16400000000 -9.0004473 173.58488 -52.118164 107.12939 -50.100315 121.41562 -19.47718 -5.8985133
16410000000 -8.759696 171.85695 -53.055183 92.629044 -50.224884 101.52168 -20.605797 -9.9073076
16420000000 -8.5706596 170.34544 -53.06134 72.837975 -49.810658 79.524902 -21.512106 -14.890487
16430000000 -8.4587469 168.76706 -54.033943 43.495651 -51.102196 51.05386 -21.948053 -19.039585
16440000000 -8.4414511 168.02365 -55.90913 30.754173 -51.072975 34.449566 -22.208277 -22.825006
16450000000 -8.3594513 167.63223 -56.786697 15.00826 -52.256508 13.392686 -22.85186 -25.17017
16460000000 -8.2747889 167.70816 -56.764236 11.315584 -52.433968 -3.3294804 -23.66449 -25.916096
16470000000 -8.0356798 167.42209 -55.461174 -0.4451305 -52.542046 -18.491156 -24.227127 -25.325945
16480000000 -7.7843781 166.4166 -54.282639 -20.690693 -51.188957 -35.142735 -24.450413 -22.262123
16490000000 -7.5361576 164.48889 -52.822018 -36.468239 -50.680241 -58.321987 -24.942659 -14.686287
16500000000 -7.4029279 162.23065 -52.180584 -64.572411 -50.428741 -86.272095 -25.680023 -1.7824835
16510000000 -7.3658934 160.14857 -52.461716 -88.633705 -51.476654 -109.77985 -26.783112 14.680783
16520000000 -7.3838544 159.16212 -53.254761 -99.687622 -51.778389 -119.83951 -28.342806 31.222277
16530000000 -7.3262272 158.71968 -51.473469 -115.05436 -51.016479 -136.94545 -30.698814 44.784973
16540000000 -7.1865139 159.06604 -49.589954 -139.35213 -49.862373 -159.00558 -33.245571 53.110245
16550000000 -6.8670678 158.88556 -49.270515 -169.1346 -49.636009 174.3633 -34.610611 47.351032
16560000000 -6.5934148 157.91124 -48.401512 162.97511 -48.551842 146.33487 -33.810719 36.564022
16570000000 -6.3699856 156.328 -48.82127 136.47301 -49.586998 122.71954 -32.889336 31.030151
16580000000 -6.2759266 154.5379 -48.559692 116.92255 -49.124687 101.62184 -32.095074 38.878857
16590000000 -6.2645826 153.10507 -47.889393 91.731369 -48.703262 78.178139 -31.117958 45.62701
16600000000 -6.2678962 152.20908 -48.217606 64.193771 -49.002476 52.963856 -30.198685 48.140987
16610000000 -6.1735349 151.6852 -48.064259 42.565132 -48.81958 30.02821 -29.333321 51.342838
16620000000 -6.0038319 151.10208 -47.299419 17.795355 -48.717377 5.8618474 -28.047142 59.683636
16630000000 -5.7576089 150.06789 -47.386471 -8.8979635 -48.70969 -18.657034 -26.473583 71.55368
16640000000 -5.5372467 148.74544 -47.50985 -35.081238 -48.697357 -40.788353 -25.264866 82.636269
16650000000 -5.3268623 147.25439 -47.30677 -60.948257 -48.44696 -68.153038 -24.834999 92.799797
16660000000 -5.2134948 145.93123 -47.926502 -87.300491 -49.24136 -92.699219 -25.074879 104.04755
16670000000 -5.087173 145.13206 -47.599426 -110.23407 -48.670322 -116.90301 -25.445383 110.84812
16680000000 -4.9432998 144.22324 -47.693573 -140.24765 -49.535686 -146.45578 -25.977463 110.38512
16690000000 -4.8087482 143.46741 -48.573647 -168.62376 -50.00824 -171.39479 -26.242762 103.39233
16700000000 -4.6421051 142.42068 -49.059597 169.50664 -50.763229 165.87735 -25.672312 96.094475
16710000000 -4.4900446 141.15755 -49.259357 143.16252 -50.968121 144.03174 -24.187288 91.322243
16720000000 -4.360198 139.72455 -50.205189 120.52979 -51.642345 121.07639 -22.743069 89.132736
16730000000 -4.2409773 138.38982 -50.197502 94.813972 -51.029064 96.548355 -21.667048 88.481216
16740000000 -4.1058893 137.15698 -50.545143 68.117065 -51.828972 66.567513 -20.919004 89.29409
16750000000 -3.9348943 135.94173 -51.361176 42.534214 -53.071396 42.611248 -20.272539 91.239677
16760000000 -3.7617755 134.63283 -52.708958 17.650213 -53.928799 20.924444 -19.769608 92.48954
16770000000 -3.5941937 133.25577 -53.076134 -3.1760128 -54.801147 1.083259 -19.615755 93.080353
16780000000 -3.4498613 131.83762 -54.160297 -28.967482 -55.080395 -24.648195 -19.800724 93.136925
16790000000 -3.3387172 130.54338 -54.776192 -55.774788 -56.293228 -50.997883 -20.233643 92.253456
16800000000 -3.2335684 129.31599 -56.17934 -83.467804 -57.716331 -74.127396 -20.765184 89.333603
16810000000 -3.1230478 128.13113 -58.308907 -101.8048 -58.797173 -87.815765 -21.168941 84.055138
16820000000 -2.9961603 126.78704 -58.769814 -122.35622 -58.571259 -112.79189 -21.305466 76.599167
16830000000 -2.8593931 125.31694 -60.306496 -147.05852 -60.663685 -136.53964 -21.086958 69.543846
16840000000 -2.7250559 123.64319 -62.556957 -161.3597 -61.533756 -158.64275 -20.568232 65.708733
16850000000 -2.6007235 121.949 -61.768349 -179.54213 -62.272152 -172.13194 -19.955519 64.782661
16860000000 -2.4964316 120.32829 -65.425117 136.21609 -64.77317 152.22086 -19.529989 65.836098
16870000000 -2.3879509 118.85989 -73.122818 -167.94469 -66.36528 154.45166 -19.55241 68.368355
16880000000 -2.2733848 117.51186 -64.352814 176.01591 -65.520836 147.85176 -19.970488 72.161629
16890000000 -2.1500187 116.18594 -61.960945 135.32802 -64.007347 138.33063 -20.712997 75.491974
16900000000 -2.0435874 114.87216 -63.027809 94.16288 -64.069229 88.971107 -21.740932 77.630226
16910000000 -1.9321845 113.49541 -65.974342 73.147018 -67.384636 65.071815 -23.000103 77.547791
16920000000 -1.8522979 112.01868 -68.662628 76.905243 -73.757004 61.388382 -24.304237 76.756813
16930000000 -1.7664028 110.53704 -68.201355 83.023529 -72.24968 116.03622 -25.28838 74.764351
16940000000 -1.6881019 108.90891 -64.34034 56.168835 -64.329071 76.607368 -25.893955 72.68116
16950000000 -1.5990103 107.28055 -62.736855 19.446087 -64.064842 26.876055 -26.061785 72.983322
16960000000 -1.5155805 105.55371 -63.880028 -14.242106 -67.678146 3.1667893 -25.567556 76.352112
16970000000 -1.4320873 103.89462 -67.549347 -36.120392 -66.905701 -0.55153984 -24.694023 82.127121
16980000000 -1.3509809 102.26617 -67.192848 -37.987427 -65.505943 -13.489381 -23.621914 89.48851
16990000000 -1.268801 100.74719 -66.283051 -59.06081 -64.78186 -51.731407 -22.596626 97.151329
17000000000 -1.1871623 99.309418 -65.638977 -95.798744 -64.11528 -79.575027 -21.822243 104.47448
