!Keysight Technologies,P9374A,MY57211807,A.19.30.04
!Date: Friday, May 08, 2026 14:10:27
!Correction: S11(C  2-Port  ) 
!S21(C  2-Port  ) 
!S12(C  2-Port  ) 
!S22(C  2-Port  ) 
!S2P File: Measurements: S11, S21, S12, S22:
# Hz S  dB   R 50
13000000000 -18.392826 60.985481 -46.471519 -138.56395 -47.081833 -146.36493 -9.1209202 22.157349
13010000000 -18.327524 58.125355 -45.914021 -157.57944 -46.253735 -163.91975 -9.1556416 17.814415
13020000000 -18.954878 55.304543 -44.779022 -169.52678 -45.62767 -174.62592 -9.2210588 13.516131
13030000000 -19.734169 56.250343 -43.371597 164.80951 -43.705616 161.08823 -9.3237047 9.2194462
13040000000 -20.533644 59.686108 -42.396908 140.98959 -42.81395 135.74692 -9.4918785 5.2082586
13050000000 -20.56348 66.397728 -42.735077 114.45815 -43.434422 110.56092 -9.7539682 1.6201559
13060000000 -20.012253 68.345444 -42.775501 98.228851 -43.660919 95.346985 -10.075804 -1.9277426
13070000000 -19.414801 66.668068 -41.743774 80.746796 -42.452843 80.981964 -10.425259 -5.7448816
13080000000 -19.198271 62.830193 -40.635715 57.179974 -41.177082 57.227661 -10.814954 -10.157592
13090000000 -19.331495 58.558445 -39.921764 31.246237 -40.250317 32.257339 -11.211462 -14.813053
13100000000 -19.889118 57.505352 -39.730225 6.3203731 -39.980354 6.3027725 -11.613272 -18.767107
13110000000 -20.098665 59.766403 -39.626545 -18.743736 -39.776165 -19.16193 -12.06632 -21.876505
13120000000 -20.088963 62.362389 -39.890301 -39.267059 -40.077591 -39.691738 -12.522549 -24.725451
13130000000 -19.545118 63.968807 -39.422184 -59.308144 -39.573654 -58.578373 -13.078329 -27.889856
13140000000 -19.404839 63.423435 -38.766167 -82.894737 -38.669945 -81.887222 -13.682099 -31.6598
13150000000 -19.148916 61.362167 -38.362286 -108.58756 -38.314484 -108.68861 -14.299298 -35.668465
13160000000 -19.454473 60.517582 -38.812412 -131.43805 -38.513691 -131.87927 -14.949151 -38.814625
13170000000 -19.601837 59.836643 -38.788788 -152.22241 -38.396259 -154.53844 -15.694514 -41.405231
13180000000 -19.764931 60.044605 -38.189594 -173.38153 -38.123955 -176.56979 -16.631649 -42.788612
13190000000 -19.512094 60.538712 -37.970718 162.4628 -37.82489 158.71138 -17.66663 -45.041248
13200000000 -19.187986 58.006947 -37.375843 139.12192 -37.469063 135.4516 -18.908897 -49.396336
13210000000 -19.230556 55.162056 -37.454525 113.3549 -37.514671 110.49704 -20.172642 -55.078938
13220000000 -19.238218 53.834293 -37.555038 89.452049 -37.417507 86.139427 -21.36887 -60.180359
13230000000 -19.465006 52.141823 -37.843842 68.059692 -37.92548 63.138966 -22.703833 -63.008755
13240000000 -19.57358 53.510757 -37.723217 47.386154 -38.111961 43.42556 -24.487772 -62.04863
13250000000 -19.453571 53.3908 -37.333385 25.736553 -37.738373 22.809147 -27.269022 -59.360901
13260000000 -19.411688 53.912498 -37.057079 1.3831197 -37.244488 -1.5251602 -32.113655 -56.548038
13270000000 -19.201813 52.004421 -36.652332 -21.934767 -37.175819 -25.713154 -44.977222 -58.196831
13280000000 -19.096523 49.74567 -36.483448 -48.055088 -37.077312 -50.646061 -38.552559 124.08112
13290000000 -19.471628 45.638073 -36.79073 -73.263039 -37.544254 -73.919945 -31.471436 115.84587
13300000000 -19.80978 45.067879 -37.04604 -95.84137 -37.430698 -95.568878 -28.465368 105.89468
13310000000 -20.184475 44.203552 -37.265957 -117.6487 -37.672955 -117.84053 -25.895979 99.270676
13320000000 -19.970909 45.292747 -37.097435 -139.26355 -37.435867 -138.60866 -23.506163 94.929398
13330000000 -19.616245 42.934208 -36.689095 -162.69073 -36.927048 -162.73344 -21.466183 92.467026
13340000000 -19.557379 42.154804 -36.917 171.7253 -37.307838 172.37158 -20.012444 90.407997
13350000000 -19.516632 36.85997 -36.875557 147.56676 -37.087128 148.99426 -19.073193 87.703323
13360000000 -20.021978 34.878113 -37.095348 124.62616 -37.103012 125.43758 -18.399158 83.605659
13370000000 -20.517626 33.733543 -37.278793 101.48556 -37.181377 101.38072 -17.732561 77.95089
13380000000 -20.799664 36.217709 -37.21167 78.077591 -37.126884 78.06366 -16.820599 72.063362
13390000000 -21.134359 36.394997 -37.608528 52.204086 -37.552769 52.199936 -15.854941 67.53183
13400000000 -20.567177 40.278126 -37.874222 30.908262 -37.815964 29.630037 -14.913565 64.449234
13410000000 -20.114466 32.770695 -37.978535 7.8655801 -37.836159 7.6941619 -14.289718 61.922825
13420000000 -20.350515 29.246635 -38.080784 -16.044117 -37.885063 -17.176991 -13.951534 59.498974
13430000000 -20.695162 20.653576 -38.260712 -40.672295 -38.142544 -42.133842 -13.778631 56.203583
13440000000 -21.951183 19.373636 -38.728325 -64.288254 -38.558041 -66.119629 -13.627893 52.166889
13450000000 -22.854271 21.244684 -39.086212 -88.00351 -38.969494 -90.097786 -13.419134 47.406742
13460000000 -22.731985 28.76652 -39.521427 -111.421 -39.435257 -113.48689 -13.126539 42.940411
13470000000 -22.493269 28.48877 -40.022793 -135.05667 -39.886353 -137.59265 -12.898278 39.383183
13480000000 -21.456465 28.818468 -40.533779 -156.97815 -40.240013 -159.61391 -12.764629 36.319073
13490000000 -21.916582 20.334038 -41.178585 -179.99323 -41.029652 175.48819 -12.764601 33.542202
13500000000 -21.867306 18.843983 -42.152428 157.23898 -42.043442 152.61157 -12.879719 30.960876
13510000000 -23.090965 11.939198 -42.782841 138.0067 -42.971684 132.40561 -12.976367 28.193237
13520000000 -23.957151 14.379188 -43.250004 118.99314 -43.689583 114.35811 -13.105835 25.697496
13530000000 -24.803719 15.564419 -44.153152 96.820908 -44.364494 91.20562 -13.26543 23.358814
13540000000 -24.229067 18.398821 -45.26339 83.299942 -45.812908 81.251709 -13.529289 21.881689
13550000000 -24.605328 14.918995 -44.503056 69.206459 -45.181072 64.278839 -13.767577 21.063604
13560000000 -23.85556 15.195903 -44.481659 45.655468 -45.537201 44.031139 -14.033822 20.023272
13570000000 -25.667442 10.680889 -45.02256 24.674681 -45.71085 23.05002 -14.253826 18.861525
13580000000 -24.81274 17.826036 -45.987164 7.9612584 -47.143707 7.7196693 -14.455144 17.711594
13590000000 -25.880106 16.575617 -46.126457 -5.0999165 -46.849312 -2.2450457 -14.532756 17.479275
13600000000 -24.531542 19.700174 -45.818699 -19.875914 -45.889839 -17.561512 -14.535877 17.376772
13610000000 -25.060284 14.765712 -44.922962 -33.753139 -44.939732 -32.64542 -14.546007 18.394808
13620000000 -25.224556 9.1034737 -43.711506 -52.917755 -43.86956 -53.461365 -14.48862 19.577427
13630000000 -27.222717 2.3806705 -42.556519 -76.990768 -42.77948 -76.58786 -14.431795 20.456272
13640000000 -28.602861 8.3851652 -42.422863 -101.95638 -42.490463 -101.54228 -14.401359 20.553627
13650000000 -30.287062 22.148748 -42.178875 -125.7044 -42.2304 -125.72936 -14.350818 20.420137
13660000000 -27.362417 31.062006 -41.938374 -146.23448 -42.000378 -147.34639 -14.195832 19.349291
13670000000 -26.601019 25.426853 -41.618504 -170.77893 -41.818954 -169.75232 -13.973341 18.493731
13680000000 -25.375811 20.824955 -41.589214 168.59561 -41.62788 165.69359 -13.646083 16.94434
13690000000 -25.401039 9.2669306 -41.037315 148.02782 -41.714664 145.58768 -13.390265 15.731505
13700000000 -26.653099 2.3014472 -40.596977 122.71539 -41.027565 124.02425 -13.11166 14.394395
13710000000 -28.895992 4.9964156 -40.248451 98.720299 -40.400177 98.766136 -12.998592 12.454961
13720000000 -29.817598 15.067604 -39.729321 70.730705 -40.074642 71.15377 -12.829887 10.508591
13730000000 -30.171751 33.111019 -40.339687 43.953129 -40.601864 44.19788 -12.719186 7.6672502
13740000000 -27.477228 35.505337 -40.446194 21.788374 -40.823132 21.081394 -12.596659 4.8283329
13750000000 -26.865835 29.455086 -40.486027 -2.6846476 -40.856796 -2.5418456 -12.533275 1.9369366
13760000000 -26.144968 19.174738 -40.66238 -26.273275 -41.28344 -25.393282 -12.535174 -0.47970495
13770000000 -26.979033 10.2142 -41.045959 -52.02145 -41.269226 -48.08168 -12.698483 -3.457196
13780000000 -27.574209 2.804348 -40.943653 -72.86972 -41.032063 -71.376945 -12.985437 -6.5361228
13790000000 -28.719219 3.0093114 -40.763851 -101.40449 -40.837337 -98.536072 -13.256115 -10.132376
13800000000 -29.553978 2.4987347 -41.378033 -129.22673 -41.260338 -126.93243 -13.461909 -14.403426
13810000000 -29.244709 14.662431 -42.418293 -154.67799 -42.460396 -153.01801 -13.63349 -18.306818
13820000000 -28.185202 9.977972 -43.791882 -177.81877 -43.707237 -173.04588 -13.867378 -20.936087
13830000000 -27.933424 19.645042 -44.433277 167.96506 -44.075047 169.24811 -14.187611 -23.081917
13840000000 -26.083395 6.1539254 -44.538731 144.76993 -43.934925 146.29601 -14.72106 -24.799715
13850000000 -27.10651 3.6103749 -44.418072 123.78691 -44.262192 123.98819 -15.343044 -26.146631
13860000000 -26.541069 -5.7337899 -45.161533 95.856522 -44.540062 96.297348 -15.972075 -28.639952
13870000000 -27.835573 -10.274529 -45.951786 74.500656 -45.422989 72.806717 -16.663746 -30.713568
13880000000 -28.387991 -15.965084 -47.341183 54.312645 -46.352901 52.8801 -17.312099 -31.687529
13890000000 -29.235556 -9.4869242 -48.398487 31.68383 -47.443089 27.873758 -17.975334 -31.826052
13900000000 -28.490713 -19.041796 -49.195053 21.600407 -48.493252 17.309019 -18.729391 -31.232697
13910000000 -29.815689 -13.403738 -48.863815 -2.993804 -48.247726 -9.0172691 -19.589764 -30.412275
13920000000 -28.434135 -16.300699 -50.324303 -23.426546 -50.038101 -32.639881 -20.460125 -29.312361
13930000000 -29.055141 -18.761164 -52.07634 -27.382563 -52.389122 -35.207783 -21.065502 -27.093826
13940000000 -28.408585 -22.331942 -50.499825 -41.505619 -50.309368 -47.878288 -21.347351 -24.458824
13950000000 -28.677498 -27.703152 -49.904766 -60.146809 -50.295059 -73.132401 -21.487537 -19.986149
13960000000 -28.446388 -33.611687 -49.502846 -73.934837 -51.462231 -83.469971 -21.383911 -14.338733
13970000000 -27.625835 -43.098934 -48.476933 -97.48143 -50.19928 -98.564682 -21.370836 -8.739049
13980000000 -27.682661 -62.422867 -48.923512 -124.13937 -50.010372 -124.99331 -21.381273 -4.1016984
13990000000 -29.072828 -74.972534 -48.904442 -134.00867 -49.8102 -133.18184 -21.606628 0.19552498
14000000000 -30.941095 -85.314598 -48.055004 -158.05609 -49.35487 -156.21039 -21.661909 3.6788039
14010000000 -32.869057 -67.923401 -48.060368 -178.74815 -49.508446 -177.88147 -21.601292 4.6619558
14020000000 -31.457214 -55.512611 -47.622509 166.41786 -48.136967 172.9294 -21.530638 3.2095201
14030000000 -28.719633 -50.446899 -46.066582 143.63994 -46.721401 146.25117 -21.61334 1.8873798
14040000000 -26.836599 -60.740505 -46.017502 111.46246 -46.617157 119.68394 -21.737629 1.9497315
14050000000 -25.759893 -73.833542 -46.313641 89.605484 -46.135063 96.940262 -21.780823 1.9394099
14060000000 -26.169531 -93.918297 -47.280678 69.304718 -46.631298 74.249306 -21.809465 2.5470657
14070000000 -27.814859 -106.30196 -46.261219 51.905994 -45.521847 54.224033 -21.917473 1.3450106
14080000000 -29.125017 -127.09932 -45.541901 25.348324 -45.293018 26.666351 -22.033892 0.42691517
14090000000 -34.795391 -126.02209 -45.94162 1.7919269 -45.928005 7.3283954 -22.148199 -1.706301
14100000000 -34.102913 -111.88686 -45.374672 -19.976873 -44.299385 -12.959186 -22.311127 -0.90126139
14110000000 -32.512749 -93.589989 -45.918629 -45.030663 -44.494041 -44.456326 -22.201532 0.25841776
14120000000 -28.68191 -102.45747 -45.738335 -65.184242 -44.935387 -62.604626 -22.293861 2.5717969
14130000000 -27.403574 -113.48873 -45.50935 -83.834816 -44.059269 -81.100945 -22.561531 2.9711173
14140000000 -26.043802 -126.46378 -44.917561 -109.27352 -43.384144 -109.93143 -23.193115 3.5186865
14150000000 -27.069334 -138.14096 -44.79567 -130.84566 -43.150303 -136.46529 -24.02878 1.0577022
14160000000 -26.734221 -142.69759 -44.488392 -155.77023 -43.701141 -162.82631 -24.832836 -0.27674988
14170000000 -28.055075 -152.59106 -44.212166 -178.93147 -43.587032 174.57863 -25.015612 -1.0689684
14180000000 -28.858091 -151.09328 -44.316837 157.923 -43.4953 151.35757 -25.276487 -1.1815063
14190000000 -29.163084 -156.32315 -43.976814 136.76715 -43.300434 129.75874 -25.88932 0.86550325
14200000000 -29.349686 -153.50404 -43.212997 112.86908 -43.001324 105.05459 -27.375381 6.2715302
14210000000 -29.376423 -154.68744 -42.711681 83.366158 -42.603447 75.964035 -29.425465 17.287613
14220000000 -28.48872 -146.39597 -42.634933 60.453739 -42.71104 52.186623 -31.281809 34.41317
14230000000 -26.829967 -155.14493 -42.495281 32.043957 -42.969513 25.300264 -31.884859 54.455948
14240000000 -26.298136 -156.73055 -42.882351 7.5837889 -43.238964 2.7449913 -31.300932 69.7099
14250000000 -25.389757 -166.48109 -42.43248 -16.755903 -42.878231 -21.366678 -29.756153 83.179237
14260000000 -26.288698 -173.88622 -42.628387 -41.066624 -43.011986 -46.663406 -27.58029 94.510277
14270000000 -26.291714 -177.17546 -42.076298 -66.027565 -42.878914 -70.001732 -25.205912 100.17221
14280000000 -27.884041 174.04033 -42.151142 -95.682487 -42.641983 -99.434189 -23.658064 101.52201
14290000000 -28.5054 -179.78491 -42.734196 -117.69943 -43.327179 -120.43607 -22.558399 101.74998
14300000000 -29.771397 -177.1993 -42.645145 -144.67654 -42.92308 -148.3676 -21.633463 100.06018
14310000000 -28.248432 -169.47623 -42.484558 -168.7737 -43.063168 -173.58363 -20.612095 97.647789
14320000000 -28.071558 -173.88409 -42.935181 168.79904 -43.620586 165.44789 -19.451439 93.665543
14330000000 -26.492529 -172.46233 -42.52364 142.56598 -43.066299 140.87941 -18.416134 90.556061
14340000000 -26.375187 178.29095 -42.447357 117.252 -42.791328 115.39733 -17.460573 88.546684
14350000000 -25.612482 176.7294 -42.291103 88.799049 -42.732014 86.927788 -16.672974 87.484375
14360000000 -26.288902 165.94479 -42.73933 62.114075 -43.13039 59.047615 -15.995051 86.275879
14370000000 -26.961283 165.71201 -42.997631 37.385014 -43.699665 34.755802 -15.523636 84.205559
14380000000 -28.179123 156.86588 -43.285824 12.653757 -43.768875 13.530994 -15.218126 81.90593
14390000000 -30.373245 170.18559 -42.823124 -10.275941 -43.235455 -11.849899 -14.965554 78.958313
14400000000 -29.814604 179.61159 -42.922394 -40.106384 -43.201271 -38.203327 -14.630729 75.950378
14410000000 -28.553032 -173.48326 -43.238533 -65.850822 -43.517563 -65.544098 -14.237814 72.818542
14420000000 -26.953682 -175.23149 -43.471401 -89.992783 -43.627472 -89.716423 -13.864851 69.571442
14430000000 -25.459698 176.09294 -43.218948 -115.10093 -43.452599 -115.43898 -13.598052 67.104752
14440000000 -25.520575 165.96933 -43.300438 -142.62993 -43.603886 -140.14886 -13.353073 64.868179
14450000000 -25.914886 158.36235 -43.610588 -171.86458 -43.687622 -169.72914 -13.162979 62.42144
14460000000 -27.955667 153.19884 -44.672916 160.19624 -44.412746 162.94154 -13.045954 59.987846
14470000000 -29.417572 163.18155 -45.567585 139.62587 -45.195469 139.63403 -12.943038 58.077644
14480000000 -29.489902 -174.85306 -45.950684 120.31789 -45.543613 120.7672 -12.870032 56.742844
14490000000 -27.485518 -173.25397 -45.679874 96.425446 -45.524826 95.710014 -12.794118 55.504059
14500000000 -26.027216 -170.54477 -45.964767 75.82296 -45.286728 75.393234 -12.864562 53.679134
14510000000 -24.884275 177.70781 -45.790203 44.088036 -45.01236 42.786572 -13.090856 52.264885
14520000000 -25.547436 174.67226 -47.469364 22.544846 -46.42226 15.839767 -13.193814 50.411404
14530000000 -25.269165 164.45741 -47.534 3.7348342 -47.127445 -5.0949078 -13.192277 48.494968
14540000000 -27.112236 167.64404 -47.825039 -11.007903 -47.547699 -21.397169 -13.048515 47.05389
14550000000 -26.628748 169.02879 -46.967716 -34.246048 -47.177933 -42.224895 -12.895061 46.022667
14560000000 -27.018177 177.95871 -46.745693 -56.354111 -46.687843 -65.332947 -12.79147 45.789185
14570000000 -25.524403 178.224 -47.313915 -86.288918 -47.853039 -95.586029 -12.814775 45.880466
14580000000 -24.991711 -178.06046 -48.254478 -99.602509 -49.096149 -111.78436 -12.81237 46.004738
14590000000 -23.970476 176.80402 -47.780514 -112.53798 -49.60503 -124.17233 -12.860803 45.468544
14600000000 -23.741104 177.8821 -46.717632 -136.32809 -48.899841 -138.46083 -12.821534 45.030396
14610000000 -23.003304 171.26151 -45.882763 -158.85028 -47.3316 -159.23457 -12.753498 44.41544
14620000000 -23.592419 170.21811 -45.332718 175.21242 -46.482197 173.14648 -12.660209 43.715801
14630000000 -23.246778 165.67415 -45.236008 151.39293 -47.211052 148.75978 -12.687613 42.869938
14640000000 -24.215487 165.97176 -46.339272 126.67753 -47.933582 129.38112 -12.701392 42.255203
14650000000 -24.051792 169.76721 -45.802246 115.76615 -47.422981 120.22601 -12.626957 41.031673
14660000000 -23.431728 171.96509 -45.079403 94.73822 -46.081112 101.21801 -12.467135 39.708603
14670000000 -22.925959 173.25397 -43.324852 73.384628 -44.366051 78.417877 -12.23595 37.908092
14680000000 -21.552635 171.63969 -42.710468 44.496868 -43.419338 51.138126 -12.085431 36.682121
14690000000 -21.115911 166.2403 -42.312302 18.756311 -42.681698 22.91678 -11.978027 35.955029
14700000000 -20.760019 160.60278 -42.471561 -7.8458753 -43.177727 -3.7055855 -11.938148 35.558407
14710000000 -21.307135 155.67133 -42.61739 -30.686886 -43.050541 -26.148947 -11.932179 34.990173
14720000000 -21.792 153.09555 -42.706577 -49.576073 -42.834885 -44.179367 -12.017179 33.957317
14730000000 -22.586954 155.57263 -41.471851 -71.293579 -41.480282 -66.775818 -12.136375 32.561928
14740000000 -22.164785 158.81734 -41.008873 -99.551353 -40.841244 -95.182205 -12.277912 30.79311
14750000000 -21.876995 160.60907 -40.856884 -126.77702 -40.482437 -123.10591 -12.422505 28.642843
14760000000 -20.571142 159.39806 -41.295631 -151.20267 -40.858829 -148.45802 -12.520059 26.681633
14770000000 -20.422514 153.61385 -41.107193 -174.29146 -40.784351 -172.89017 -12.559928 24.966656
14780000000 -19.663992 149.61304 -41.036564 162.99974 -40.532494 166.12796 -12.578431 23.99781
14790000000 -20.02696 142.64163 -40.904758 138.77654 -40.175152 138.25798 -12.61426 23.553822
14800000000 -20.147554 141.43776 -40.775269 115.91339 -40.342503 115.50648 -12.717875 23.310671
14810000000 -20.896706 138.67152 -40.867336 90.271591 -40.228245 89.785492 -12.861229 22.842432
14820000000 -20.92515 141.27519 -40.741043 67.85173 -40.203827 65.412407 -13.126213 22.262669
14830000000 -21.399275 143.20966 -41.347858 42.022324 -40.641808 40.564472 -13.330581 22.23716
14840000000 -20.690437 144.71188 -41.517139 24.505756 -40.913574 19.832912 -13.523104 22.197435
14850000000 -20.636906 142.44505 -41.241005 1.8277911 -40.820606 -2.2750709 -13.695507 22.330229
14860000000 -19.914814 140.79466 -40.91798 -17.363558 -40.487579 -22.104322 -13.947446 22.252819
14870000000 -19.978294 133.53857 -40.223106 -43.215183 -40.12598 -47.95747 -14.295141 21.787832
14880000000 -19.927689 128.14383 -40.741505 -69.032059 -40.605404 -74.867683 -14.558746 21.034723
14890000000 -20.451071 122.8477 -40.543274 -88.489326 -40.629505 -93.145447 -14.643586 19.785551
14900000000 -21.062876 120.06383 -40.766174 -109.86994 -40.9562 -114.32762 -14.562433 19.246004
14910000000 -21.861227 123.64587 -40.149052 -128.52518 -40.346992 -132.93307 -14.450452 19.548798
14920000000 -21.618011 125.98594 -39.407673 -152.92369 -39.846985 -157.56104 -14.4483 21.503178
14930000000 -21.401052 130.59039 -39.254158 -177.65956 -39.776836 -179.52406 -14.558797 23.82168
14940000000 -20.461588 127.78833 -38.936058 158.09352 -39.265209 155.88519 -14.840664 25.656454
14950000000 -20.445305 124.43614 -39.027977 132.64093 -39.499275 131.86334 -15.232236 26.739384
14960000000 -20.40134 118.68653 -38.820488 113.10489 -39.140209 111.50796 -15.488729 27.360338
14970000000 -21.209463 114.92406 -38.309284 88.034889 -38.625538 87.48616 -15.600235 27.78101
14980000000 -22.019394 110.43999 -38.024368 61.588116 -38.414112 62.440483 -15.679144 28.42123
14990000000 -23.328802 113.87493 -38.019997 37.561459 -38.172188 38.543694 -15.783934 29.608208
15000000000 -23.395279 115.3842 -37.95689 12.012623 -38.023155 13.279413 -15.965169 31.078119
15010000000 -23.516483 120.85054 -38.139706 -11.46355 -38.026352 -10.717234 -15.976791 32.01807
15020000000 -22.667448 117.89094 -37.987743 -36.060181 -38.009995 -35.214363 -15.866392 31.822397
15030000000 -22.910711 117.79805 -38.005615 -58.729832 -37.844852 -58.064129 -15.557275 32.160892
15040000000 -22.420158 113.85821 -37.536255 -82.873787 -37.892612 -83.491348 -14.962881 35.82777
15050000000 -22.865746 112.72633 -37.695503 -106.41428 -37.804604 -106.48112 -14.602805 37.530827
15060000000 -23.163675 110.47726 -37.436195 -132.66679 -37.614979 -133.6806 -14.487817 40.066925
15070000000 -23.986511 111.03822 -37.824558 -155.91937 -37.978298 -157.31741 -14.461148 42.593227
15080000000 -24.749458 114.77876 -37.520977 178.72263 -37.691772 178.82375 -14.47461 43.331261
15090000000 -24.760855 119.38877 -37.990891 152.34709 -37.951706 152.48483 -14.516255 42.744888
15100000000 -24.893913 121.08134 -38.15844 129.40668 -38.117115 129.23776 -14.470764 41.417576
15110000000 -24.876791 123.11811 -38.498966 106.56056 -38.586658 104.8196 -14.321296 40.206017
15120000000 -24.838505 125.43076 -38.251015 82.332832 -38.562141 82.535278 -14.144841 39.233082
15130000000 -24.221348 123.82267 -38.545883 56.059929 -38.384617 58.239315 -13.992089 38.759567
15140000000 -24.244949 122.92244 -39.104408 32.222118 -38.788837 33.0205 -13.775864 38.119179
15150000000 -23.837225 119.65434 -39.299011 12.125428 -38.99004 10.830673 -13.563557 37.194473
15160000000 -24.622986 117.56659 -39.136059 -13.297196 -38.944572 -14.475302 -13.387976 36.465496
15170000000 -24.756311 120.33447 -39.55949 -39.038788 -39.296677 -39.201775 -13.271318 36.359749
15180000000 -25.014654 123.38268 -40.100239 -61.531677 -39.76075 -63.454243 -13.19877 36.662701
15190000000 -24.63509 129.09984 -40.238007 -86.017212 -40.147594 -87.745392 -13.272422 36.705425
15200000000 -24.351692 131.83899 -40.880646 -108.67304 -40.665035 -109.2375 -13.424183 36.537594
15210000000 -23.144676 132.38625 -41.348072 -132.69888 -41.009502 -133.66101 -13.588162 35.670609
15220000000 -22.970831 128.95299 -41.970127 -152.3643 -41.495949 -154.90295 -13.792432 34.088486
15230000000 -22.503349 124.57433 -41.581036 -175.09648 -41.425583 -178.45766 -13.977403 32.867558
15240000000 -23.130329 119.84825 -42.468803 162.07677 -42.009525 158.65976 -14.031369 31.882547
15250000000 -23.619776 118.17051 -42.485622 137.51286 -42.222965 133.98473 -14.021548 30.633514
15260000000 -24.124275 119.89497 -43.44825 120.54064 -43.415882 114.26513 -13.984655 29.879824
15270000000 -24.283997 123.64037 -42.988716 96.885368 -43.108894 94.543327 -13.952022 29.898077
15280000000 -23.484575 126.01192 -43.912392 73.947121 -43.86895 69.395622 -13.84263 31.274044
15290000000 -22.938978 125.56857 -44.180099 54.084755 -44.532787 49.003712 -13.821444 32.450787
15300000000 -22.05888 121.05238 -45.209351 34.784779 -45.289379 31.587542 -13.996988 34.382893
15310000000 -22.22422 117.03376 -44.389091 19.846413 -44.808849 15.653006 -14.180036 35.812889
15320000000 -22.08794 112.39571 -44.608353 -5.4459896 -45.316086 -10.469787 -14.382791 36.063568
15330000000 -22.914618 110.29102 -44.151463 -23.982918 -45.23278 -23.802996 -14.638655 35.575508
15340000000 -22.951895 107.78242 -44.321579 -52.758766 -44.9748 -49.345669 -14.701267 35.759571
15350000000 -24.07719 110.19528 -45.39835 -71.876335 -45.349373 -69.0261 -14.611443 35.606907
15360000000 -23.624987 110.04553 -45.62748 -86.916756 -45.560516 -88.685135 -14.560452 35.783798
15370000000 -24.484938 112.64529 -45.151051 -103.82771 -45.797409 -104.38527 -14.501312 35.846516
15380000000 -23.168051 112.2272 -43.848042 -123.87006 -44.215229 -122.51161 -14.462259 35.388474
15390000000 -23.442097 107.49622 -43.16441 -152.94954 -43.099648 -149.13699 -14.322177 35.026295
15400000000 -23.10183 103.41402 -43.986748 -179.26332 -43.637749 -178.4518 -14.082677 35.244755
15410000000 -23.526941 97.862762 -44.246902 161.37712 -44.26363 160.52022 -13.842894 36.05772
15420000000 -23.967817 93.324081 -44.007568 140.1132 -44.138897 140.33757 -13.663871 37.526546
15430000000 -24.933804 92.085815 -44.234123 118.08412 -44.128567 120.42661 -13.731634 38.601147
15440000000 -25.449234 91.124107 -43.620152 97.081261 -42.921143 97.375099 -14.000113 39.409439
15450000000 -26.486284 91.344345 -43.275497 73.744209 -43.282986 71.784569 -14.225245 38.515633
15460000000 -26.986481 95.098671 -43.251797 47.874519 -43.002625 44.397728 -14.465216 36.96796
15470000000 -27.141859 98.546051 -43.264084 26.006824 -43.778347 23.054564 -14.420633 35.55064
15480000000 -26.448738 97.654831 -43.162827 -0.59050649 -43.210052 1.520057 -14.267656 34.407799
15490000000 -26.585283 92.31868 -43.243492 -20.580711 -43.252144 -20.784737 -14.144497 33.882248
15500000000 -26.716351 85.13755 -42.551151 -45.447952 -42.619156 -44.122047 -14.176757 34.147919
15510000000 -27.424335 78.036858 -43.016663 -74.273483 -42.608833 -72.805847 -14.136411 35.076275
15520000000 -28.895832 65.388351 -43.068615 -97.696152 -42.849091 -98.795082 -14.117786 35.458073
15530000000 -31.516333 67.515526 -43.571354 -123.45682 -43.349167 -124.12521 -14.064199 36.430847
15540000000 -34.050495 62.066372 -44.043697 -145.53807 -43.86438 -145.61531 -14.038058 37.559364
15550000000 -37.067734 97.794678 -44.603096 -165.0831 -44.366508 -165.45586 -14.067969 38.983841
15560000000 -35.642685 102.32917 -44.116348 175.18405 -43.836838 175.06261 -14.184847 40.193825
15570000000 -33.786694 114.75423 -43.444698 150.65433 -43.134869 149.83638 -14.36542 41.001156
15580000000 -33.679485 92.68573 -43.607811 119.69023 -42.910694 121.60217 -14.522876 41.132542
15590000000 -35.172058 87.585808 -44.007038 95.616928 -43.370258 93.671066 -14.645726 40.487373
15600000000 -37.336689 50.366871 -44.596523 71.203453 -44.094906 68.143425 -14.622571 39.456284
15610000000 -44.960041 -8.5753479 -45.3834 49.824265 -44.733093 46.179344 -14.515284 38.471897
15620000000 -39.824448 -68.171303 -45.358696 31.287003 -45.091984 25.782141 -14.317222 37.863514
15630000000 -34.970394 -126.90823 -44.781967 9.7191992 -45.129459 4.0865841 -14.106164 38.017365
15640000000 -35.677769 -140.19618 -44.803299 -18.355732 -44.867939 -17.342157 -13.869929 39.106113
15650000000 -33.326248 -153.12402 -45.113525 -41.707645 -44.427963 -42.897408 -13.667333 40.108723
15660000000 -35.471481 -162.86726 -45.766293 -65.057396 -45.307571 -68.798775 -13.703298 40.861977
15670000000 -34.182247 -154.95544 -46.153545 -82.911537 -45.941738 -92.137383 -13.845133 41.847145
15680000000 -35.400455 -146.95667 -45.493645 -101.91508 -45.877483 -106.50477 -14.032446 42.064396
15690000000 -32.654751 -136.68419 -45.040039 -126.67963 -45.262463 -129.64211 -14.172831 42.006393
15700000000 -30.457449 -131.71274 -44.430458 -155.17989 -44.686611 -158.13081 -14.225173 41.553009
15710000000 -28.59705 -135.75658 -45.309353 179.0433 -45.660076 174.83968 -14.216172 41.202404
15720000000 -27.405691 -140.87962 -45.972332 156.50607 -46.675873 154.35866 -14.229224 40.979183
15730000000 -26.949474 -141.87416 -46.560352 140.29909 -46.615234 141.2206 -14.291946 40.840202
15740000000 -25.967615 -145.20407 -44.957447 121.84087 -45.078712 122.43274 -14.322084 40.569832
15750000000 -25.748123 -149.79968 -44.344543 96.784363 -44.251308 93.398369 -14.190948 40.508686
15760000000 -25.563004 -152.86546 -43.682903 65.338982 -44.230499 62.764431 -13.936562 40.861309
15770000000 -26.067663 -155.8598 -44.237511 38.291229 -44.693035 38.482933 -13.569444 42.501049
15780000000 -26.200815 -152.20262 -44.43528 15.924561 -44.686153 17.054659 -13.282857 44.323826
15790000000 -26.109859 -148.1626 -44.842125 -8.8237066 -44.939838 -7.079113 -13.240549 46.446198
15800000000 -24.689877 -142.35947 -44.904839 -28.533657 -44.788872 -26.595631 -13.350621 48.103313
15810000000 -23.417942 -145.13284 -44.776604 -49.769886 -44.485027 -51.210476 -13.553857 48.66201
15820000000 -22.398954 -148.59171 -44.155262 -74.872116 -44.214069 -76.761528 -13.673761 47.980076
15830000000 -21.914503 -155.11862 -44.020901 -99.681335 -44.407669 -100.75844 -13.613735 46.278946
15840000000 -22.056364 -158.47415 -43.770306 -121.90118 -43.860962 -120.69242 -13.385146 44.609585
15850000000 -22.601759 -163.0602 -43.506935 -149.64056 -43.471653 -150.89568 -13.115906 43.262344
15860000000 -23.436796 -157.12373 -43.317818 -173.77449 -43.382275 -173.92572 -12.854285 42.473728
15870000000 -23.095097 -153.92633 -43.632191 158.50288 -43.391708 159.64345 -12.624239 42.386307
15880000000 -22.76536 -147.31145 -44.055012 138.68294 -43.5214 137.07826 -12.345091 42.220421
15890000000 -21.459318 -148.63213 -43.13208 114.23397 -43.181946 110.83604 -12.072978 42.177517
15900000000 -20.941013 -151.75606 -43.951328 88.050194 -43.980278 86.091377 -11.846136 42.138073
15910000000 -20.405186 -156.58568 -43.687138 68.887695 -44.059582 66.612701 -11.729493 42.084557
15920000000 -20.479313 -159.59813 -43.797199 44.550549 -43.588814 44.748047 -11.707188 41.949589
15930000000 -20.598328 -161.88554 -42.776154 25.354237 -42.920681 22.052082 -11.767857 41.497837
15940000000 -20.922464 -159.34358 -42.187801 -4.2512622 -42.369373 -5.4453754 -11.85648 40.511612
15950000000 -20.500801 -157.70503 -42.499329 -32.530548 -42.494106 -33.334583 -11.89565 38.597431
15960000000 -20.3841 -155.02881 -43.052231 -58.733772 -43.058506 -59.370155 -11.906422 35.837574
15970000000 -19.704134 -153.28975 -43.57082 -79.743637 -43.372044 -81.554604 -11.877976 32.973404
15980000000 -19.426779 -153.36418 -43.152908 -98.909576 -43.284817 -101.06207 -11.752068 30.64653
15990000000 -18.765503 -152.88951 -43.023659 -121.23853 -43.151493 -121.57028 -11.533514 29.27037
16000000000 -18.703869 -155.91258 -42.448921 -146.39949 -42.335358 -145.88098 -11.301911 28.547813
16010000000 -18.418488 -155.88065 -42.158199 -169.23523 -42.014172 -170.87375 -11.182701 28.11677
16020000000 -18.426392 -158.30705 -42.281857 163.946 -41.997917 162.28694 -11.265486 27.889387
16030000000 -18.348347 -156.86514 -41.953751 140.05167 -41.764236 139.28828 -11.459322 27.298029
16040000000 -18.064138 -156.99706 -42.021137 114.8812 -41.801914 112.11749 -11.719793 25.898155
16050000000 -17.68716 -155.92554 -42.138165 89.388069 -42.369179 86.764694 -11.974195 23.498585
16060000000 -17.24896 -156.09575 -42.626163 64.554375 -42.493423 63.888649 -12.179239 21.174545
16070000000 -16.765261 -155.9906 -42.470367 46.353073 -42.190208 44.232861 -12.296744 18.762922
16080000000 -16.510868 -157.23488 -41.727921 20.504639 -41.754265 17.418831 -12.47724 16.439747
16090000000 -16.173267 -156.41502 -42.042187 -7.2636075 -42.073212 -10.48342 -12.641881 14.235297
16100000000 -15.876793 -157.74571 -42.199463 -31.376223 -42.548603 -33.016586 -12.801943 12.098612
16110000000 -15.617163 -157.48347 -42.691402 -56.972042 -42.705051 -56.315598 -12.838422 10.625405
16120000000 -15.322958 -159.29552 -42.887772 -75.453102 -42.567543 -77.214241 -12.814502 10.075197
16130000000 -15.043524 -160.2693 -42.315098 -99.848709 -42.387218 -103.90464 -12.845793 10.534487
16140000000 -15.048585 -161.08749 -42.579647 -126.50837 -42.995388 -129.46291 -13.092974 11.988296
16150000000 -14.708101 -161.65955 -42.884083 -153.88074 -43.503456 -152.40359 -13.518205 13.344102
16160000000 -14.525593 -161.17665 -44.674854 -172.7009 -44.431156 -171.92966 -14.059138 13.419436
16170000000 -13.940072 -161.19403 -44.01799 170.56807 -43.90453 168.73682 -14.624694 11.592197
16180000000 -13.513757 -162.23294 -43.582722 147.14413 -43.841873 145.47858 -15.053998 8.7421885
16190000000 -13.05028 -164.07022 -43.672455 121.92799 -43.784035 123.85217 -15.276593 6.201251
16200000000 -12.928379 -165.61629 -44.202251 98.45842 -43.64592 99.619026 -15.345464 4.5357509
16210000000 -12.698539 -167.28313 -44.294277 77.04039 -43.751896 75.657867 -15.443256 3.9157026
16220000000 -12.806233 -167.25046 -44.133835 57.22263 -43.888283 52.018219 -15.533231 3.6299374
16230000000 -12.472444 -167.83342 -44.472149 28.672869 -44.489006 26.927862 -15.602631 3.4289973
16240000000 -12.418679 -167.32611 -45.524433 7.2116346 -45.473785 7.0970821 -15.621279 3.5853789
16250000000 -11.95027 -168.78761 -45.956234 -7.0212817 -45.64782 -7.3822212 -15.637862 4.7290397
16260000000 -11.759403 -169.79904 -45.71027 -22.951332 -44.799103 -24.710953 -15.810995 6.6683559
16270000000 -11.304824 -171.90933 -44.567345 -44.325603 -44.106052 -50.784416 -16.191074 9.0393124
16280000000 -11.208632 -173.99606 -44.752869 -69.203537 -44.739811 -76.479225 -16.673315 10.513514
16290000000 -10.93192 -175.42241 -44.559467 -91.373985 -45.032532 -95.673676 -17.206306 9.6216335
16300000000 -10.846848 -176.62198 -44.63464 -114.57168 -44.970905 -117.46892 -17.721289 6.6304874
16310000000 -10.588611 -177.01489 -44.909065 -133.52327 -44.799767 -135.69681 -17.98513 2.7763748
16320000000 -10.447735 -177.79436 -44.767101 -156.52806 -44.802635 -160.66338 -18.060356 -0.37526947
16330000000 -10.147163 -178.49266 -44.753395 -176.12041 -45.355488 179.53523 -18.076374 -2.1712468
16340000000 -10.079216 -179.67242 -44.393085 163.39133 -44.855259 163.3291 -18.04817 -3.3362334
16350000000 -9.8586864 179.77727 -44.063629 142.23926 -44.009766 142.2079 -17.998049 -3.9544327
16360000000 -9.7267523 178.42847 -43.428005 119.8381 -43.634686 117.4519 -18.092564 -4.5465322
16370000000 -9.508853 177.53 -43.167034 94.323959 -43.467525 93.177345 -18.375574 -3.6171803
16380000000 -9.2694855 175.70753 -43.117428 72.897133 -43.625771 73.249069 -18.857193 -2.122561
16390000000 -9.0888386 173.79054 -43.193779 48.555492 -43.14249 51.138874 -19.706371 -1.3376706
16400000000 -8.9560633 171.90601 -42.996574 28.0131 -42.81036 26.351271 -20.737654 -3.0281987
16410000000 -8.8944321 170.47177 -42.724049 2.4915226 -42.762691 1.485517 -21.829561 -8.0456781
16420000000 -8.8471613 169.85242 -42.73381 -20.209387 -42.809082 -21.996185 -22.748333 -14.470908
16430000000 -8.6959734 169.85995 -42.8377 -44.433662 -42.984936 -44.896275 -23.333246 -18.92996
16440000000 -8.4541521 170.0748 -42.539345 -64.697777 -42.620693 -65.795799 -23.951361 -21.441826
16450000000 -8.1230249 169.34578 -42.089291 -91.482735 -42.540581 -91.381279 -24.725258 -22.534128
16460000000 -7.857626 167.57501 -42.135941 -117.31198 -42.093929 -116.09534 -25.731718 -24.040831
16470000000 -7.7494507 165.5359 -42.582432 -142.91338 -42.46257 -142.70285 -26.747517 -23.979216
16480000000 -7.7222676 163.61963 -43.263203 -163.74968 -43.264843 -164.89067 -27.586 -20.301523
16490000000 -7.774106 162.14862 -42.499264 175.14507 -42.72126 174.01711 -28.562716 -10.6489
16500000000 -7.7966599 162.06361 -42.762363 146.25061 -42.996784 148.4192 -29.79233 8.3391361
16510000000 -7.6084418 161.62596 -43.186893 123.2669 -43.192638 125.83423 -30.640013 35.264496
16520000000 -7.3742504 161.52768 -44.087238 100.72787 -43.512535 102.28992 -31.369221 60.265213
16530000000 -7.0225582 160.03029 -43.865238 78.903236 -43.591194 80.198265 -32.427418 80.816101
16540000000 -6.8629289 158.64012 -44.203907 56.174335 -43.68914 57.82283 -33.863602 97.899704
16550000000 -6.6846452 157.01633 -44.297428 29.782747 -43.656498 30.623482 -34.582138 102.19346
16560000000 -6.6733427 155.99437 -44.958473 7.1211944 -44.319637 7.319335 -33.912453 93.575089
16570000000 -6.5608726 155.32733 -45.805264 -17.185656 -44.951935 -18.727522 -32.327831 86.354965
16580000000 -6.4876881 154.75673 -46.819801 -33.698406 -45.725567 -36.880985 -31.027611 86.125603
16590000000 -6.3253684 153.93605 -46.971149 -51.543144 -46.074711 -57.622818 -30.152687 90.510818
16600000000 -6.2042613 152.89536 -46.91206 -70.016991 -46.264828 -78.84359 -29.473455 94.288918
16610000000 -6.0545878 151.54892 -46.307316 -91.72625 -46.238937 -98.880409 -28.282085 95.90712
16620000000 -5.9489555 150.54079 -46.385757 -115.80697 -46.331024 -122.2142 -26.884434 96.849236
16630000000 -5.7606525 149.59959 -47.210876 -136.49739 -47.401329 -144.19044 -25.266281 100.27876
16640000000 -5.5680718 148.5434 -47.394058 -153.64986 -47.82806 -162.41451 -23.938608 107.06426
16650000000 -5.3252058 147.31682 -47.052879 -174.12651 -47.951294 -178.9655 -22.974625 113.50025
16660000000 -5.1874137 145.82652 -46.774593 164.39363 -47.32148 162.15329 -22.677582 120.19385
16670000000 -5.0436988 144.64848 -46.592464 140.96761 -47.040813 136.81944 -22.533949 123.70761
16680000000 -4.9961476 143.53928 -47.069729 120.13537 -47.712605 116.79044 -22.524721 122.64785
16690000000 -4.884593 143.21803 -46.309414 98.751534 -47.431526 95.824898 -22.323334 118.45429
16700000000 -4.7293382 142.49173 -46.247097 71.502121 -47.347408 75.489624 -21.806507 113.52635
16710000000 -4.5050178 141.62184 -46.72097 49.064651 -47.16386 52.592709 -20.897089 110.08595
16720000000 -4.3149219 140.05675 -46.459229 27.142698 -46.823452 29.159805 -19.961142 107.78548
16730000000 -4.1312065 138.30881 -46.971214 4.1755767 -47.253422 5.9578953 -19.138529 106.26384
16740000000 -4.0448928 136.53871 -46.863377 -20.296432 -47.001133 -15.846942 -18.494694 105.04044
16750000000 -3.9484921 135.24712 -47.21088 -42.090927 -46.98893 -39.332798 -17.956381 104.49355
16760000000 -3.8359962 134.17812 -47.278637 -66.335564 -47.20673 -65.385635 -17.628273 104.00147
16770000000 -3.6785312 133.23447 -47.660637 -91.754074 -47.666252 -87.497299 -17.461525 103.9634
16780000000 -3.5014439 132.18907 -48.219696 -113.49171 -48.057419 -109.02943 -17.398006 103.33271
16790000000 -3.3189349 130.81801 -48.731445 -137.53127 -47.874493 -132.51485 -17.535118 101.65398
16800000000 -3.1939218 129.29549 -49.570595 -160.59325 -47.923641 -159.81734 -17.738846 98.541405
16810000000 -3.0893304 127.79783 -50.383755 179.47188 -49.096119 176.48389 -17.98041 94.514542
16820000000 -3.006696 126.41436 -50.198681 164.54063 -49.54364 158.19926 -18.160103 90.201279
16830000000 -2.877526 124.98798 -49.663918 140.39911 -49.284367 135.92926 -18.104372 85.950119
16840000000 -2.7634234 123.57359 -50.10463 113.3649 -49.569458 109.67389 -17.895937 82.128349
16850000000 -2.6016641 121.94733 -51.021118 85.973351 -50.359337 82.715836 -17.600157 79.703049
16860000000 -2.4941657 120.2701 -52.209244 67.534355 -51.688461 60.138996 -17.349922 78.763168
16870000000 -2.3743546 118.74635 -52.848209 52.968521 -52.732296 41.631084 -17.310997 79.931465
16880000000 -2.2842522 117.36895 -52.863041 30.538383 -53.842354 22.211973 -17.471359 81.83429
16890000000 -2.1662583 116.09494 -53.091663 13.108321 -53.489204 9.3006563 -18.012903 83.892288
16900000000 -2.0635512 114.94245 -53.061401 -11.163891 -53.635391 -20.526447 -18.718884 85.485374
16910000000 -1.9280382 113.52416 -53.788635 -39.79245 -54.533188 -44.880737 -19.569202 86.119881
16920000000 -1.8357989 112.00919 -54.403568 -62.284222 -56.518909 -66.284409 -20.332674 85.461769
16930000000 -1.745893 110.29279 -58.222916 -84.31086 -59.057072 -85.177635 -20.873522 84.764511
16940000000 -1.6995482 108.65706 -58.730324 -93.306564 -59.378803 -88.600113 -21.162405 84.640945
16950000000 -1.615461 107.03793 -59.011166 -105.19122 -60.044258 -105.51257 -21.230162 86.615532
16960000000 -1.5508132 105.48241 -59.402031 -110.31835 -61.022697 -102.50309 -20.955732 89.153564
16970000000 -1.4419914 103.96378 -57.327236 -129.58997 -58.200401 -125.31164 -20.568794 92.557159
16980000000 -1.3493754 102.34931 -57.284237 -150.57654 -58.910648 -143.31184 -20.032627 96.507996
16990000000 -1.242339 100.74512 -57.608444 -174.38489 -58.214371 -162.49918 -19.362268 101.14765
17000000000 -1.169243 99.182411 -59.183495 171.27998 -58.508602 -173.20914 -18.684662 105.48778
