!Keysight Technologies,P9374A,MY57211807,A.19.30.04
!Date: Friday, May 08, 2026 15:00:12
!Correction: S11(C  2-Port  ) 
!S21(C  2-Port  ) 
!S12(C  2-Port  ) 
!S22(C  2-Port  ) 
!S2P File: Measurements: S11, S21, S12, S22:
# Hz S  dB   R 50
13000000000 -18.943678 56.381596 -45.511051 113.1665 -46.109623 114.27615 -8.7161188 22.203411
13010000000 -19.180492 58.898327 -45.08847 93.951828 -45.235641 95.347633 -8.7608538 18.293657
13020000000 -19.406126 60.10033 -44.566063 74.449875 -44.896561 75.331566 -8.868536 14.525027
13030000000 -19.346077 62.306416 -44.074062 49.744057 -44.266956 49.998859 -9.0035639 10.813291
13040000000 -19.733397 61.23941 -44.964695 26.395107 -45.027184 28.770235 -9.1629562 7.456183
13050000000 -19.601194 64.203064 -45.48468 9.2709618 -45.520908 11.11838 -9.3834887 4.2461271
13060000000 -19.780039 62.239655 -45.133686 -6.2983527 -44.989075 -4.5520539 -9.6733074 1.0237863
13070000000 -19.799995 63.106842 -44.169193 -24.23502 -43.967438 -22.575357 -10.036861 -2.1475952
13080000000 -19.965437 62.862041 -43.817879 -48.435272 -43.482525 -48.249828 -10.440916 -5.3104458
13090000000 -19.42046 62.831314 -43.883938 -72.566841 -43.701653 -71.758354 -10.808116 -8.5570469
13100000000 -19.474165 61.45755 -44.13744 -88.787109 -43.643513 -91.2351 -11.159171 -11.327092
13110000000 -19.118963 59.678524 -43.150627 -109.23401 -42.899872 -110.86758 -11.554543 -13.727624
13120000000 -19.660463 57.406067 -42.957733 -133.53067 -42.965195 -134.92833 -12.001995 -15.86951
13130000000 -19.634111 59.379364 -42.729794 -155.50374 -42.500931 -156.47308 -12.566486 -17.987804
13140000000 -19.898092 61.833141 -42.810921 -177.94115 -42.600563 179.25591 -13.1316 -19.936102
13150000000 -19.526188 62.493553 -42.72821 160.81676 -42.509163 158.15245 -13.643892 -21.913725
13160000000 -19.536591 63.871601 -42.967949 140.88013 -42.85157 138.48511 -14.103594 -23.192316
13170000000 -19.031481 62.320545 -42.12484 121.94727 -42.165764 119.09116 -14.590599 -24.170412
13180000000 -18.991642 59.525898 -41.851494 99.345734 -41.845985 95.822548 -15.206625 -24.522171
13190000000 -18.898867 55.750492 -41.159336 74.207603 -41.243423 71.614723 -16.015993 -24.675463
13200000000 -19.385382 52.636127 -40.907967 48.296352 -40.985107 45.015079 -16.900696 -24.914467
13210000000 -19.587219 53.316471 -41.442257 22.568577 -41.789803 18.701229 -17.727781 -25.52021
13220000000 -19.60014 53.368454 -41.932178 2.228188 -42.539997 1.0922173 -18.308136 -25.739265
13230000000 -19.459888 53.172737 -42.139046 -17.608772 -42.372276 -17.871189 -18.823092 -25.322275
13240000000 -19.519157 54.103199 -41.858063 -36.199818 -42.143707 -36.897179 -19.409233 -22.885296
13250000000 -19.145514 53.45126 -41.353588 -59.603333 -41.634048 -58.778847 -20.187609 -18.329456
13260000000 -19.154438 51.797043 -40.805012 -83.044983 -41.063858 -82.438675 -21.208023 -12.377645
13270000000 -19.097548 50.050465 -41.365776 -110.20305 -41.478817 -108.73309 -22.29143 -6.0494576
13280000000 -19.167797 48.451694 -41.44223 -130.5945 -41.495502 -130.38611 -23.238682 0.25867465
13290000000 -19.351702 45.380756 -41.793621 -153.77621 -42.051853 -152.66763 -23.763987 5.8181872
13300000000 -19.458286 43.964508 -41.999947 -173.05553 -41.943836 -169.57916 -23.697342 11.936012
13310000000 -19.711496 40.234688 -42.054951 164.67635 -41.56741 166.81018 -23.17705 19.345669
13320000000 -20.06883 39.18034 -42.016628 143.51448 -41.517616 143.94711 -22.579332 27.930363
13330000000 -20.478695 38.87833 -42.179256 123.40575 -41.800423 122.41482 -21.843273 36.778858
13340000000 -20.329157 42.260029 -42.110764 102.47839 -41.683872 102.45957 -21.106363 43.195248
13350000000 -20.081247 40.648899 -41.832588 82.803452 -41.33913 81.943108 -20.519529 46.454056
13360000000 -19.713612 41.030766 -41.163975 60.514637 -40.826839 57.700176 -19.920305 46.352909
13370000000 -19.488813 36.1395 -41.354637 36.462368 -41.055256 33.948593 -19.180855 44.911095
13380000000 -19.557478 32.340767 -41.527184 14.371621 -41.162441 12.349404 -18.113337 43.75486
13390000000 -20.337004 27.440756 -41.726528 -5.9159136 -41.387218 -8.7716618 -17.01025 43.167393
13400000000 -20.890684 26.584707 -41.38081 -25.915651 -41.152611 -29.347298 -16.077026 43.029911
13410000000 -21.845753 24.798834 -40.719635 -47.765125 -40.621334 -51.288143 -15.470737 43.191673
13420000000 -22.093416 30.743809 -40.562279 -72.511185 -40.204678 -75.697586 -15.075787 42.139076
13430000000 -21.934006 29.788801 -40.294811 -95.939804 -40.326298 -100.14516 -14.830747 39.788738
13440000000 -21.504808 29.192059 -40.458954 -120.68414 -40.435772 -124.7426 -14.574546 36.437424
13450000000 -21.294106 25.983566 -40.503662 -142.25925 -40.491474 -146.02635 -14.186048 32.540363
13460000000 -21.138966 21.771736 -40.221546 -165.98286 -40.505833 -170.72646 -13.745088 28.767801
13470000000 -21.770828 16.587282 -40.387325 167.35306 -40.93507 164.81511 -13.442085 25.682308
13480000000 -22.283518 16.383038 -41.010666 147.61363 -41.18523 145.6456 -13.290511 23.127214
13490000000 -23.133263 13.792088 -40.637489 127.29359 -40.900509 124.43299 -13.228339 20.588007
13500000000 -23.457335 15.812315 -40.054211 101.3133 -40.408939 99.250305 -13.272472 17.609583
13510000000 -24.228127 18.169086 -40.553661 73.643097 -40.969997 71.679787 -13.382458 14.48227
13520000000 -24.143967 17.089462 -41.28352 51.859608 -41.718437 50.80093 -13.529653 11.912186
13530000000 -24.57127 18.349194 -41.034794 32.235458 -41.390881 32.014793 -13.672758 9.7225876
13540000000 -24.211861 16.916687 -40.779434 5.9006414 -41.010735 5.2932172 -13.89925 7.4875064
13550000000 -24.359228 14.279326 -41.726131 -18.629581 -42.120754 -19.133926 -14.262471 5.6846175
13560000000 -23.929684 12.111628 -42.146748 -42.215328 -42.423916 -40.906216 -14.675678 4.0513186
13570000000 -24.871609 7.637733 -42.684746 -59.946312 -42.681366 -58.381916 -15.033618 2.5348558
13580000000 -25.078634 4.8889685 -42.441662 -83.131912 -42.425148 -82.196053 -15.325915 1.7561047
13590000000 -26.992786 3.7360816 -42.797382 -105.66979 -42.492607 -105.76665 -15.535798 1.3458233
13600000000 -27.369471 10.322371 -43.073158 -129.98349 -43.139694 -130.15958 -15.730931 1.8700625
13610000000 -28.233946 24.393305 -43.808613 -150.33598 -43.458435 -148.19838 -15.9438 3.5487242
13620000000 -26.730396 24.663723 -43.886436 -170.7225 -43.404854 -168.86279 -16.091942 5.6690269
13630000000 -26.859831 24.144241 -43.785 170.95496 -43.371643 169.92621 -16.216049 7.3372002
13640000000 -25.814692 16.086597 -44.339809 142.69235 -43.702545 143.46732 -16.328373 8.7197399
13650000000 -27.024466 7.2409005 -44.551239 126.70131 -43.923195 125.46126 -16.287514 9.8791647
13660000000 -27.710365 4.0180664 -44.013844 103.755 -43.455879 101.09628 -16.071331 9.9981794
13670000000 -29.940382 2.4470799 -44.676399 81.767967 -44.019146 77.910072 -15.78958 10.017395
13680000000 -30.53842 17.645584 -44.793533 60.070198 -44.412254 54.446739 -15.421957 9.7811165
13690000000 -29.476713 26.31258 -44.645737 39.615337 -44.495792 34.956032 -15.015004 9.2979755
13700000000 -28.251598 30.13028 -44.754246 19.899771 -44.637341 14.45698 -14.689785 8.2935715
13710000000 -26.967476 29.45447 -44.353073 -5.3963809 -44.327946 -11.456224 -14.462839 6.5433393
13720000000 -27.033632 19.528738 -44.481449 -30.172985 -44.586765 -35.666706 -14.283463 4.2775378
13730000000 -27.831146 19.630434 -45.448223 -55.582527 -45.636894 -61.466648 -14.093812 1.6251268
13740000000 -28.199383 17.643373 -45.603661 -73.526817 -46.195557 -78.592903 -13.886876 -1.5000132
13750000000 -29.696426 18.641781 -45.817207 -95.386742 -46.467979 -97.758057 -13.765408 -4.6794868
13760000000 -29.273535 22.038092 -45.618896 -117.64922 -45.98373 -119.71527 -13.786481 -7.6937456
13770000000 -29.475538 19.376064 -46.188652 -141.73042 -46.626171 -143.12685 -13.975767 -10.973348
13780000000 -29.712086 19.499388 -46.090675 -161.55171 -46.784904 -164.14235 -14.248322 -14.857746
13790000000 -29.192595 21.332809 -46.220882 170.13542 -46.945953 170.24684 -14.535583 -19.576685
13800000000 -28.99404 20.557907 -47.475113 151.82907 -48.016396 151.93407 -14.778814 -24.544147
13810000000 -27.677307 21.631395 -47.269386 133.02016 -47.545063 132.35631 -14.987637 -28.975185
13820000000 -27.12467 12.491249 -47.042969 107.39422 -47.595253 108.57054 -15.345833 -32.238098
13830000000 -26.779482 12.599903 -48.123463 84.147942 -48.345894 85.092308 -15.888101 -34.874447
13840000000 -26.424978 -1.9065611 -48.050209 63.382217 -48.03101 66.460625 -16.604845 -37.152676
13850000000 -28.386419 -7.0487027 -49.111488 37.141457 -49.128674 37.202606 -17.431206 -40.198273
13860000000 -29.723497 -9.0880852 -49.714287 22.079393 -50.198685 24.76211 -18.365788 -43.717949
13870000000 -31.49016 2.1733947 -50.497044 1.3281751 -50.346855 5.3536444 -19.29298 -46.146198
13880000000 -30.580025 12.520562 -50.385712 -13.527569 -50.009506 -8.1025124 -20.295931 -47.276745
13890000000 -28.210415 13.151182 -49.827507 -35.176365 -49.32692 -35.373322 -21.48942 -47.033409
13900000000 -26.997669 -0.18792751 -49.671173 -58.574528 -49.569038 -56.710571 -22.958855 -45.491665
13910000000 -26.382914 -7.4453554 -51.467999 -78.649338 -51.21434 -74.321304 -24.610216 -43.252453
13920000000 -26.223215 -23.704161 -50.346245 -93.816177 -49.916325 -91.290298 -26.117676 -38.866779
13930000000 -28.076256 -35.47155 -50.599277 -117.39904 -49.634945 -116.05222 -27.060703 -32.171848
13940000000 -29.777273 -42.067295 -50.214001 -130.47989 -49.383446 -132.97424 -27.209944 -23.070108
13950000000 -32.366646 -37.337193 -48.629219 -155.77068 -48.075722 -156.74269 -26.972715 -12.399697
13960000000 -32.720604 -28.957407 -49.688301 178.37239 -49.187988 174.53435 -26.312403 0.071677364
13970000000 -31.553555 -23.087915 -48.605301 158.96794 -47.916042 156.5761 -25.403337 9.7717733
13980000000 -30.081596 -32.910721 -48.577034 134.67938 -48.077484 129.47568 -24.828556 16.105333
13990000000 -29.173908 -43.602146 -48.142456 109.31853 -47.944118 102.97891 -24.459471 20.854834
14000000000 -28.754984 -55.83773 -47.779327 87.737419 -47.90699 82.55011 -24.102814 22.841829
14010000000 -28.17907 -63.618526 -47.207932 55.533916 -47.405418 51.577148 -23.915033 22.476858
14020000000 -28.394039 -70.024422 -47.908176 32.912903 -47.904892 30.069511 -23.795179 21.814903
14030000000 -28.505957 -75.998665 -47.053638 4.1182957 -47.26865 -1.0249821 -23.736115 20.980711
14040000000 -28.886024 -82.672577 -48.085751 -20.820415 -48.031338 -24.092861 -23.718298 20.613607
14050000000 -29.777992 -84.188889 -48.064007 -44.788372 -48.453331 -48.235092 -23.578983 20.357866
14060000000 -30.808393 -90.742462 -47.341473 -69.377502 -47.812687 -72.083145 -23.614071 19.562969
14070000000 -32.424843 -88.081169 -47.003281 -98.051666 -47.289169 -98.436729 -23.706718 19.618179
14080000000 -33.308632 -90.534981 -46.794609 -127.14184 -46.79306 -131.38939 -23.742285 19.433193
14090000000 -32.539295 -79.619568 -47.200249 -156.48549 -47.361938 -160.5139 -23.763374 18.994797
14100000000 -29.655428 -90.370567 -47.278076 173.30225 -47.683575 170.25916 -23.741756 19.062294
14110000000 -28.185904 -102.56985 -47.567451 143.43756 -48.186069 141.55144 -23.671782 19.118433
14120000000 -27.10989 -119.78376 -47.752064 114.4677 -48.137672 112.08789 -23.717037 20.580036
14130000000 -26.958994 -133.08647 -48.125969 86.537834 -48.827469 81.251114 -23.834129 22.482395
14140000000 -27.363197 -146.85426 -48.489655 58.783997 -49.587852 57.778278 -24.136076 23.557632
14150000000 -29.771936 -153.21581 -48.73016 27.489544 -49.832008 27.207745 -24.729254 22.752779
14160000000 -31.137758 -146.06152 -48.846081 1.967137 -49.847561 3.3335969 -25.486176 21.596327
14170000000 -32.44342 -131.78807 -48.767391 -25.076248 -49.667366 -22.677197 -25.940117 22.565317
14180000000 -29.957693 -127.42196 -48.436134 -58.692936 -49.389973 -52.252731 -26.061642 24.939619
14190000000 -28.246954 -132.30513 -49.389942 -86.456734 -49.143597 -80.593796 -26.509567 29.097321
14200000000 -26.808338 -143.18501 -49.806877 -117.91302 -49.434937 -116.0179 -27.171381 40.169147
14210000000 -26.525318 -156.61113 -50.275318 -141.86661 -50.388107 -143.33452 -27.38513 53.672924
14220000000 -26.944174 -166.1136 -49.756142 -166.39452 -49.800861 -163.89778 -27.402521 65.926056
14230000000 -27.432413 -172.98938 -49.386047 165.701 -49.369049 166.60223 -27.258118 77.059807
14240000000 -28.310064 -172.19379 -49.712139 137.43533 -49.382084 137.23497 -26.17206 86.122116
14250000000 -28.1401 -168.18164 -49.295444 109.30827 -49.046238 108.85976 -24.736563 89.65419
14260000000 -28.388149 -168.78563 -50.036045 84.345711 -50.090034 80.519455 -23.478361 92.20562
14270000000 -28.069113 -168.87366 -49.383633 53.922287 -49.747486 55.62904 -22.194201 94.79953
14280000000 -28.512274 -171.05525 -50.989956 31.755615 -50.749084 32.961224 -21.088419 95.967514
14290000000 -27.944014 -168.56514 -49.756584 15.590619 -49.511898 16.653456 -20.228806 95.503708
14300000000 -28.062586 -171.14664 -48.476593 -13.80274 -48.305439 -15.611748 -19.492746 93.250931
14310000000 -27.1283 -171.77353 -48.592411 -42.644428 -48.703789 -46.92223 -18.714319 90.429283
14320000000 -26.910212 178.91386 -48.89883 -74.065041 -48.976688 -74.905266 -17.895792 87.336151
14330000000 -26.081808 174.24634 -49.191212 -94.241081 -49.234741 -94.591431 -17.108263 85.234016
14340000000 -27.305288 161.46129 -49.112129 -120.19209 -49.025124 -121.84421 -16.353687 84.203896
14350000000 -28.491182 164.77658 -49.017948 -137.75302 -48.972607 -140.66069 -15.712079 82.837593
14360000000 -30.451471 167.92061 -48.291843 -167.35051 -48.244656 -169.49997 -15.240597 81.070152
14370000000 -29.57988 -173.17645 -48.818516 169.23718 -48.988899 166.28178 -14.954637 78.773712
14380000000 -28.156235 -172.50957 -48.167931 145.49847 -48.676147 141.7299 -14.71246 76.294548
14390000000 -26.486057 -175.57536 -48.170322 118.69215 -48.36396 119.59753 -14.470875 73.496742
14400000000 -26.239553 173.95728 -48.041393 97.228058 -48.02742 92.659615 -14.181285 70.962173
14410000000 -26.342369 165.138 -47.552216 71.441673 -47.963604 68.468231 -13.840373 68.300468
14420000000 -27.985769 155.6264 -46.797077 47.576923 -47.319008 48.378525 -13.513387 65.796814
14430000000 -29.41 160.05714 -46.431427 14.494779 -46.667023 16.610004 -13.280623 63.143845
14440000000 -30.648254 168.52231 -47.094479 -15.540922 -47.238377 -15.629826 -13.15985 60.995251
14450000000 -28.595564 -175.71492 -48.0154 -34.519066 -47.957569 -33.284637 -13.037519 59.222473
14460000000 -27.200628 -179.31526 -47.577976 -54.508785 -47.222107 -56.562626 -12.91616 57.153255
14470000000 -26.549654 177.7982 -46.77116 -80.924294 -46.771664 -82.515182 -12.834767 54.955437
14480000000 -26.355114 175.24448 -46.529484 -108.20805 -46.425842 -108.16433 -12.814934 53.355423
14490000000 -26.527552 170.31331 -45.764977 -132.71893 -45.611835 -134.13573 -12.846428 51.83139
14500000000 -27.314283 174.03195 -45.133461 -166.9185 -44.94492 -168.82054 -12.985082 50.628582
14510000000 -27.077763 173.09464 -45.729313 157.64732 -45.90847 155.02162 -13.083298 49.482166
14520000000 -27.640181 179.89864 -47.241055 128.57886 -47.324356 127.84739 -13.123381 47.363987
14530000000 -26.691532 174.23854 -48.049564 112.46416 -47.620312 113.47355 -13.14487 45.018074
14540000000 -27.216879 -179.57639 -46.990551 92.026054 -46.630165 87.93399 -13.117628 43.830334
14550000000 -26.064089 177.30447 -45.828903 62.26955 -45.951077 58.257469 -13.02887 43.349773
14560000000 -26.134684 -178.12778 -45.409863 27.118626 -45.1936 24.700529 -12.994055 43.235085
14570000000 -24.712099 179.40262 -45.248306 -6.1788702 -45.235172 -9.4682312 -13.028418 43.531334
14580000000 -24.080803 177.98969 -45.745983 -39.930817 -45.889057 -41.973736 -13.08687 43.491856
14590000000 -23.67864 169.5871 -46.255356 -70.994568 -46.051712 -73.117622 -13.052933 43.013638
14600000000 -24.324282 170.36986 -46.400246 -101.59961 -46.477058 -105.98565 -13.041666 41.827267
14610000000 -24.548082 166.75989 -46.851593 -131.7038 -46.691132 -132.37636 -13.035864 41.225704
14620000000 -25.206539 174.81862 -46.870972 -160.65698 -46.563263 -162.66348 -13.038312 40.999184
14630000000 -24.591433 177.47784 -47.34417 171.79617 -46.88298 166.07251 -13.036273 41.016689
14640000000 -23.421038 -178.93588 -46.193092 147.96617 -46.13081 143.29359 -13.001081 40.333588
14650000000 -22.326014 175.70102 -45.085922 112.97311 -45.016682 108.03625 -12.917352 38.930206
14660000000 -21.666586 170.65558 -44.536663 78.642731 -44.726192 75.510597 -12.803686 37.153751
14670000000 -21.745043 163.26959 -44.560829 42.872284 -44.505745 39.680195 -12.644094 35.783066
14680000000 -21.952208 159.12135 -45.279808 8.7184505 -45.355347 5.5538783 -12.503699 34.895008
14690000000 -22.891348 158.19553 -46.481918 -17.110344 -46.025036 -18.571793 -12.394246 34.650204
14700000000 -22.859219 164.61792 -45.511982 -34.859741 -45.237206 -39.867847 -12.313306 34.16869
14710000000 -22.352507 166.57498 -44.436527 -66.692726 -44.44799 -71.020813 -12.339554 33.086163
14720000000 -21.629068 166.97458 -44.190716 -99.675873 -44.175354 -101.88549 -12.440361 31.947657
14730000000 -20.995337 164.13806 -44.556339 -127.3353 -44.148537 -132.06996 -12.572704 30.383867
14740000000 -20.393738 157.74216 -44.108658 -152.5305 -44.199791 -157.91809 -12.709582 28.967737
14750000000 -20.799015 152.4608 -43.978291 -179.0338 -44.032902 176.19711 -12.869813 27.307177
14760000000 -20.799168 150.53918 -43.220596 150.83936 -43.544067 147.00957 -12.932582 25.690142
14770000000 -21.274868 147.89627 -43.825001 123.61227 -43.731514 120.13243 -12.951424 23.748585
14780000000 -20.949871 148.25459 -43.707462 98.456337 -44.054104 92.811592 -13.036312 22.092817
14790000000 -20.993429 147.09399 -43.633461 75.549706 -44.049232 71.679382 -13.146427 21.899874
14800000000 -20.663836 147.703 -42.97382 46.973404 -43.472752 45.766556 -13.247264 21.746328
14810000000 -20.574978 146.29631 -43.302963 18.128771 -43.313282 17.117212 -13.479808 21.600269
14820000000 -20.236425 146.23392 -43.887333 -4.9098554 -44.027843 -6.6228552 -13.68312 21.548878
14830000000 -20.228119 143.46858 -43.520634 -28.692125 -43.865955 -31.301022 -13.879464 20.948822
14840000000 -20.046835 141.05443 -43.281982 -52.112034 -43.95026 -53.470345 -14.12412 20.52725
14850000000 -20.213551 138.06201 -43.044376 -79.159912 -43.213554 -78.071129 -14.344039 21.154043
14860000000 -20.18685 134.48734 -43.569962 -104.12678 -43.550728 -104.67822 -14.554906 21.688339
14870000000 -20.880709 129.25365 -43.744484 -127.16169 -44.03434 -129.3665 -14.825051 21.974949
14880000000 -21.289488 128.89653 -43.622917 -148.96393 -43.98613 -149.46091 -15.051468 20.866392
14890000000 -21.647074 130.15347 -43.215267 -173.38394 -43.275307 -170.93808 -15.304731 19.749815
14900000000 -21.131357 131.06944 -43.403473 161.64819 -43.349239 161.98672 -15.30057 19.870073
14910000000 -20.809113 131.07066 -43.478245 138.50644 -43.531616 137.59872 -15.111676 20.787632
14920000000 -20.157143 127.3129 -43.325233 117.22061 -43.56065 116.26598 -15.04668 22.521294
14930000000 -20.22802 124.03725 -43.188507 91.211922 -43.338017 92.879166 -15.135439 25.054878
14940000000 -20.29229 118.18601 -43.311199 67.641342 -43.149529 67.842682 -15.358558 26.964108
14950000000 -21.308327 118.04869 -43.550987 46.500206 -43.307178 45.469246 -15.710181 27.971743
14960000000 -21.780735 116.21616 -42.899181 22.181896 -42.643066 23.217976 -15.945247 28.882317
14970000000 -22.55217 122.91244 -43.340694 -5.6078868 -42.928753 -5.8818269 -15.977374 29.516117
14980000000 -22.368301 120.72716 -43.701397 -26.321449 -43.300579 -27.033756 -15.96639 30.840824
14990000000 -22.321243 124.72236 -43.264118 -47.268215 -42.886604 -49.492245 -15.966795 32.497547
15000000000 -21.945368 117.9753 -43.52977 -72.315979 -43.160801 -74.679802 -15.981895 34.088909
15010000000 -22.173288 117.07746 -43.322048 -96.129967 -42.903652 -99.129135 -15.981081 34.422626
15020000000 -22.494831 109.06353 -43.593781 -122.06308 -43.370853 -125.46451 -15.879914 33.810726
15030000000 -23.365423 112.93067 -43.467735 -142.7618 -43.572456 -144.59398 -15.583076 33.744301
15040000000 -23.527233 110.77032 -44.203453 -166.93481 -43.601204 -169.04198 -15.153243 34.908878
15050000000 -23.668118 116.63723 -43.838833 172.48552 -43.565483 169.55885 -14.730821 37.132034
15060000000 -23.686504 114.74911 -43.92197 149.15474 -43.719322 144.90952 -14.471435 39.178082
15070000000 -23.843224 119.1523 -43.550858 124.82283 -43.721954 121.00209 -14.431015 40.29731
15080000000 -24.028664 118.35871 -44.26424 100.22379 -44.272175 96.857712 -14.528761 40.526318
15090000000 -23.850153 121.01718 -43.819447 78.085373 -43.968658 73.167381 -14.52518 39.765587
15100000000 -24.338306 118.50974 -44.213631 54.452557 -44.642075 49.990494 -14.449717 38.469471
15110000000 -24.43788 121.87611 -44.46735 28.597569 -44.96711 25.88356 -14.239014 37.748222
15120000000 -24.625217 121.76347 -44.838039 6.0639706 -45.055935 4.0359998 -13.986361 36.760845
15130000000 -24.268553 119.19175 -45.463791 -13.639293 -45.9146 -16.159014 -13.886667 35.853699
15140000000 -25.287117 117.37078 -45.194416 -33.959553 -45.651844 -35.625095 -13.773157 34.997524
15150000000 -25.132235 124.3787 -45.190536 -59.753582 -45.601875 -59.132397 -13.584647 33.758045
15160000000 -24.965443 127.73633 -45.56427 -80.244858 -45.754353 -78.2453 -13.440941 32.719841
15170000000 -23.808636 128.83612 -44.737144 -100.24468 -44.672283 -102.06924 -13.343987 32.586597
15180000000 -23.683857 126.39261 -44.914337 -132.35693 -45.192799 -132.15199 -13.274055 33.011772
15190000000 -23.184532 125.44199 -45.515198 -159.41486 -45.637314 -159.46526 -13.350345 32.898262
15200000000 -23.553158 124.76292 -47.30497 -179.46808 -47.318954 -177.10623 -13.508406 32.38644
15210000000 -23.307896 122.04745 -47.113056 169.34056 -47.006927 169.79663 -13.694946 31.310202
15220000000 -24.480265 124.45753 -46.464344 145.07526 -46.123062 147.1254 -13.82914 29.50914
15230000000 -23.897942 128.65666 -45.64954 120.51653 -45.568504 121.23383 -13.955256 27.982489
15240000000 -23.687735 130.41573 -46.329079 89.676025 -45.925476 88.398163 -14.045439 27.110188
15250000000 -22.766541 127.18357 -46.943394 66.818481 -46.782928 65.839119 -14.068007 26.785421
15260000000 -22.980137 123.11716 -48.191521 45.903854 -47.981144 43.272179 -13.982478 26.458029
15270000000 -22.885479 121.95895 -47.501842 25.705717 -47.057003 23.470608 -13.973811 26.046047
15280000000 -22.756832 119.96252 -47.593353 1.9642414 -47.590145 -0.50216627 -14.012161 26.976604
15290000000 -22.646297 117.55982 -48.738106 -28.243 -48.444248 -27.493504 -14.014803 28.433609
15300000000 -22.920294 115.89902 -49.418121 -43.781483 -49.215927 -43.803379 -14.133973 29.590317
15310000000 -22.899244 116.35058 -49.199509 -64.557304 -48.58617 -65.091522 -14.368052 30.430248
15320000000 -22.913626 115.74267 -48.254894 -87.538933 -47.928341 -91.508743 -14.573637 30.982742
15330000000 -22.710976 114.87865 -48.556118 -121.10398 -48.534695 -124.05534 -14.700574 30.755884
15340000000 -23.08688 110.73102 -50.235546 -150.14529 -50.11256 -149.94127 -14.726543 30.31654
15350000000 -23.430819 115.70531 -51.833641 -164.20799 -51.104221 -171.92146 -14.653041 30.15099
15360000000 -22.882841 112.9672 -50.364994 178.91743 -50.291565 175.36125 -14.687892 30.353931
15370000000 -22.823231 110.90654 -49.957821 147.3262 -49.580547 140.76993 -14.655369 30.834455
15380000000 -22.610092 103.37968 -50.383297 111.74645 -50.532467 101.89431 -14.572562 30.620039
15390000000 -23.511898 100.23737 -54.170227 77.280319 -55.574493 67.700974 -14.411875 30.114086
15400000000 -23.926302 97.233475 -54.840881 81.302658 -55.044891 76.044548 -14.23737 29.950567
15410000000 -24.594561 97.341911 -51.963272 54.642555 -53.000309 53.42844 -14.066972 30.922323
15420000000 -25.407373 96.955544 -51.550407 14.33125 -52.047977 12.62654 -14.019285 32.448963
15430000000 -25.2915 103.89316 -52.835835 -25.915842 -53.265541 -31.310411 -14.065936 33.932304
15440000000 -24.585875 101.18661 -54.259666 -55.905697 -54.423222 -60.758202 -14.231176 33.8717
15450000000 -24.515827 97.355652 -53.727127 -96.776108 -54.96244 -102.41426 -14.476881 32.690231
15460000000 -24.710585 88.405922 -57.804882 -140.43607 -57.64402 -138.39171 -14.65161 30.846033
15470000000 -26.082846 86.155396 -60.867992 -161.79301 -61.16415 -170.54504 -14.646125 29.663195
15480000000 -26.882505 80.686127 -61.147518 -150.43161 -63.946697 -138.13533 -14.513165 29.284437
15490000000 -28.314835 85.288506 -56.870316 168.20287 -56.83128 170.35793 -14.3561 29.411728
15500000000 -28.743546 84.46978 -54.543877 141.78822 -54.581982 140.31233 -14.331504 29.579353
15510000000 -28.964952 88.523186 -53.022499 93.232269 -53.047951 90.887405 -14.375124 30.135216
15520000000 -29.29953 82.277405 -52.922131 55.578701 -53.187813 50.325741 -14.415787 30.941549
15530000000 -29.635593 81.327492 -52.846428 20.107206 -53.039745 18.043468 -14.384678 31.832666
15540000000 -31.46855 70.702087 -54.15081 -9.5911674 -54.175632 -8.1458864 -14.419293 32.960342
15550000000 -32.895023 83.881523 -53.434258 -29.325356 -53.49062 -31.967093 -14.470942 34.598099
15560000000 -34.638687 79.9496 -53.381046 -56.278091 -54.116428 -57.542233 -14.548464 35.414623
15570000000 -34.637852 91.518723 -52.762672 -68.324837 -52.705826 -63.442719 -14.712867 35.534008
15580000000 -36.406979 68.993744 -50.226868 -88.515846 -49.86319 -91.865112 -14.8875 35.720928
15590000000 -37.900127 81.077583 -48.543121 -124.10958 -48.195606 -126.03613 -14.912393 35.560841
15600000000 -42.167385 17.795687 -48.587009 -160.71315 -48.658237 -161.74522 -14.859285 34.778786
15610000000 -47.049656 -121.17532 -49.050877 175.2077 -48.857758 173.04097 -14.759096 34.353886
15620000000 -40.684391 -125.21823 -49.613113 159.76399 -49.362564 160.96008 -14.57573 34.306915
15630000000 -36.940823 -166.40529 -47.618774 140.21083 -47.446774 137.00259 -14.346539 34.761639
15640000000 -39.478745 -168.26779 -46.404949 112.31426 -46.505424 112.00974 -14.156465 35.301319
15650000000 -39.65324 -175.06992 -45.9245 78.818443 -45.509453 77.027382 -14.115226 36.466534
15660000000 -39.213272 -123.75247 -46.71748 52.225811 -46.975796 51.405567 -14.147285 38.074905
15670000000 -36.077648 -134.00304 -47.131733 32.423805 -46.564453 34.199593 -14.246274 39.063694
15680000000 -31.81813 -115.35059 -46.60474 16.07502 -46.057384 11.949783 -14.363287 38.942459
15690000000 -29.076263 -136.3494 -45.335583 -6.5039387 -45.135715 -9.4431543 -14.425238 38.425003
15700000000 -28.032249 -141.56271 -43.955376 -35.380508 -44.045002 -37.20631 -14.456387 37.743454
15710000000 -28.256063 -155.37514 -44.05167 -70.350273 -43.986088 -72.255829 -14.501198 37.949402
15720000000 -28.848455 -148.89169 -45.316807 -92.139816 -45.01387 -92.739029 -14.430484 39.123058
15730000000 -28.828571 -144.88399 -44.978382 -109.79597 -44.981956 -112.72122 -14.342729 39.360725
15740000000 -27.190493 -140.23767 -44.564892 -133.45387 -44.506489 -136.81763 -14.314491 39.241146
15750000000 -26.818205 -143.16145 -43.932861 -158.30711 -43.976471 -160.05676 -14.143143 39.211216
15760000000 -25.593538 -143.58308 -44.515789 175.24611 -44.258503 173.06934 -13.883347 39.432327
15770000000 -25.21393 -149.13274 -44.262833 155.58792 -44.299351 153.02536 -13.593714 40.982792
15780000000 -25.068462 -151.82507 -43.767109 129.88605 -43.910496 128.69324 -13.322061 43.158485
15790000000 -25.31008 -151.76595 -44.109417 106.31213 -44.133343 103.43649 -13.225163 45.039219
15800000000 -24.507961 -147.70308 -43.830601 82.114708 -43.912853 81.467781 -13.258407 46.473763
15810000000 -23.617186 -148.36856 -44.569557 55.094624 -44.636597 54.778591 -13.306472 46.177429
15820000000 -22.684027 -152.10158 -44.675316 38.021343 -44.751892 38.363461 -13.329582 44.864563
15830000000 -22.697073 -155.64862 -44.903824 16.762455 -44.745979 16.059629 -13.156738 43.30521
15840000000 -22.739552 -156.49275 -44.750072 -3.7795348 -44.465633 -4.691793 -12.894406 41.915123
15850000000 -23.226213 -157.28197 -44.062908 -27.524622 -44.216438 -29.490396 -12.617159 41.018856
15860000000 -22.945919 -151.45137 -43.986122 -51.160736 -44.28429 -51.330521 -12.337586 40.649616
15870000000 -22.557247 -150.91046 -44.427788 -72.303009 -44.309238 -71.709259 -12.056097 40.087616
15880000000 -21.763807 -148.95381 -44.230003 -92.183617 -43.898785 -94.468849 -11.803302 39.217236
15890000000 -21.152342 -152.47717 -43.903206 -115.74384 -43.805733 -116.96009 -11.602152 38.844646
15900000000 -20.839169 -157.97874 -43.298553 -140.11137 -43.157619 -142.17929 -11.389126 38.736549
15910000000 -21.297762 -161.01573 -44.200203 -164.77423 -44.089474 -166.77124 -11.227624 38.503227
15920000000 -21.239866 -158.77972 -44.439812 175.41786 -44.116257 175.18091 -11.143396 37.800564
15930000000 -21.211895 -156.65686 -44.172138 159.35536 -43.705105 156.59261 -11.186398 36.6726
15940000000 -20.557467 -154.02579 -43.02528 135.07674 -42.90596 132.68604 -11.250918 35.299633
15950000000 -20.037727 -154.72551 -42.994846 108.19353 -42.839661 104.62598 -11.241622 33.452209
15960000000 -19.540741 -155.75269 -43.51255 86.891701 -43.613388 84.05584 -11.179501 31.122301
15970000000 -19.412086 -156.90268 -42.875393 66.335388 -42.91729 63.061581 -11.092662 28.535526
15980000000 -19.515802 -156.57434 -42.498604 41.086285 -42.570274 39.01746 -10.975499 26.403702
15990000000 -19.423546 -154.46692 -42.317375 15.470632 -42.430653 12.682149 -10.809613 24.773676
16000000000 -19.054094 -153.19591 -43.091297 -10.125055 -43.037689 -12.007852 -10.684235 23.846741
16010000000 -18.471983 -153.75938 -43.155411 -27.798227 -43.341206 -30.652138 -10.604484 23.265894
16020000000 -18.107264 -156.25066 -42.823883 -50.066624 -42.792881 -52.03194 -10.656151 22.488531
16030000000 -17.943321 -157.89937 -42.257545 -74.535789 -42.350224 -77.643173 -10.830514 21.459961
16040000000 -17.963917 -158.77615 -42.391281 -100.70853 -42.697308 -102.81797 -11.037354 20.052851
16050000000 -17.942734 -158.28008 -42.948208 -126.26692 -43.07 -127.45925 -11.138404 18.202143
16060000000 -17.538988 -155.06937 -43.486732 -146.73608 -43.605923 -147.77965 -11.240458 15.554027
16070000000 -16.886801 -154.24089 -42.846806 -165.96568 -42.816277 -167.24057 -11.378569 13.411499
16080000000 -16.133715 -154.66164 -42.493843 167.37329 -42.536697 166.55547 -11.56368 11.722639
16090000000 -15.68682 -157.81877 -42.743923 142.07205 -42.755791 140.09753 -11.738462 9.9180946
16100000000 -15.699965 -160.14323 -43.126308 116.83261 -43.152763 116.47336 -11.890809 8.0204878
16110000000 -15.804618 -161.22888 -43.238785 95.113968 -43.18129 92.574219 -11.91591 6.8834176
16120000000 -15.814367 -159.90147 -43.401539 72.140945 -43.380344 71.208122 -11.86411 6.0062103
16130000000 -15.528358 -158.38797 -43.226006 49.736301 -43.265163 47.786671 -11.872118 6.1992064
16140000000 -14.999425 -157.51303 -43.196072 25.289549 -43.280159 22.846193 -12.047121 6.9074793
16150000000 -14.386489 -159.19601 -43.595524 -0.76154494 -43.511536 -2.7992084 -12.435344 7.6989756
16160000000 -13.91007 -161.79272 -43.809498 -23.360271 -43.893929 -24.279459 -12.87563 7.8288655
16170000000 -13.693847 -164.26904 -43.824532 -47.995258 -43.657433 -49.661003 -13.258771 6.5979033
16180000000 -13.571297 -165.2758 -44.028442 -74.183533 -44.029446 -75.086441 -13.484686 4.6152725
16190000000 -13.478128 -165.85826 -44.639912 -100.4045 -44.29274 -101.31321 -13.562193 2.488739
16200000000 -13.252905 -164.63016 -44.766987 -122.15269 -44.596169 -124.99974 -13.619424 1.278574
16210000000 -12.87886 -165.39102 -45.065674 -147.58829 -45.183315 -148.71156 -13.684944 0.57164979
16220000000 -12.574038 -165.49286 -45.070278 -173.66451 -45.009468 -174.85956 -13.783589 0.15950267
16230000000 -12.289625 -167.73528 -45.810692 162.94652 -45.567863 161.2701 -13.831497 -0.37582773
16240000000 -12.209837 -168.14267 -45.64835 133.32594 -45.567776 130.35484 -13.812961 -0.17037861
16250000000 -11.997942 -169.60535 -46.311272 108.54125 -46.508892 105.54433 -13.751417 0.38748804
16260000000 -11.735057 -170.30975 -47.179394 77.846008 -47.219662 75.910172 -13.845619 1.7109584
16270000000 -11.400629 -172.22173 -47.901405 55.734966 -48.021542 54.337929 -14.039801 3.087261
16280000000 -11.151817 -174.02536 -47.82983 27.620241 -47.878452 26.937887 -14.374091 3.511025
16290000000 -10.930354 -175.95844 -49.468307 -3.7913485 -48.911629 -3.9181104 -14.734459 2.172755
16300000000 -10.835088 -177.21243 -50.15189 -31.438244 -49.801502 -33.569939 -15.011724 -0.38317439
16310000000 -10.748175 -178.09914 -51.670788 -63.270794 -51.339455 -63.409973 -15.099478 -3.1251426
16320000000 -10.613015 -177.23274 -52.674976 -90.242523 -51.924583 -92.047829 -15.099981 -5.3351994
16330000000 -10.263591 -177.16249 -53.592785 -111.60501 -53.34676 -122.82303 -15.102762 -6.4249721
16340000000 -9.8663034 -177.88148 -52.971661 -146.34557 -53.454475 -153.73094 -15.116515 -7.3228302
16350000000 -9.5750227 179.60132 -52.822067 176.85994 -53.448708 171.07387 -15.114849 -8.0883303
16360000000 -9.438818 177.24731 -53.060127 131.01126 -53.294956 131.43712 -15.123273 -8.9318848
16370000000 -9.4646196 174.80934 -53.547943 97.053413 -53.214375 96.732513 -15.236227 -9.3009558
16380000000 -9.4908428 173.61732 -52.470131 46.37608 -52.862354 48.299595 -15.575342 -8.9119053
16390000000 -9.4894152 173.07861 -54.283573 15.22079 -53.849056 20.699072 -16.108831 -8.2743301
16400000000 -9.3089533 173.50858 -54.887428 -15.283834 -54.138512 -10.882317 -16.654621 -9.1966
16410000000 -8.9283781 173.06207 -54.298809 -33.935131 -53.388031 -36.12545 -17.21468 -11.830866
16420000000 -8.5538712 171.7189 -52.338474 -60.464478 -51.860012 -60.271954 -17.56745 -15.593892
16430000000 -8.2948599 169.68549 -51.327404 -87.804146 -50.294777 -92.423653 -17.86216 -18.270836
16440000000 -8.1891108 168.02272 -49.633823 -114.98686 -49.320034 -121.23929 -18.14172 -19.141479
16450000000 -8.1576443 166.73381 -48.745354 -145.97368 -48.587013 -149.81879 -18.486359 -19.287771
16460000000 -8.1009941 166.08 -48.361511 -178.95316 -48.360004 177.72157 -18.850552 -18.999798
16470000000 -8.0604153 165.38423 -48.04385 155.26474 -48.138977 153.40358 -19.194338 -18.848661
16480000000 -7.9298086 164.95842 -48.164921 126.80126 -47.861572 123.12196 -19.406498 -17.9925
16490000000 -7.7702317 163.86594 -47.924286 101.51187 -47.728355 96.569839 -19.669197 -14.670102
16500000000 -7.609942 162.97731 -47.589825 79.467834 -47.807175 74.131416 -19.914541 -9.9996519
16510000000 -7.4266181 161.31754 -47.299294 50.902184 -47.766712 49.766174 -20.579981 -5.6038857
16520000000 -7.2734175 160.55162 -46.916473 30.72225 -47.388199 29.558712 -21.569151 -2.3353488
16530000000 -7.0406623 159.08984 -46.668766 1.8914292 -46.887142 1.5938048 -22.55064 -2.1904821
16540000000 -6.9114428 157.99123 -47.056614 -20.878977 -46.826809 -22.862955 -22.883093 -5.0138888
16550000000 -6.7626991 156.71759 -46.564079 -46.329788 -46.708527 -49.822399 -22.743706 -8.3520918
16560000000 -6.7033577 155.91199 -46.585434 -72.107201 -46.651009 -74.802979 -22.431494 -9.0632286
16570000000 -6.618988 155.08882 -46.758461 -95.523026 -46.689487 -100.47739 -22.442379 -6.470685
16580000000 -6.5428638 154.8936 -46.847477 -122.04156 -47.187702 -125.0024 -22.551323 -3.1600697
16590000000 -6.3808894 154.32631 -47.700935 -144.1082 -48.274231 -145.47148 -22.710539 -0.75860286
16600000000 -6.1736746 153.58255 -47.13464 -159.76613 -47.307487 -162.53336 -22.818409 -0.78767401
16610000000 -5.9561772 151.96115 -46.873901 171.01265 -47.284168 169.74464 -22.972788 0.74733305
16620000000 -5.7914896 150.34372 -47.140728 150.58981 -47.365597 152.00694 -23.055666 4.8559737
16630000000 -5.6743312 148.42828 -46.52441 129.5197 -46.706017 128.68967 -23.387434 11.595411
16640000000 -5.6135335 147.3916 -46.602737 99.856651 -46.89217 101.36252 -23.960873 18.48897
16650000000 -5.4873033 146.55875 -47.302197 80.706245 -47.449188 79.930885 -24.98914 23.34269
16660000000 -5.3438411 146.11151 -47.094193 55.568874 -47.241371 57.968868 -26.183855 24.721233
16670000000 -5.126451 145.49529 -47.69664 33.259781 -47.472382 36.314121 -26.709585 21.76354
16680000000 -4.9255943 144.58087 -47.965462 10.786009 -47.532986 11.40427 -26.309175 18.1663
16690000000 -4.7210364 143.26633 -47.971165 -8.0301075 -47.642403 -8.64254 -25.584446 18.488863
16700000000 -4.6066017 141.92233 -48.103916 -26.357212 -47.684525 -28.422129 -24.728859 23.692722
16710000000 -4.4910502 140.59758 -46.977131 -49.55674 -46.699364 -52.494789 -24.011053 30.229078
16720000000 -4.3826981 139.41159 -46.824284 -76.341675 -47.078037 -79.388672 -23.376747 35.955833
16730000000 -4.2419095 138.09756 -47.015678 -104.43185 -46.83197 -105.30115 -22.933004 39.063442
16740000000 -4.1040311 136.89143 -48.652519 -122.62964 -48.214798 -124.58864 -22.68828 40.76487
16750000000 -3.9411979 135.49722 -47.927296 -139.29654 -47.853462 -144.42314 -22.559071 42.543865
16760000000 -3.7913356 134.28217 -47.041527 -163.73558 -47.018841 -167.08813 -22.444349 44.725727
16770000000 -3.6326249 132.86188 -47.083111 167.0723 -47.213135 164.42055 -22.345562 45.293877
16780000000 -3.5026934 131.81116 -47.933167 144.58185 -47.902622 143.23474 -22.458746 44.106171
16790000000 -3.3450539 130.57935 -48.19511 122.98631 -47.958328 118.57815 -22.596388 40.621979
16800000000 -3.2082024 129.28461 -48.194435 100.63666 -48.409412 97.197899 -22.565901 35.626404
16810000000 -3.0775726 127.84486 -48.192768 78.830795 -48.624531 77.53907 -22.310396 30.06315
16820000000 -2.9657967 126.27129 -48.321289 53.679043 -48.446789 51.936718 -21.842293 26.067949
16830000000 -2.8691049 124.63539 -48.653889 30.972248 -48.485275 30.055561 -21.316118 23.767874
16840000000 -2.7702901 123.23692 -48.504311 7.7456594 -48.699841 3.2224178 -20.908516 23.256182
16850000000 -2.64975 121.70428 -49.09433 -16.284441 -49.552902 -20.200388 -20.648067 24.089663
16860000000 -2.5232911 120.32354 -49.474945 -40.454681 -49.804768 -41.247387 -20.682205 25.302145
16870000000 -2.3834784 118.83843 -50.093895 -58.657043 -50.495239 -59.612206 -20.975328 26.856628
16880000000 -2.2508748 117.39487 -49.784573 -79.026718 -49.749233 -80.26944 -21.69113 26.853687
16890000000 -2.1336284 115.87769 -49.53096 -105.30515 -49.906544 -107.68564 -22.636219 25.01405
16900000000 -2.0366189 114.56788 -50.383263 -133.82553 -51.169914 -133.97696 -23.754225 19.876385
16910000000 -1.9395021 113.1216 -51.020969 -153.62057 -51.724529 -149.83093 -24.602804 13.677478
16920000000 -1.8627921 111.77396 -51.573959 -174.1198 -51.625416 -169.69815 -25.037909 7.7575111
16930000000 -1.7722588 110.23573 -52.070049 166.65164 -51.785027 168.14194 -25.174805 3.9507689
16940000000 -1.6993607 108.67968 -51.373783 145.67336 -50.776791 147.05753 -25.471783 1.7063477
16950000000 -1.6101171 106.98396 -51.254078 113.3735 -51.027367 112.2842 -26.150663 2.3918438
16960000000 -1.5311537 105.3652 -53.418385 88.268082 -52.879906 90.513069 -27.21559 7.0430632
16970000000 -1.4403043 103.6972 -53.989143 71.212692 -53.016663 72.652473 -28.062626 16.460592
16980000000 -1.3557798 102.16571 -53.809978 52.215954 -53.136364 50.235416 -29.040665 27.120852
16990000000 -1.2538942 100.5958 -53.774723 26.21014 -53.36879 21.627691 -29.938992 42.730225
17000000000 -1.1648312 99.07354 -54.693249 0.25985014 -54.236477 0.40736747 -30.399736 61.277527
