!Keysight Technologies,P9374A,MY57211807,A.19.30.04
!Date: Friday, May 08, 2026 14:33:06
!Correction: S11(C  2-Port  ) 
!S21(C  2-Port  ) 
!S12(C  2-Port  ) 
!S22(C  2-Port  ) 
!S2P File: Measurements: S11, S21, S12, S22:
# Hz S  dB   R 50
13000000000 -18.974207 57.658054 -43.724239 142.72154 -43.559559 141.17352 -8.6856174 22.886311
13010000000 -19.156744 58.51997 -42.358711 123.46925 -42.323433 121.08901 -8.73703 19.044151
13020000000 -19.450762 60.519508 -41.570068 102.30861 -41.572037 100.65229 -8.8779688 15.371297
13030000000 -19.37871 62.472488 -40.850323 75.061142 -40.764606 73.347702 -9.0422983 11.926264
13040000000 -19.765997 62.574253 -41.726974 52.00161 -41.504059 49.92738 -9.2029514 8.8362436
13050000000 -19.615419 64.760796 -41.822605 37.173382 -41.77739 33.496418 -9.4270554 5.7074189
13060000000 -19.702364 63.384586 -40.7603 21.326534 -40.921196 18.358063 -9.760746 2.6702271
13070000000 -19.785954 62.091133 -39.549496 -1.4756936 -39.767517 -3.9006801 -10.168471 -0.27821296
13080000000 -19.901012 63.428082 -38.866711 -27.04295 -39.030647 -28.847099 -10.637875 -3.4275305
13090000000 -19.565886 61.573917 -38.721031 -52.733624 -38.822155 -54.492138 -11.076932 -6.4616485
13100000000 -19.726673 61.560688 -38.811821 -76.170174 -38.991936 -78.595947 -11.453985 -8.9736633
13110000000 -19.436728 60.803513 -38.782379 -94.6101 -39.202747 -96.576637 -11.825661 -11.298773
13120000000 -19.634493 60.519478 -38.070427 -118.05807 -38.385132 -118.78197 -12.310198 -13.358273
13130000000 -19.510159 59.71254 -37.782326 -141.94092 -37.992718 -141.93668 -12.889991 -15.165518
13140000000 -19.860229 62.794323 -37.701347 -166.8918 -37.816975 -167.58766 -13.574986 -17.119417
13150000000 -19.349094 62.610741 -37.861183 168.82843 -38.017544 168.3887 -14.219469 -18.493191
13160000000 -19.435225 63.258514 -38.242634 151.26523 -38.446625 150.28938 -14.77314 -19.194132
13170000000 -19.128557 61.501553 -37.536858 130.23886 -37.763859 131.06238 -15.286647 -19.180748
13180000000 -19.223732 59.359882 -36.968464 107.02809 -36.948326 107.97862 -15.901944 -19.120998
13190000000 -19.132534 56.53846 -36.731506 81.021088 -36.752502 81.140671 -16.860022 -18.723089
13200000000 -19.466276 55.399303 -36.4939 55.286457 -36.55933 55.951729 -17.977306 -17.805393
13210000000 -19.439991 54.505604 -37.198498 30.524553 -37.010235 31.225183 -19.046244 -16.955935
13220000000 -19.582054 54.928059 -37.431267 10.513664 -37.398487 10.980581 -19.769581 -15.522346
13230000000 -19.217178 53.47366 -37.4147 -9.4512043 -37.267662 -8.7991724 -20.268072 -13.025265
13240000000 -19.451315 53.403542 -37.17971 -29.157784 -36.795628 -29.760384 -20.709642 -8.6012726
13250000000 -19.177835 51.93512 -36.620796 -52.006599 -36.53154 -52.7971 -21.357828 -0.64053911
13260000000 -19.410929 52.581036 -36.169548 -77.597488 -35.97123 -77.354431 -22.018921 10.309641
13270000000 -19.272049 50.533848 -36.527027 -102.07247 -36.184925 -102.99935 -22.404613 21.642284
13280000000 -19.352985 50.721382 -36.601471 -124.51865 -36.394165 -126.20071 -22.474855 30.371363
13290000000 -19.129913 47.418739 -36.595909 -147.09322 -36.317333 -148.30716 -22.357214 35.972561
13300000000 -19.268642 44.754826 -36.734962 -168.97101 -36.493732 -171.03371 -21.84359 40.493366
13310000000 -19.574234 40.291801 -36.493961 170.29047 -36.360344 167.92601 -20.889427 44.762856
13320000000 -19.990757 38.86171 -36.14521 145.60954 -36.06192 143.51117 -19.787271 49.230061
13330000000 -20.451851 37.895237 -36.21809 122.2436 -36.175549 119.96204 -18.861559 52.615849
13340000000 -20.620626 42.26371 -36.288666 98.545692 -36.195541 96.149971 -18.160084 55.120899
13350000000 -20.232986 42.530537 -36.275368 75.038155 -36.299519 72.476059 -17.649145 55.791019
13360000000 -19.686415 42.755085 -36.198483 52.828854 -36.261738 50.620373 -17.172743 54.583622
13370000000 -19.289854 37.882965 -36.104908 27.949617 -36.077393 26.103481 -16.516382 52.308529
13380000000 -19.318832 32.087322 -36.357391 4.1446147 -36.449917 1.9283715 -15.657395 50.069866
13390000000 -20.285933 26.754923 -36.520813 -19.61482 -36.57756 -21.289385 -14.773572 48.18927
13400000000 -20.993971 27.043928 -36.899479 -43.302074 -36.983894 -45.173424 -14.099607 47.20433
13410000000 -21.892279 25.493179 -36.85939 -63.661736 -36.994698 -65.757744 -13.638263 46.922512
13420000000 -22.168596 31.986948 -36.915771 -88.704208 -37.012695 -90.352722 -13.354151 45.897156
13430000000 -21.76586 30.753723 -36.739971 -113.11076 -36.951256 -114.88191 -13.109823 43.790329
13440000000 -21.486355 29.748343 -37.133789 -139.11777 -37.346325 -139.94647 -12.938445 40.331116
13450000000 -21.140181 26.304409 -37.954781 -163.31477 -38.16431 -164.33481 -12.688293 36.605003
13460000000 -21.166679 21.513535 -38.297165 177.14865 -38.496773 176.60909 -12.429878 33.252865
13470000000 -21.997776 17.717384 -38.503479 152.86922 -38.744114 152.21451 -12.191798 30.653538
13480000000 -22.122324 19.168985 -38.797298 130.02235 -39.152172 131.21906 -12.027936 28.341557
13490000000 -22.850262 15.102464 -39.517818 107.80125 -39.499508 109.3051 -11.963858 26.035061
13500000000 -23.192242 15.955918 -39.550331 85.684166 -39.626465 86.248932 -12.045776 23.562948
13510000000 -23.865152 15.840211 -40.186245 60.618504 -40.21085 61.8825 -12.15604 21.276703
13520000000 -24.394688 17.09429 -41.424015 40.180099 -41.298855 42.093788 -12.290299 19.026911
13530000000 -24.825102 17.080143 -41.800655 21.737099 -41.332455 23.543568 -12.459759 17.422483
13540000000 -24.504089 19.973509 -42.354919 3.6970799 -41.937263 4.0423479 -12.651201 15.794384
13550000000 -24.037249 19.130175 -42.454609 -13.591479 -41.979664 -13.038219 -12.922496 14.423744
13560000000 -23.4216 13.029512 -42.349823 -33.654953 -41.703098 -33.710964 -13.228878 13.097069
13570000000 -24.321629 6.5452728 -42.428253 -57.291576 -41.584492 -58.69043 -13.542991 11.969011
13580000000 -24.774117 3.1778817 -43.63554 -73.695953 -42.986973 -78.945709 -13.707025 11.346945
13590000000 -27.061975 -0.21800528 -43.056652 -91.985054 -42.907875 -97.419189 -13.855246 10.890455
13600000000 -28.052933 13.010665 -43.464954 -110.05942 -43.343746 -114.28292 -13.943728 11.449807
13610000000 -28.004181 25.729645 -42.915901 -125.00798 -42.940739 -128.91956 -13.989885 12.5429
13620000000 -26.64069 27.794306 -42.189651 -146.38504 -42.319595 -150.92613 -14.073932 13.850728
13630000000 -25.865522 24.902649 -41.830769 -165.4072 -41.958649 -170.12497 -14.164546 15.083755
13640000000 -25.37435 12.955446 -40.874897 170.89148 -41.384521 166.77614 -14.175115 16.361801
13650000000 -26.905092 4.8818727 -40.474419 146.00085 -40.959747 143.19617 -14.100497 16.34956
13660000000 -27.915558 0.98911661 -40.582691 119.51962 -41.007076 117.94476 -14.001835 16.136887
13670000000 -30.174913 8.1221762 -40.983833 95.759636 -41.368351 94.416771 -13.788279 15.436522
13680000000 -29.848425 18.492943 -41.48457 76.754265 -42.11195 76.203133 -13.539412 15.086749
13690000000 -29.197306 26.462564 -40.665524 59.869129 -41.104935 60.698914 -13.208428 14.339868
13700000000 -27.753546 27.482586 -40.030205 33.523083 -40.243084 34.826748 -13.009469 13.379831
13710000000 -27.157719 25.737663 -39.640816 6.7872958 -39.744911 7.1903801 -12.789014 12.110087
13720000000 -27.088634 20.150768 -39.877182 -19.97113 -40.026417 -19.272734 -12.673471 9.9505301
13730000000 -28.007338 20.687761 -40.166344 -46.682381 -40.328281 -44.840103 -12.555374 7.7066665
13740000000 -27.822475 19.40242 -40.791508 -70.202202 -40.823643 -68.433556 -12.48273 5.3105083
13750000000 -28.713758 17.932953 -41.228451 -92.767128 -41.161285 -90.878212 -12.377897 3.0177383
13760000000 -28.868334 14.937981 -41.296738 -112.89634 -40.930908 -111.40974 -12.473003 0.55920011
13770000000 -30.231466 15.152723 -40.961502 -140.71899 -40.695454 -139.65712 -12.634927 -1.5263656
13780000000 -30.451202 19.903545 -41.44038 -167.67543 -41.026627 -166.81735 -12.889139 -4.7656579
13790000000 -29.753164 27.855947 -42.026958 167.54105 -41.552616 168.23354 -13.226954 -8.09167
13800000000 -27.955452 26.826698 -42.77813 141.20679 -42.135628 141.72566 -13.496043 -11.797176
13810000000 -26.555077 21.149504 -44.112713 120.45673 -43.315971 119.09505 -13.734248 -14.543148
13820000000 -26.093544 7.5613155 -44.343628 99.260002 -43.697361 96.467003 -14.025458 -16.942741
13830000000 -26.580328 3.116683 -44.862537 73.682831 -44.313995 70.967384 -14.451428 -17.964579
13840000000 -26.96349 -10.243525 -46.038895 48.287064 -45.346848 44.606632 -14.930876 -18.776564
13850000000 -30.458908 -9.2154818 -47.964977 24.828875 -46.925148 19.472219 -15.581884 -19.812773
13860000000 -31.026556 2.9522738 -48.823112 11.714846 -48.223282 1.946896 -16.2873 -20.682627
13870000000 -30.068789 15.386127 -49.836105 -6.775672 -49.889698 -19.199692 -16.92005 -20.811491
13880000000 -28.373383 13.838867 -49.753605 -22.966038 -50.452789 -31.011614 -17.484781 -20.279411
13890000000 -26.717508 4.7838817 -50.246319 -54.089287 -50.876781 -58.51535 -18.134832 -18.940447
13900000000 -26.599394 -9.6246786 -51.930897 -76.467026 -52.851093 -86.243195 -18.811773 -15.72767
13910000000 -27.046085 -17.881742 -57.773777 -101.22726 -59.530598 -117.11444 -19.423103 -12.591383
13920000000 -27.818035 -27.735567 -58.570953 -66.852737 -61.108673 -58.692642 -19.892469 -9.6312399
13930000000 -29.605515 -30.80459 -55.965813 -70.91217 -56.965939 -54.979622 -20.109537 -7.0404286
13940000000 -30.391487 -28.06551 -53.203278 -79.337692 -52.848476 -66.7715 -20.039091 -4.1670709
13950000000 -30.385195 -29.616892 -51.125023 -109.5507 -50.173012 -102.62068 -19.786411 -1.2349983
13960000000 -30.944838 -34.119255 -50.655094 -132.35982 -50.019825 -131.12862 -19.599625 2.9646099
13970000000 -31.039055 -32.82703 -51.77993 -147.05713 -51.201393 -146.27333 -19.278879 7.2316003
13980000000 -30.38135 -39.861057 -50.19912 -161.26543 -49.32877 -158.71516 -19.024984 11.199801
13990000000 -29.950905 -45.767467 -47.580875 -178.57521 -46.963306 179.24034 -18.818497 12.818451
14000000000 -29.324917 -50.952873 -46.700745 153.15475 -46.061035 149.58713 -18.87145 13.566976
14010000000 -27.744503 -56.614792 -46.361542 127.37904 -46.1464 123.37256 -19.003942 13.699024
14020000000 -27.157402 -68.654991 -45.614784 104.02276 -45.403885 102.94308 -19.039755 13.977896
14030000000 -27.358311 -81.495895 -45.622269 79.972343 -45.435085 78.336052 -18.919355 13.801019
14040000000 -29.037472 -93.063538 -44.469906 59.029617 -44.306091 55.822838 -18.86858 12.885418
14050000000 -30.814758 -90.987717 -43.534576 34.578011 -43.730553 31.299486 -18.852409 12.441514
14060000000 -33.723068 -90.795174 -43.333557 3.0331531 -43.616508 1.0377585 -18.948889 12.011762
14070000000 -32.947052 -65.838654 -43.793137 -25.222118 -43.836426 -24.664509 -19.103678 11.584657
14080000000 -31.083273 -72.074142 -44.29546 -45.849819 -44.041786 -46.695091 -19.304766 11.365971
14090000000 -28.977667 -79.419205 -44.288017 -67.610321 -44.178722 -69.304405 -19.220589 12.308807
14100000000 -27.474464 -101.59146 -43.771198 -87.289818 -43.88142 -89.213593 -19.119677 11.424233
14110000000 -27.288496 -116.60513 -43.465477 -112.35601 -43.486279 -112.32182 -19.055828 11.892391
14120000000 -27.728849 -135.27119 -43.347679 -137.17313 -43.143703 -138.76411 -19.172157 12.139899
14130000000 -29.056713 -142.58289 -43.177776 -161.56009 -43.083923 -162.5088 -19.431076 14.004107
14140000000 -30.821095 -143.88577 -43.455391 173.68398 -43.476738 170.96071 -19.76683 14.828915
14150000000 -31.004604 -130.11894 -43.210873 152.37447 -43.029327 151.48444 -20.010326 15.477557
14160000000 -29.848938 -128.25377 -43.123634 125.06889 -42.949429 122.98211 -20.178476 13.41754
14170000000 -28.694532 -129.28754 -43.077614 103.56617 -43.023361 101.01743 -20.511442 12.291376
14180000000 -28.401066 -138.57339 -42.92255 80.306274 -42.876194 78.148216 -20.748508 13.976006
14190000000 -27.667961 -144.11958 -42.443058 53.036762 -42.494373 50.943897 -20.985519 17.242916
14200000000 -27.785666 -154.64304 -43.014191 29.604729 -43.028503 26.837919 -21.248644 21.412725
14210000000 -28.089296 -156.24655 -42.796738 7.5526142 -42.958157 4.8230929 -21.731524 25.793568
14220000000 -27.787388 -159.35631 -42.180401 -17.474974 -42.4189 -17.931215 -22.258005 30.371096
14230000000 -27.195192 -164.26727 -42.122913 -44.531521 -42.234165 -46.050091 -22.719208 35.344376
14240000000 -27.430347 -170.03925 -42.558945 -70.990486 -42.515884 -73.282333 -22.875002 41.709099
14250000000 -27.733105 -170.58313 -42.413322 -93.734116 -42.721806 -95.87085 -22.481993 48.372215
14260000000 -28.529902 -172.65477 -42.298359 -122.06407 -42.707321 -122.88885 -21.895912 53.724194
14270000000 -28.764841 -165.14635 -42.990089 -144.0164 -42.965546 -144.19669 -21.533056 58.243549
14280000000 -28.366201 -166.3636 -42.031464 -167.19609 -42.302975 -168.22504 -21.02541 63.137028
14290000000 -27.128708 -163.0573 -41.711174 163.93274 -41.795345 162.78786 -20.397589 65.478539
14300000000 -26.71723 -174.3768 -42.169476 133.07957 -42.442833 132.27548 -19.670246 65.961861
14310000000 -26.518559 -179.43565 -42.807194 109.36393 -42.812111 109.47132 -18.906431 65.362038
14320000000 -27.34354 168.79773 -42.657436 86.416153 -42.720547 85.379845 -18.117214 65.545486
14330000000 -27.927122 171.01103 -42.569744 62.574955 -42.810921 61.486969 -17.239033 65.997177
14340000000 -28.952524 169.47385 -41.962269 32.379105 -42.237125 32.625526 -16.504812 66.415634
14350000000 -28.759405 -178.59949 -42.362225 3.0930505 -42.368805 3.9168332 -15.907286 66.429726
14360000000 -28.170012 -177.82301 -42.866421 -24.773315 -42.96434 -25.214119 -15.537326 66.293175
14370000000 -27.006674 -179.11093 -43.478878 -52.019962 -43.534725 -51.555088 -15.211166 65.809555
14380000000 -27.031174 172.73219 -43.876915 -74.740051 -43.90604 -74.528221 -14.894037 64.45903
14390000000 -27.455317 170.79054 -43.941872 -98.218887 -43.805901 -96.91864 -14.561186 62.428593
14400000000 -28.383787 168.12975 -43.542847 -122.11914 -43.419918 -123.18124 -14.215897 60.243088
14410000000 -28.362076 171.02734 -43.215649 -150.27541 -43.23373 -151.83154 -13.854987 57.913689
14420000000 -28.722399 171.43094 -43.041458 177.4738 -43.076046 178.71933 -13.53723 56.095387
14430000000 -27.88579 173.07585 -44.122166 145.82475 -44.005959 147.00735 -13.229609 54.521305
14440000000 -28.101351 170.10608 -45.773155 121.11125 -45.272041 120.37979 -13.00195 52.816944
14450000000 -27.616501 172.69942 -45.89777 105.11013 -46.511284 107.62188 -12.872047 51.585777
14460000000 -27.975388 172.46651 -45.595074 74.064667 -46.385082 77.679108 -12.686593 50.097691
14470000000 -27.368715 176.58046 -46.481941 51.744125 -46.75153 58.144253 -12.537432 48.432053
14480000000 -27.038391 179.5957 -46.778538 27.3794 -46.502556 32.611477 -12.449018 47.097828
14490000000 -26.436686 174.22009 -46.329823 0.52440745 -46.482777 2.5130496 -12.502213 45.918953
14500000000 -26.961515 175.85918 -47.747223 -29.115526 -48.378445 -25.759075 -12.612185 45.266708
14510000000 -26.745695 170.51186 -49.04044 -48.673828 -49.147873 -39.24028 -12.63361 43.810551
14520000000 -28.126703 176.60979 -49.779716 -65.12693 -48.886932 -56.788967 -12.711912 41.709019
14530000000 -27.466309 178.08357 -49.60989 -85.216675 -48.414024 -81.869965 -12.679335 39.942631
14540000000 -26.783745 -174.45125 -49.176083 -107.19067 -48.244816 -106.04993 -12.576363 38.92078
14550000000 -25.384275 179.34032 -50.350765 -134.47624 -49.13731 -132.63383 -12.441841 38.435726
14560000000 -24.958393 179.03357 -51.453171 -153.70329 -50.181156 -152.59914 -12.410256 38.512463
14570000000 -24.428717 171.07076 -52.974953 -158.45203 -51.593094 -163.06194 -12.376278 38.856689
14580000000 -24.865847 172.25436 -50.069027 -171.94212 -49.270451 -175.35973 -12.40919 38.584862
14590000000 -24.972883 168.17738 -49.067654 166.5972 -48.156048 163.75357 -12.414986 38.301735
14600000000 -25.344433 178.07211 -48.170971 137.06233 -47.121967 132.56538 -12.414399 37.45454
14610000000 -24.512104 176.66394 -48.56176 111.11524 -48.017094 100.86396 -12.392723 37.260124
14620000000 -23.851793 -179.02852 -49.204506 96.050377 -49.87289 88.732887 -12.408751 37.104851
14630000000 -23.225525 174.70317 -48.595837 81.503746 -48.61858 78.033501 -12.371163 37.081207
14640000000 -22.927877 172.8224 -46.750553 66.171089 -46.842194 61.722691 -12.297647 36.106873
14650000000 -22.876917 168.68382 -45.345234 39.598637 -45.415237 32.64225 -12.239313 34.715565
14660000000 -22.414902 167.87526 -44.125217 8.6771402 -45.00135 7.2468019 -12.120899 33.180584
14670000000 -23.030682 163.83691 -44.787262 -17.227209 -44.541344 -17.797085 -11.973361 32.333908
14680000000 -22.280184 167.26118 -44.342438 -36.594387 -44.22385 -41.959312 -11.775748 31.829088
14690000000 -22.432875 162.88588 -44.30072 -60.679478 -44.623756 -67.222466 -11.651419 31.528986
14700000000 -21.939747 166.55444 -43.321102 -78.135361 -44.195778 -79.802322 -11.580672 31.211243
14710000000 -21.901752 162.87726 -41.896889 -104.81784 -42.36311 -104.63379 -11.598528 30.600714
14720000000 -21.616358 164.2056 -41.669765 -133.92313 -41.848118 -133.96962 -11.647573 29.700047
14730000000 -21.302111 161.66876 -41.445309 -160.80246 -41.766724 -161.57982 -11.764639 28.329212
14740000000 -20.703279 158.18279 -41.661385 174.74892 -41.959621 174.65306 -11.913524 26.693254
14750000000 -20.947119 153.62756 -41.676994 153.74789 -41.908485 153.90761 -12.059963 25.125704
14760000000 -20.63936 151.41956 -41.031178 133.00311 -41.139908 132.33745 -12.118564 23.674242
14770000000 -21.241419 146.35181 -40.053078 104.09684 -40.339855 103.65485 -12.099243 22.251568
14780000000 -21.196598 147.8399 -40.493294 77.535744 -40.921471 78.104889 -12.048512 21.066229
14790000000 -21.44228 148.33527 -40.519485 53.412567 -40.595085 56.432503 -12.090719 20.275583
14800000000 -20.642221 150.91592 -40.48893 32.626564 -40.386646 33.620457 -12.230134 19.910006
14810000000 -20.317642 149.48421 -40.101788 10.284756 -40.1045 10.306965 -12.430593 19.915974
14820000000 -19.622189 145.80318 -39.938435 -14.551599 -39.94022 -12.297343 -12.573043 19.996454
14830000000 -19.825283 140.79692 -39.821629 -37.813236 -39.52227 -37.412579 -12.715616 19.447952
14840000000 -19.955299 135.87053 -39.371132 -62.033875 -39.245876 -62.361 -12.883117 19.109951
14850000000 -21.065487 133.73184 -39.529301 -87.240463 -39.480625 -88.212318 -13.101636 19.299973
14860000000 -21.082054 135.50925 -39.447868 -111.14841 -39.41309 -110.97004 -13.330606 19.482098
14870000000 -21.490927 134.82887 -39.806332 -133.51064 -39.518547 -132.47542 -13.598184 19.294008
14880000000 -21.086525 135.24316 -39.435326 -153.90742 -39.052139 -154.19022 -13.808785 18.128143
14890000000 -20.790827 133.79709 -38.868511 -176.3297 -38.494991 -177.44563 -13.925129 17.183582
14900000000 -20.136042 128.76822 -38.342197 157.69038 -38.152092 155.51489 -13.87378 16.603016
14910000000 -20.445467 125.87531 -38.511189 132.60274 -38.408791 131.04724 -13.778749 17.492588
14920000000 -20.492569 121.2889 -38.429226 109.36742 -38.142632 107.40283 -13.736135 19.197594
14930000000 -21.129261 122.91983 -38.579132 85.834602 -38.552608 82.568764 -13.870456 21.45006
14940000000 -21.06484 121.09152 -38.412319 63.972775 -38.414425 62.026615 -14.081306 23.184866
14950000000 -21.474323 123.26768 -38.0741 40.303024 -38.013279 38.78405 -14.343655 23.913239
14960000000 -21.42832 120.47186 -37.874054 15.797946 -37.780273 13.985476 -14.571382 23.843678
14970000000 -21.902002 123.01604 -37.596085 -8.2220573 -37.565563 -11.235891 -14.777247 24.283937
14980000000 -21.923639 117.67819 -37.623959 -32.398998 -37.691574 -34.97612 -14.859842 25.840813
14990000000 -22.437273 120.8359 -37.400074 -57.668396 -37.601818 -59.272602 -14.840286 27.188889
15000000000 -22.302462 116.1543 -37.369949 -82.450638 -37.441204 -83.940971 -14.89569 27.822687
15010000000 -22.527792 117.4026 -37.675911 -107.75657 -37.867115 -109.71368 -14.992986 28.001509
15020000000 -22.698732 111.27716 -37.6959 -130.8559 -37.824512 -130.94188 -14.84656 27.773617
15030000000 -23.054256 114.2335 -37.837761 -153.71944 -37.81945 -154.77386 -14.606894 27.549309
15040000000 -23.311033 110.11977 -37.628548 -176.54044 -37.607513 -178.1033 -14.317463 29.134575
15050000000 -23.780003 114.71423 -37.567188 159.32109 -37.54705 157.35219 -13.977971 31.84535
15060000000 -24.169544 116.70321 -37.423512 134.60455 -37.660824 133.44847 -13.747276 34.147167
15070000000 -23.581553 121.61726 -37.558132 108.00624 -37.772198 107.7104 -13.767011 35.147114
15080000000 -23.802902 118.14973 -37.672596 83.727119 -37.688606 83.836617 -13.93247 35.632763
15090000000 -23.630753 120.4636 -37.658634 58.980274 -37.736412 57.891727 -13.979959 35.162533
15100000000 -24.245905 115.56624 -38.235119 32.732529 -38.371502 32.655079 -13.933187 34.357384
15110000000 -24.813656 119.1641 -38.659332 11.313762 -38.698627 11.410933 -13.739367 33.586948
15120000000 -25.376846 120.83336 -38.731293 -11.789437 -38.723427 -11.882791 -13.542115 32.962467
15130000000 -24.813473 122.89996 -38.787319 -34.06868 -38.758873 -35.296791 -13.388612 32.03701
15140000000 -25.06509 124.02029 -38.464779 -59.611137 -38.679688 -60.385437 -13.30102 31.252542
15150000000 -24.279108 125.27555 -38.890945 -86.972237 -38.932526 -86.660423 -13.150043 30.888817
15160000000 -24.457186 123.65781 -39.459072 -110.69166 -39.575363 -111.04176 -12.929912 30.515495
15170000000 -24.044617 125.36084 -39.830425 -134.95119 -39.72908 -133.403 -12.792375 30.49551
15180000000 -24.248386 124.58762 -40.315384 -159.02995 -40.084522 -159.17264 -12.767994 30.973314
15190000000 -23.8305 127.55199 -40.988689 175.19484 -40.769085 175.18884 -12.841098 31.226734
15200000000 -23.680073 127.22787 -41.935543 154.38922 -41.83712 152.60612 -13.021594 30.703751
15210000000 -23.337475 125.59531 -42.297054 133.78661 -42.404766 133.80779 -13.253814 29.766253
15220000000 -23.822353 124.83714 -42.70163 111.52158 -42.697784 113.36023 -13.399601 28.590796
15230000000 -23.629961 125.57078 -42.885376 92.893234 -42.419865 93.05117 -13.44144 27.057234
15240000000 -23.922808 126.53709 -42.853985 65.746925 -42.37262 64.642174 -13.49462 25.764318
15250000000 -23.500877 127.03452 -43.680264 40.712067 -43.226048 37.475113 -13.523902 25.138552
15260000000 -23.17658 126.72063 -45.032753 17.000923 -45.065662 14.291586 -13.511506 25.043173
15270000000 -22.731794 125.12138 -46.701061 0.5126242 -46.450699 1.2072719 -13.444876 25.31629
15280000000 -22.188116 120.71703 -47.057003 -13.968684 -46.340107 -15.169965 -13.441014 26.264954
15290000000 -22.490515 115.99007 -47.113506 -29.865358 -46.925457 -34.162807 -13.435211 27.809242
15300000000 -22.797331 113.78755 -46.94445 -43.59185 -46.767277 -47.980228 -13.549812 28.981392
15310000000 -23.40624 114.84628 -46.865025 -65.002792 -46.880188 -66.942467 -13.798268 29.797907
15320000000 -23.297138 116.04839 -46.562069 -84.700516 -46.222839 -87.567436 -14.066695 30.752531
15330000000 -23.297041 118.59987 -47.00005 -109.49806 -46.761818 -115.89433 -14.123661 30.765348
15340000000 -22.653019 115.99142 -47.686199 -123.0961 -48.378983 -130.0455 -14.184841 29.90218
15350000000 -22.732426 114.71424 -46.832745 -139.34872 -47.499519 -139.03192 -14.209084 29.970518
15360000000 -22.511166 109.92866 -46.248199 -154.24242 -46.446056 -154.67006 -14.169332 30.238068
15370000000 -23.068485 106.94286 -44.902767 177.67979 -44.728008 178.88869 -14.146973 30.490749
15380000000 -22.984941 102.11584 -45.147625 154.2856 -45.111134 151.5378 -14.054415 30.38085
15390000000 -24.107271 100.66807 -45.297966 133.10652 -45.717751 130.28766 -13.894118 30.194403
15400000000 -24.20295 100.6603 -44.820053 116.47626 -45.480419 116.84966 -13.680901 30.310488
15410000000 -24.453409 101.47593 -44.18108 93.820633 -44.324703 95.202507 -13.474453 31.533222
15420000000 -24.58519 98.841347 -43.360397 68.385452 -43.268829 69.652039 -13.389157 33.04163
15430000000 -24.91678 101.005 -43.550671 39.87014 -43.541962 39.213398 -13.462792 34.400879
15440000000 -24.55405 97.259453 -44.122601 20.04637 -44.229679 19.839174 -13.691945 34.744331
15450000000 -25.171534 95.508934 -43.950893 1.9196663 -43.960697 2.2067888 -13.94528 34.138092
15460000000 -25.251759 91.269157 -43.147766 -22.700716 -43.320122 -21.673462 -14.047269 32.537224
15470000000 -26.077721 89.958992 -42.872406 -45.444305 -42.579124 -44.960342 -14.019179 30.43363
15480000000 -26.477854 82.997559 -42.233471 -69.628319 -42.008251 -71.395531 -13.959547 29.663765
15490000000 -27.955509 83.465187 -41.930119 -98.769211 -41.874184 -99.402817 -13.808253 29.811352
15500000000 -28.462337 81.579536 -42.450424 -125.83729 -42.45554 -124.84787 -13.755106 30.136526
15510000000 -29.485577 84.47097 -42.970085 -147.16959 -42.611187 -146.77786 -13.74861 30.886847
15520000000 -29.982233 82.02533 -43.021526 -167.49699 -42.53886 -169.37216 -13.701592 31.629131
15530000000 -30.308567 87.647232 -42.547886 169.24039 -42.191231 166.01599 -13.688539 32.415615
15540000000 -30.519426 77.663162 -42.527561 142.72983 -42.577946 140.07581 -13.714294 33.646885
15550000000 -32.188206 82.163177 -42.924438 122.31172 -42.935665 120.82623 -13.799857 34.891647
15560000000 -32.929058 73.850937 -42.372105 97.353561 -42.26881 97.426163 -13.94192 36.198895
15570000000 -35.982925 77.50061 -42.113876 73.367966 -41.812603 71.970581 -14.076902 36.705204
15580000000 -38.312103 68.239395 -41.930809 44.413582 -41.732864 42.618946 -14.22344 36.443386
15590000000 -41.296646 88.724144 -42.485428 20.053829 -42.283962 16.000547 -14.307555 35.674866
15600000000 -49.039322 65.405472 -42.640518 -3.008884 -42.714024 -6.2836967 -14.35212 34.927711
15610000000 -48.154911 164.63072 -43.269905 -29.75893 -43.161751 -30.800476 -14.234974 34.508549
15620000000 -46.159218 -135.82655 -43.01545 -48.376995 -43.010098 -49.947239 -14.02772 34.397892
15630000000 -40.880093 -154.75806 -42.721722 -74.158585 -42.587162 -76.410515 -13.754546 34.542297
15640000000 -40.177464 -143.97365 -42.939812 -99.143044 -43.05201 -101.09604 -13.594126 35.015709
15650000000 -38.514538 -149.84444 -43.077534 -124.17735 -43.123707 -125.21569 -13.553038 36.497276
15660000000 -36.976337 -135.77109 -43.355148 -144.8978 -43.242374 -145.66129 -13.540334 38.219688
15670000000 -35.049145 -138.98151 -42.884834 -169.79907 -42.749443 -172.51135 -13.647859 39.258598
15680000000 -32.635098 -130.03313 -42.765923 162.83 -42.634979 160.15768 -13.808475 39.409954
15690000000 -31.019613 -135.33766 -43.345936 136.54002 -43.417618 132.76382 -13.926028 38.94717
15700000000 -28.952829 -138.21548 -43.428082 112.87707 -43.623569 111.52022 -13.995101 38.217716
15710000000 -28.684668 -144.53935 -44.020596 87.474968 -44.180168 87.33754 -14.056891 38.049965
15720000000 -27.559856 -145.27351 -44.462212 67.798279 -44.346928 67.706902 -14.06823 38.614685
15730000000 -27.914612 -146.9872 -44.073467 48.400475 -43.823029 44.510944 -14.050431 38.949108
15740000000 -26.959024 -145.74548 -43.203129 22.68281 -43.528431 20.178637 -13.967298 38.783474
15750000000 -27.052399 -147.86896 -43.203236 -5.0934138 -43.328552 -6.4720144 -13.806762 38.438984
15760000000 -26.509457 -145.39632 -43.244991 -31.626781 -43.278358 -33.361622 -13.558539 38.743519
15770000000 -25.888065 -145.44995 -43.805984 -59.704666 -43.841503 -61.786171 -13.259633 40.280659
15780000000 -25.371201 -146.33307 -44.524986 -83.419991 -44.657017 -84.437508 -13.058246 42.742973
15790000000 -24.651857 -147.47433 -44.90097 -99.055984 -44.893978 -99.309151 -12.978776 45.3783
15800000000 -23.990299 -149.1037 -43.850441 -120.87392 -43.814507 -122.59571 -13.020308 46.868317
15810000000 -23.459148 -151.56985 -43.499596 -148.38406 -43.493298 -150.04321 -13.159165 46.946869
15820000000 -23.094154 -153.53754 -43.479328 -176.36134 -43.575073 -178.98103 -13.242929 45.764477
15830000000 -22.903566 -155.25726 -44.025791 159.60905 -44.170494 157.60347 -13.151434 44.367321
15840000000 -23.071358 -155.48889 -43.986423 137.04187 -44.155834 135.6713 -12.973561 42.875099
15850000000 -22.981312 -154.57156 -43.46925 114.2023 -43.745487 114.11498 -12.708887 42.481731
15860000000 -22.901865 -151.767 -43.184303 86.089828 -43.35603 86.444939 -12.367833 41.931355
15870000000 -22.399075 -150.42921 -43.708984 60.822029 -43.352058 61.972057 -12.077241 41.336639
15880000000 -21.867208 -150.54932 -43.73037 37.466282 -43.342194 35.628246 -11.814419 40.70826
15890000000 -21.383148 -151.88704 -43.871853 13.479452 -43.940292 10.048083 -11.600163 40.660927
15900000000 -21.102608 -155.60486 -43.745052 -6.6521258 -44.261776 -6.827158 -11.392247 41.043846
15910000000 -21.006878 -157.37677 -43.380455 -31.115067 -43.321964 -31.139526 -11.240227 41.327271
15920000000 -20.836441 -159.35004 -43.18251 -57.44437 -43.057148 -57.299511 -11.175622 41.230511
15930000000 -21.001606 -158.76595 -42.666203 -80.256599 -42.660686 -81.500519 -11.175035 40.527092
15940000000 -20.774345 -156.4254 -42.529091 -110.24863 -42.596092 -110.24398 -11.252802 39.01281
15950000000 -20.374203 -155.36296 -43.33073 -135.61716 -43.223007 -134.89761 -11.319321 37.015896
15960000000 -20.126574 -154.62143 -43.380741 -157.39662 -43.055721 -158.67134 -11.312726 34.961296
15970000000 -19.566057 -152.71838 -43.017872 178.88412 -42.994183 177.0135 -11.210165 32.554279
15980000000 -19.190201 -153.75676 -42.966434 154.7007 -43.021744 153.62206 -11.027402 30.239122
15990000000 -18.876329 -153.78255 -42.925449 132.38983 -43.076698 130.89198 -10.856295 28.582066
16000000000 -18.67878 -155.5275 -42.979298 104.88323 -42.97443 105.93386 -10.694416 28.007538
16010000000 -18.466036 -156.66046 -42.944687 83.557671 -42.654037 83.011391 -10.578672 27.682932
16020000000 -18.531231 -158.60196 -42.84026 57.397255 -42.565144 55.563492 -10.622253 27.421322
16030000000 -18.532763 -156.76251 -42.930984 32.603703 -42.67543 30.338694 -10.755239 26.640663
16040000000 -18.162842 -155.33478 -43.45311 11.762529 -43.206039 8.7833796 -10.952814 25.112041
16050000000 -17.750311 -155.39265 -42.52948 -12.423829 -42.713123 -15.666147 -11.150198 23.148212
16060000000 -17.264359 -153.98846 -42.838215 -39.465759 -42.911655 -40.37701 -11.322341 20.835167
16070000000 -16.540031 -154.4888 -43.035625 -64.605431 -42.989338 -64.305038 -11.474482 18.845987
16080000000 -16.080978 -156.74582 -43.739819 -85.981308 -43.28249 -87.462761 -11.630081 17.135729
16090000000 -15.938164 -158.7681 -43.322968 -108.23942 -43.239658 -111.75186 -11.767851 15.13202
16100000000 -15.884848 -159.5972 -43.543728 -130.76224 -43.603374 -133.36395 -11.878255 13.040541
16110000000 -15.892899 -160.17661 -42.964153 -153.81883 -42.902618 -156.3302 -11.911975 11.276999
16120000000 -15.790353 -158.88132 -43.288094 179.12234 -43.327351 176.77852 -11.921248 10.339714
16130000000 -15.443499 -158.0997 -43.207638 156.91042 -43.35619 154.9877 -11.960967 11.45038
16140000000 -14.972273 -157.45871 -43.455429 130.06322 -43.693909 130.10922 -12.06778 12.747824
16150000000 -14.412551 -159.40565 -44.484081 106.62143 -44.380081 105.40089 -12.392657 13.740011
16160000000 -14.08415 -160.80785 -44.640717 90.127533 -44.602097 88.409187 -12.841484 13.636019
16170000000 -13.590871 -162.87506 -44.24715 64.687805 -44.284599 63.010231 -13.337232 12.205135
16180000000 -13.460364 -164.73003 -44.734482 44.742653 -44.842537 42.215073 -13.708752 10.039584
16190000000 -13.299537 -165.86467 -44.210724 26.080042 -44.621643 24.192728 -13.863256 8.0795164
16200000000 -13.235316 -165.81607 -43.744061 -2.9280729 -43.888515 -2.7752554 -13.914747 6.6919155
16210000000 -13.011267 -166.09869 -44.07132 -25.973904 -44.31411 -25.623007 -13.967254 5.7767262
16220000000 -12.881725 -165.4882 -44.390697 -52.311638 -44.544529 -50.327129 -14.047701 4.9462147
16230000000 -12.447667 -165.80202 -45.339699 -76.315521 -45.043594 -74.788826 -14.119954 4.5966616
16240000000 -12.174799 -166.14249 -46.13842 -91.545631 -45.680576 -93.952644 -14.131927 4.9253607
16250000000 -11.735119 -168.24886 -46.049763 -111.43063 -46.001221 -113.98518 -14.103121 6.1994615
16260000000 -11.49386 -170.63817 -45.703899 -130.01343 -45.727757 -130.93852 -14.155799 7.9152689
16270000000 -11.228869 -173.28441 -45.814865 -153.39264 -45.484791 -152.42145 -14.388445 9.4395313
16280000000 -11.223986 -175.61682 -45.621037 -173.28218 -45.057484 -174.96538 -14.85417 10.092791
16290000000 -11.169165 -176.55046 -45.657227 166.15953 -45.351421 162.64771 -15.374289 9.2889023
16300000000 -11.124182 -176.5293 -45.513573 143.00517 -45.248802 138.64247 -15.74951 7.2262607
16310000000 -10.852862 -175.78082 -45.916046 124.44514 -45.853073 119.71462 -15.88301 4.3001966
16320000000 -10.493797 -175.60422 -45.671425 102.02427 -45.714737 98.247513 -15.901785 1.8212755
16330000000 -10.028652 -176.43016 -45.357491 84.378136 -45.505306 80.958931 -15.899687 0.049728375
16340000000 -9.725481 -178.43715 -45.019306 61.116875 -45.244286 58.7785 -15.949921 -1.0822852
16350000000 -9.5253744 178.97505 -44.930035 40.439335 -45.064205 37.760532 -16.007782 -1.818706
16360000000 -9.5191813 176.50136 -44.269917 19.292496 -44.4949 19.134037 -16.073507 -1.4969839
16370000000 -9.5915079 174.98198 -44.236366 -4.950036 -44.171021 -6.4560447 -16.148762 -1.0691477
16380000000 -9.6009579 174.20248 -43.789032 -23.626842 -43.80891 -27.470261 -16.508802 0.030409601
16390000000 -9.5146093 174.14885 -43.320419 -48.475037 -43.774139 -49.880508 -17.121857 0.81910521
16400000000 -9.2551985 174.11757 -42.87785 -72.873016 -43.240936 -74.552872 -17.931978 0.46238056
16410000000 -8.8873434 173.33928 -42.854477 -99.43264 -43.341053 -98.805733 -18.690472 -1.6588025
16420000000 -8.5606194 172.005 -43.294174 -123.90544 -43.324314 -122.34846 -19.263767 -5.2292161
16430000000 -8.2711439 170.27966 -43.642246 -142.3414 -43.452858 -142.80743 -19.698561 -8.4418325
16440000000 -8.1291275 168.40889 -42.850853 -164.58746 -42.707119 -165.65271 -20.106682 -9.3617439
16450000000 -8.0879154 166.64963 -42.437561 170.87181 -42.575382 168.54611 -20.536127 -8.9522972
16460000000 -8.1103153 165.83606 -42.38065 142.92894 -42.595726 142.74449 -21.102991 -8.3790331
16470000000 -8.0952311 165.20477 -42.795025 121.82712 -42.892784 120.87173 -21.545805 -6.9977741
16480000000 -8.0570993 164.86581 -42.359154 95.733192 -42.653488 96.131493 -21.803703 -3.9505892
16490000000 -7.8741884 164.61951 -43.158474 69.537567 -43.058071 70.547165 -21.874643 1.6117083
16500000000 -7.6651797 164.12585 -43.656223 49.197384 -43.291348 49.45541 -22.044201 9.2640429
16510000000 -7.3083649 162.64424 -43.557938 28.763741 -43.230762 27.431545 -22.531473 17.784107
16520000000 -7.1210508 160.89149 -43.497864 6.8561015 -43.356937 4.5271811 -23.41008 26.083523
16530000000 -6.8994184 158.83617 -43.203133 -18.654392 -43.3899 -19.893257 -24.489502 30.803669
16540000000 -6.9010935 157.19153 -43.658268 -43.937428 -43.933605 -44.317017 -25.268002 30.495281
16550000000 -6.8510847 156.30058 -44.548267 -66.537689 -44.401768 -65.722504 -25.315582 27.171732
16560000000 -6.8763824 156.06589 -44.554714 -85.281288 -44.218372 -85.382294 -24.74382 24.800062
16570000000 -6.7255921 156.20058 -44.42709 -109.91173 -44.178249 -111.05705 -24.290773 25.729923
16580000000 -6.5508351 156.04836 -44.330395 -131.1414 -44.131847 -133.87364 -24.058764 29.134617
16590000000 -6.2681155 155.34329 -44.735119 -157.35893 -44.707634 -159.59735 -23.952562 32.301636
16600000000 -6.052237 153.65302 -45.428524 -178.74403 -45.364754 178.93799 -23.789001 35.002689
16610000000 -5.8716121 151.75134 -45.511536 163.01147 -45.767544 160.88478 -23.393616 37.927238
16620000000 -5.8188295 149.83125 -45.563812 142.6848 -45.733219 143.55956 -22.837234 41.554821
16630000000 -5.7249384 148.52591 -44.660614 122.13577 -44.486542 121.90453 -22.648914 48.153507
16640000000 -5.6818724 147.52599 -44.853088 93.023666 -44.594521 91.689178 -22.524431 56.224049
16650000000 -5.5331874 147.25363 -45.61639 70.983429 -45.238731 68.27137 -22.86301 63.494286
16660000000 -5.339025 146.63295 -45.919815 48.27026 -45.903332 44.751125 -23.351364 68.132828
16670000000 -5.1098156 146.01184 -45.672665 28.49485 -45.780258 25.076143 -23.861921 68.028038
16680000000 -4.9033947 144.89514 -45.520832 3.5749671 -45.807922 0.95973688 -23.924471 64.304108
16690000000 -4.7079492 143.70827 -45.629169 -24.111786 -45.813622 -25.523079 -23.364202 61.560188
16700000000 -4.5730867 142.13515 -46.87299 -45.937416 -46.839741 -46.506454 -22.252922 60.84763
16710000000 -4.4544291 140.79918 -46.884861 -67.526169 -46.765728 -68.514175 -21.315294 61.422009
16720000000 -4.3670845 139.32425 -47.37027 -89.264038 -47.393906 -91.566551 -20.550972 63.148994
16730000000 -4.2581592 138.1028 -46.83144 -110.37288 -46.983128 -113.562 -19.958508 64.620445
16740000000 -4.1496682 136.98264 -46.939922 -137.9102 -47.373611 -138.93922 -19.550285 65.60981
16750000000 -4.0013981 136.02477 -47.449913 -162.21933 -47.694321 -161.00261 -19.210857 66.46743
16760000000 -3.8112173 134.94955 -48.165081 170.14218 -48.181202 171.03458 -18.935162 67.510391
16770000000 -3.6081054 133.65225 -49.198032 146.8419 -49.107292 146.93568 -18.790815 67.02021
16780000000 -3.4404523 132.24525 -50.74638 126.65641 -50.477901 127.53119 -18.966532 66.080444
16790000000 -3.2836556 130.69933 -51.200649 108.5322 -50.696289 106.18633 -19.208261 63.730114
16800000000 -3.1922991 129.17 -51.632942 91.47789 -51.632492 87.964577 -19.418617 59.85997
16810000000 -3.0966146 127.77483 -50.800842 64.505219 -50.993732 64.484879 -19.432617 55.040932
16820000000 -3.0281758 126.38215 -51.979103 44.700848 -52.157097 45.331146 -19.228195 49.927345
16830000000 -2.9107668 125.08535 -52.79562 15.626872 -52.492893 16.905937 -18.859694 46.042686
16840000000 -2.7920251 123.78505 -52.883644 -4.5864244 -52.783306 -5.6127481 -18.498581 43.569775
16850000000 -2.6185067 122.29137 -55.337822 -35.081501 -54.670715 -37.142704 -18.245712 43.072773
16860000000 -2.487196 120.64294 -57.592098 -41.132378 -57.373615 -45.781891 -18.187399 44.23489
16870000000 -2.3439131 119.05098 -56.732315 -53.204941 -57.532555 -56.830101 -18.304466 45.471855
16880000000 -2.2442927 117.49674 -56.379196 -72.101196 -56.389412 -75.097694 -18.869045 46.557632
16890000000 -2.1312661 116.08637 -57.285923 -98.627823 -57.342663 -101.61524 -19.616774 46.892559
16900000000 -2.0552411 114.76618 -58.3475 -122.73505 -58.202682 -122.50922 -20.522987 45.023708
16910000000 -1.952976 113.44204 -59.928604 -155.84227 -59.094711 -153.25667 -21.427311 41.556576
16920000000 -1.8764739 112.08113 -66.051537 -144.45787 -64.858185 -160.39043 -22.174665 37.31749
16930000000 -1.7763203 110.58949 -64.65258 -154.65439 -66.702278 -159.11864 -22.673298 34.165382
16940000000 -1.7033271 109.02906 -62.436775 -140.40707 -61.957409 -144.68863 -22.97401 32.394028
16950000000 -1.5997196 107.38033 -60.885506 -176.94321 -61.022141 -170.12729 -23.309114 33.414848
16960000000 -1.5163927 105.66302 -61.820248 173.65486 -61.180725 179.61781 -23.540173 37.579296
16970000000 -1.4213165 103.98129 -59.661613 163.99127 -58.980312 163.98399 -23.608562 44.111164
16980000000 -1.3413665 102.33469 -58.48629 147.53485 -59.033646 140.46976 -23.58157 51.784313
16990000000 -1.2506961 100.74783 -57.842991 125.11108 -57.774826 121.67667 -23.586866 60.620129
17000000000 -1.1830289 99.244728 -57.14941 102.02708 -56.89489 94.096985 -23.507132 70.517578
