!Keysight Technologies,P9374A,MY57211807,A.19.30.04
!Date: Friday, May 08, 2026 15:45:03
!Correction: S11(C  2-Port  ) 
!S21(C  2-Port  ) 
!S12(C  2-Port  ) 
!S22(C  2-Port  ) 
!S2P File: Measurements: S11, S21, S12, S22:
# Hz S  dB   R 50
13000000000 -19.192711 56.737072 -40.035698 67.317558 -39.952763 65.606186 -9.6083908 25.905252
13010000000 -19.537693 59.739582 -40.027 43.441288 -40.120621 42.358433 -9.6764898 21.338278
13020000000 -19.423071 61.291203 -40.011322 20.023592 -40.20356 19.330767 -9.7589016 16.820192
13030000000 -19.569973 64.350044 -40.208111 -1.8341844 -40.203602 -1.9794333 -9.8794479 12.170749
13040000000 -19.411318 63.746151 -40.449238 -23.745174 -40.545364 -25.005869 -10.065259 7.7955484
13050000000 -19.581686 64.614616 -40.13126 -45.337002 -40.163948 -45.005318 -10.360724 3.6181865
13060000000 -19.45578 62.263096 -39.934765 -69.861244 -39.948124 -70.309731 -10.773261 -0.57937396
13070000000 -19.81702 61.272083 -40.095409 -92.91748 -39.930878 -93.769264 -11.286144 -4.8930421
13080000000 -19.873095 61.271454 -40.222355 -117.81172 -40.37051 -118.74744 -11.840422 -9.6055641
13090000000 -19.87973 60.50177 -40.779594 -138.79617 -40.760838 -138.81418 -12.309516 -14.579541
13100000000 -19.887732 60.599255 -41.049828 -158.57053 -40.978958 -159.2319 -12.769248 -19.309937
13110000000 -19.948397 61.078884 -40.699684 -178.21814 -40.477077 -179.29823 -13.321803 -23.438391
13120000000 -19.920771 63.595078 -40.430393 155.75844 -40.246731 154.61975 -14.056229 -27.064783
13130000000 -19.393045 63.763882 -40.445419 132.00932 -40.392632 130.65414 -14.945224 -30.371273
13140000000 -19.349501 63.24762 -41.049339 106.90415 -40.893272 104.75031 -15.865616 -34.180893
13150000000 -19.06777 62.378487 -41.772892 85.560364 -41.629181 82.709579 -16.779783 -38.36668
13160000000 -19.179068 61.127892 -41.770798 68.070694 -41.797474 65.519829 -17.76317 -42.270748
13170000000 -19.262337 58.714287 -41.748287 45.690247 -41.819534 43.888115 -19.023497 -45.211777
13180000000 -19.579674 57.933876 -41.891121 23.623978 -41.724224 21.604359 -20.725599 -47.211971
13190000000 -19.599424 56.259964 -41.901024 0.67803574 -41.963806 -2.9340603 -22.98988 -49.690041
13200000000 -20.004923 57.091938 -42.134212 -21.365221 -42.308655 -23.142536 -25.770422 -55.199387
13210000000 -19.585836 57.594944 -42.145462 -45.462841 -42.558369 -46.789265 -29.058983 -65.866783
13220000000 -19.540421 56.868591 -42.722393 -67.882301 -42.988544 -68.499413 -33.062851 -79.246979
13230000000 -19.320143 55.506184 -42.874081 -86.631813 -43.236019 -88.55928 -40.357964 -98.79113
13240000000 -19.100634 55.496147 -42.929649 -111.24828 -43.403187 -110.47202 -42.11628 120.42092
13250000000 -18.826796 52.659386 -43.560425 -130.97852 -43.500481 -130.73344 -31.477999 104.45604
13260000000 -19.023542 50.465012 -43.682327 -152.15585 -43.771389 -151.17494 -26.445652 103.55155
13270000000 -19.284782 47.896286 -43.659939 -177.60211 -43.854141 -175.48367 -23.473169 104.27085
13280000000 -19.500593 47.690434 -44.692867 163.66441 -44.422905 165.74803 -21.600958 103.97012
13290000000 -19.952635 46.020401 -44.537029 145.43739 -44.126369 145.71059 -20.374846 102.4181
13300000000 -20.115122 46.974403 -44.091095 123.01284 -43.921196 121.61163 -19.326038 99.042305
13310000000 -20.238741 45.906044 -44.227657 95.253502 -44.226437 97.898628 -18.267794 94.776863
13320000000 -19.902422 47.411812 -45.715633 70.569778 -44.961735 69.986252 -17.232409 91.407471
13330000000 -19.642004 43.793667 -46.326698 53.466324 -45.857727 51.703945 -16.321644 88.405632
13340000000 -19.441223 42.203934 -47.071281 37.254494 -46.793587 35.977203 -15.675474 86.29422
13350000000 -19.577572 37.609734 -46.829895 18.599693 -46.531616 16.658354 -15.199286 83.952522
13360000000 -19.601936 36.298443 -46.198769 -2.8048408 -45.904755 -4.1563444 -14.789887 80.416908
13370000000 -20.26997 31.87915 -46.906544 -26.54352 -46.355663 -29.97534 -14.347483 75.637512
13380000000 -20.654221 34.335831 -47.566895 -48.881008 -47.904022 -52.217426 -13.764573 70.894485
13390000000 -21.26667 33.255119 -47.684689 -72.539047 -48.002846 -73.821426 -13.125715 66.980911
13400000000 -21.062363 37.745197 -50.080677 -88.081299 -49.957439 -90.232384 -12.525146 64.252518
13410000000 -21.206408 32.922184 -49.580669 -100.4802 -49.74839 -103.43606 -12.099033 62.244041
13420000000 -21.046604 35.38319 -49.668533 -123.15418 -49.755772 -124.2005 -11.888727 60.07217
13430000000 -20.914032 29.06559 -49.999767 -142.28203 -50.262123 -141.55267 -11.790276 57.359192
13440000000 -20.837524 27.21567 -50.158947 -159.39096 -50.250603 -160.97368 -11.740679 53.745644
13450000000 -21.397055 20.145937 -51.010689 -179.54974 -50.984554 -178.88998 -11.657487 49.672836
13460000000 -21.915022 22.041531 -52.403801 166.79037 -52.265446 166.53593 -11.488062 45.860981
13470000000 -22.495073 17.231831 -52.277828 157.18468 -52.216286 154.76823 -11.343455 42.606384
13480000000 -22.896404 24.81818 -51.371136 138.00592 -51.001953 137.49426 -11.301968 39.984882
13490000000 -23.143839 20.645529 -51.128151 127.18879 -51.171364 124.83994 -11.304339 37.860481
13500000000 -23.133276 27.674282 -51.509598 107.34039 -51.119255 105.90395 -11.395461 35.534603
13510000000 -22.911182 22.251844 -49.641834 97.76059 -49.744099 91.831665 -11.545822 33.317501
13520000000 -22.923512 23.86932 -48.626389 79.511879 -48.928635 75.45562 -11.671788 31.527645
13530000000 -22.920843 14.04046 -47.865757 51.855518 -48.238453 49.656178 -11.844657 30.037601
13540000000 -23.853573 13.029857 -47.382713 27.5261 -47.715294 27.322575 -12.055367 28.996506
13550000000 -24.211834 7.6108303 -47.693821 8.387373 -47.644772 9.1492643 -12.293371 28.380566
13560000000 -25.412281 11.87874 -48.094196 -12.182192 -48.159245 -14.113786 -12.543561 27.725874
13570000000 -25.630711 11.960817 -47.480061 -31.177708 -47.34248 -31.309662 -12.751071 27.01671
13580000000 -26.023424 21.775665 -47.300335 -49.98531 -47.178841 -51.439674 -12.850749 26.505491
13590000000 -25.291536 20.100386 -46.493164 -71.975822 -46.287987 -70.731178 -12.895675 26.137171
13600000000 -25.050694 23.521608 -46.894714 -92.325455 -46.226841 -94.352982 -12.840891 26.243284
13610000000 -24.536087 16.710064 -45.721695 -111.31203 -45.636723 -115.18617 -12.740755 26.693144
13620000000 -25.637779 13.484412 -45.236015 -134.51549 -45.328598 -136.59836 -12.68756 27.297348
13630000000 -26.137619 10.776902 -45.271519 -160.17514 -45.186035 -162.94736 -12.610102 27.836641
13640000000 -27.702253 8.4528179 -45.527771 179.60666 -45.406441 176.64259 -12.556904 28.173836
13650000000 -28.534124 13.634827 -45.808167 159.29558 -46.158276 153.50105 -12.469261 28.130938
13660000000 -28.920204 20.446037 -45.199219 143.26353 -45.640862 139.98669 -12.299135 27.21767
13670000000 -27.833189 25.435287 -44.698627 123.25271 -45.170437 120.54626 -12.1341 25.867868
13680000000 -27.057446 24.909853 -43.999905 103.78654 -44.374153 102.46047 -11.968579 24.619646
13690000000 -26.440613 23.369848 -43.672615 79.193413 -44.146332 77.485748 -11.782472 23.350279
13700000000 -26.028921 18.692312 -43.066383 57.225815 -43.313534 58.378147 -11.621858 22.362024
13710000000 -26.254627 15.790241 -43.049316 32.895302 -43.422989 31.905975 -11.475728 20.964323
13720000000 -27.091934 11.099462 -43.207302 11.191114 -43.621613 11.42189 -11.383417 18.927271
13730000000 -28.249037 14.406809 -43.174225 -8.2367706 -43.326122 -6.31249 -11.322051 16.694263
13740000000 -28.734282 20.320269 -42.811878 -29.395788 -42.690613 -27.696367 -11.296103 14.45909
13750000000 -29.282402 24.954035 -42.225304 -50.017227 -42.025127 -49.829296 -11.252077 12.605355
13760000000 -28.346169 27.43218 -42.156166 -75.387657 -42.12468 -75.443474 -11.283698 11.146177
13770000000 -27.67738 28.551064 -41.857986 -96.95208 -41.606899 -95.554276 -11.419525 9.5936546
13780000000 -26.513769 20.178137 -41.637722 -120.82191 -41.306709 -120.66054 -11.672779 7.6630397
13790000000 -26.467201 12.406409 -41.607922 -141.44743 -41.172592 -142.73302 -11.975824 5.5758357
13800000000 -26.500059 5.7078347 -41.191326 -165.61499 -40.97401 -166.44203 -12.202287 3.2402318
13810000000 -27.064529 -0.70352274 -41.237198 172.26459 -40.75145 170.47876 -12.349732 1.0051064
13820000000 -27.537827 -1.8247246 -41.643459 150.86386 -41.372295 147.26181 -12.510558 -0.31975409
13830000000 -28.917467 0.1483525 -40.855427 128.88437 -40.819923 126.50613 -12.699701 -0.71762389
13840000000 -28.901608 6.5378966 -40.860146 107.32012 -40.725044 104.40455 -12.945427 -0.65031761
13850000000 -28.311834 11.526814 -40.537247 84.634354 -40.569206 81.299797 -13.257142 -0.74256736
13860000000 -27.107927 10.17343 -39.962543 61.817501 -39.953518 58.705345 -13.604213 -1.1312746
13870000000 -26.483158 3.1472368 -39.985641 34.555698 -40.236877 31.014479 -13.889427 -0.9984346
13880000000 -26.417978 -5.7281752 -40.198303 10.165833 -40.469612 7.2747302 -14.0716 -0.32925811
13890000000 -26.409912 -13.596504 -40.691074 -13.349186 -41.016056 -15.98831 -14.175215 0.90156555
13900000000 -26.986691 -24.29458 -40.79393 -31.497007 -41.063244 -33.305218 -14.292605 1.8986018
13910000000 -27.982559 -28.043257 -40.267761 -53.003078 -40.553326 -54.105438 -14.505493 2.6532273
13920000000 -29.409758 -31.194334 -40.065517 -78.068649 -40.360615 -78.903862 -14.687879 3.0887415
13930000000 -30.062927 -26.035852 -40.028477 -103.17326 -40.419712 -102.5271 -14.74407 3.0782077
13940000000 -30.180016 -22.045452 -40.332455 -128.60898 -40.491566 -126.88488 -14.677382 3.2107432
13950000000 -29.1677 -18.391211 -40.401764 -149.23926 -40.448586 -148.90479 -14.505478 3.6942604
13960000000 -28.541161 -28.917191 -40.407532 -174.64764 -40.579681 -173.03468 -14.263955 4.5718217
13970000000 -27.894911 -34.381798 -40.787827 162.79639 -40.733414 164.70554 -14.134544 5.2851973
13980000000 -27.39439 -49.449112 -40.984245 140.71046 -40.740875 142.17949 -14.100681 6.0171723
13990000000 -27.483318 -59.627708 -40.992447 116.21645 -40.788601 116.42834 -14.150932 6.2393451
14000000000 -27.444401 -75.410515 -40.963245 94.452805 -40.62537 95.655434 -14.273592 6.6187878
14010000000 -29.097416 -78.506393 -41.56908 67.273575 -40.997494 66.658806 -14.29054 6.5419068
14020000000 -29.008629 -82.170105 -42.04826 46.147152 -41.576096 44.297234 -14.281128 5.3768187
14030000000 -30.877621 -77.045334 -42.171017 24.362495 -41.806637 21.510193 -14.340043 4.0075893
14040000000 -30.168816 -70.829361 -42.081234 1.7027738 -41.889847 -1.9315681 -14.446622 2.7749698
14050000000 -29.334269 -65.3451 -42.215023 -22.274807 -41.842007 -25.26973 -14.544351 2.1846399
14060000000 -27.829355 -73.834656 -42.390221 -49.854721 -42.085999 -54.148338 -14.558816 1.5777224
14070000000 -28.32029 -81.900909 -43.817734 -76.280029 -43.728893 -82.954803 -14.653747 0.46748894
14080000000 -27.328159 -94.348679 -44.723324 -95.702095 -44.809765 -100.57964 -14.730169 -0.3439244
14090000000 -28.3244 -108.21763 -44.89082 -116.16254 -45.083302 -121.35928 -14.757705 -0.9552058
14100000000 -28.163734 -119.09532 -45.349182 -139.2762 -45.957417 -142.13707 -14.718016 -1.4727904
14110000000 -29.476591 -131.16214 -45.28009 -162.17348 -45.868172 -166.37752 -14.680543 -1.7266804
14120000000 -29.6348 -128.22693 -46.529388 168.42474 -46.858517 167.21642 -14.785043 -1.6523232
14130000000 -30.151356 -132.0484 -48.280632 146.62915 -48.894409 143.40025 -14.937018 -1.1853325
14140000000 -29.352192 -120.86856 -49.220451 128.19965 -50.373703 127.03963 -15.117058 -1.5827011
14150000000 -28.331549 -128.31975 -50.738052 105.28785 -51.134224 108.74586 -15.322467 -3.3248034
14160000000 -28.146746 -125.5516 -52.053604 94.998215 -52.577869 97.538948 -15.505338 -5.4292121
14170000000 -27.044031 -133.32503 -51.580173 72.537292 -51.797237 72.089691 -15.595803 -6.7005305
14180000000 -26.928455 -139.23923 -53.719463 53.326931 -54.44376 54.719124 -15.620535 -7.0027161
14190000000 -26.687471 -152.55623 -55.571159 25.914675 -56.701485 29.495403 -15.703323 -7.1466689
14200000000 -27.428514 -156.68651 -61.097149 37.165672 -59.761551 35.837021 -16.014999 -7.3257298
14210000000 -27.262356 -165.40579 -57.657654 37.180912 -57.454765 43.758266 -16.535849 -7.5069509
14220000000 -28.546167 -163.98978 -56.604897 19.429707 -54.664074 20.078794 -17.089481 -7.6916723
14230000000 -28.071449 -166.14795 -58.449123 -0.10434912 -58.624962 -1.8349122 -17.508968 -7.8840151
14240000000 -28.442295 -160.20007 -59.222061 -0.54544067 -57.217278 -5.5129242 -17.888281 -7.8746285
14250000000 -27.247463 -159.54576 -56.297146 4.0350914 -56.447548 -2.9446785 -18.371675 -7.1701174
14260000000 -26.756124 -158.48567 -53.973614 -17.23069 -53.297356 -18.943361 -18.91902 -5.3149366
14270000000 -25.596401 -165.3511 -51.786999 -43.057678 -52.063847 -46.039253 -19.485258 -3.5915723
14280000000 -26.189402 -173.84998 -51.947102 -66.468521 -51.859863 -68.092064 -20.129631 -2.6615632
14290000000 -26.641649 -178.88269 -51.410023 -90.842484 -51.846924 -92.997925 -20.675882 -0.90620047
14300000000 -27.064711 178.21974 -51.578316 -94.293411 -51.823017 -100.35175 -20.91967 2.0118513
14310000000 -27.463236 171.49077 -49.388187 -118.10549 -50.617924 -117.0501 -20.859747 6.1645603
14320000000 -29.003811 176.51923 -49.922848 -140.89398 -49.644424 -137.27457 -20.64905 11.234412
14330000000 -27.931461 -178.584 -48.767368 -155.55403 -48.853672 -155.35718 -20.52973 17.570852
14340000000 -27.610247 -178.8051 -47.431648 -178.9124 -47.532028 -178.91037 -20.316317 24.637983
14350000000 -26.745953 -178.88547 -46.619743 159.31662 -46.591915 161.7261 -20.141273 30.835182
14360000000 -26.47053 178.02473 -46.419964 130.58235 -46.237137 132.62025 -20.00593 36.182957
14370000000 -26.320805 173.81833 -46.691223 114.48669 -46.325832 113.96317 -19.735552 40.110828
14380000000 -26.633066 169.43602 -46.074997 96.978767 -45.879635 94.014091 -19.336035 41.893532
14390000000 -27.196503 165.4982 -45.099976 75.411011 -44.810467 74.130119 -18.860472 42.037487
14400000000 -28.502331 166.18581 -44.670792 52.769741 -44.424843 50.556461 -18.275412 41.580952
14410000000 -28.916641 168.68448 -43.639244 33.901009 -43.581425 31.095976 -17.64353 41.175758
14420000000 -28.935537 176.04309 -42.946251 7.3477435 -42.95129 6.0887365 -17.093355 41.416515
14430000000 -27.79887 175.04453 -42.963745 -15.660261 -42.716702 -16.879967 -16.513538 42.229004
14440000000 -27.612356 176.73055 -42.231667 -36.752811 -41.919147 -39.243565 -16.003712 41.815796
14450000000 -25.985224 174.95473 -41.961811 -60.822636 -42.083622 -63.405262 -15.633026 41.1217
14460000000 -26.206299 166.95306 -41.430813 -82.620697 -41.393173 -84.286995 -15.297994 40.101383
14470000000 -26.545351 167.65227 -41.120613 -107.53043 -41.292347 -109.28307 -14.992599 39.334412
14480000000 -27.158819 165.95789 -40.761238 -130.11046 -40.717922 -130.93025 -14.762755 38.866173
14490000000 -27.485725 170.60773 -40.20882 -153.61807 -40.312534 -156.35963 -14.641314 38.311165
14500000000 -28.264582 176.23125 -40.234001 -179.89987 -40.217224 178.70624 -14.683195 37.409916
14510000000 -27.02091 -177.19255 -40.066734 158.21101 -40.035175 156.44919 -14.796255 35.761459
14520000000 -26.575373 -178.37741 -39.886681 136.01929 -39.838909 134.33548 -14.828013 33.537102
14530000000 -25.725367 -179.24728 -39.391827 110.20729 -39.422668 108.22722 -14.698667 31.480639
14540000000 -25.36092 175.92036 -39.338032 86.339348 -39.587559 84.151749 -14.456287 30.43907
14550000000 -24.82443 170.87451 -39.281452 60.745682 -39.330383 59.019173 -14.209332 30.516527
14560000000 -25.428541 167.64545 -39.466949 36.718262 -39.764809 36.290699 -14.090533 30.981455
14570000000 -25.480963 169.96092 -39.830498 13.811575 -39.79911 13.289429 -14.141818 31.870173
14580000000 -25.499865 171.57532 -39.888248 -9.4630098 -40.034088 -10.967847 -14.178358 32.390434
14590000000 -25.187267 176.30054 -40.367847 -31.250864 -40.464664 -30.975912 -14.189672 32.255665
14600000000 -24.510836 178.84352 -40.111668 -51.381565 -40.10799 -52.147655 -14.118775 32.000164
14610000000 -23.591734 178.52473 -40.092606 -73.904625 -40.009792 -74.756012 -14.029991 31.827572
14620000000 -23.102886 175.00226 -39.862629 -97.054703 -39.739246 -97.730347 -13.971147 31.869051
14630000000 -22.858383 171.42513 -40.010067 -120.25734 -39.96241 -120.68319 -13.952483 31.729507
14640000000 -22.699291 166.37306 -40.138397 -141.23436 -39.929981 -142.86241 -13.933015 30.961596
14650000000 -23.115568 164.80385 -39.955772 -164.11981 -40.01363 -165.21455 -13.852145 29.816532
14660000000 -23.12652 163.92709 -39.883427 173.82019 -39.684616 172.98668 -13.634735 28.646463
14670000000 -23.183052 166.29936 -39.736145 149.69873 -39.617836 147.49135 -13.33885 27.861172
14680000000 -22.705473 169.74725 -40.121288 125.61288 -40.302811 125.47643 -12.994144 27.382759
14690000000 -21.872194 169.54271 -40.202965 102.87935 -40.118412 103.61578 -12.801767 27.273552
14700000000 -21.23053 165.77655 -40.628536 80.397636 -40.548679 81.579338 -12.723932 27.150558
14710000000 -20.904711 162.9178 -40.361248 60.136749 -40.050163 59.722294 -12.743604 26.637527
14720000000 -20.808199 156.58275 -39.998302 35.012768 -39.96648 34.180546 -12.8309 25.84137
14730000000 -21.407104 153.84824 -40.508118 8.6866264 -40.006451 9.7525101 -12.899445 24.729378
14740000000 -21.647175 152.15193 -40.904583 -12.567042 -40.737061 -14.087155 -12.970488 23.311058
14750000000 -21.954756 154.19141 -40.879673 -33.138767 -40.506378 -34.642136 -12.976708 21.318007
14760000000 -21.431181 153.62505 -41.205345 -58.835686 -41.146549 -60.366982 -12.963696 18.999601
14770000000 -21.301611 153.16963 -41.219063 -78.353134 -40.820911 -79.945747 -12.944285 17.010582
14780000000 -20.527966 152.09573 -41.296478 -102.98016 -41.28743 -107.14599 -12.913119 15.748985
14790000000 -20.186735 148.26105 -41.524597 -124.71163 -41.603828 -125.40707 -12.924814 15.19942
14800000000 -19.977592 145.46045 -41.349407 -150.67238 -41.508324 -152.99451 -13.063313 15.118197
14810000000 -20.068863 141.89485 -42.353916 -176.10048 -42.251476 -175.8103 -13.209091 15.077534
14820000000 -20.270731 140.58687 -42.922863 164.62976 -42.782791 161.60919 -13.395205 14.465023
14830000000 -20.595556 139.27328 -43.183605 140.76576 -43.27589 140.06734 -13.602124 13.718785
14840000000 -20.678295 139.78235 -43.790752 119.62827 -43.549297 119.41452 -13.816275 13.25976
14850000000 -20.845062 138.54424 -44.206203 99.642761 -43.97002 97.437263 -14.057758 13.246508
14860000000 -20.658491 137.73334 -44.274132 73.018219 -43.688034 70.473366 -14.313332 13.596348
14870000000 -20.683966 134.50627 -45.593773 56.021553 -45.393955 48.848972 -14.605411 12.984275
14880000000 -20.536182 131.74959 -45.654461 35.014862 -45.374264 29.277214 -14.867052 11.595366
14890000000 -20.599457 128.42256 -45.633591 13.004201 -46.579136 5.7016892 -14.974539 9.8892536
14900000000 -20.561298 125.7309 -45.99271 -8.9114037 -46.464897 -10.787086 -14.958626 9.2451105
14910000000 -20.834291 124.23759 -46.68121 -34.624374 -47.05756 -40.983536 -14.864882 10.382823
14920000000 -20.641088 123.24181 -48.216766 -53.019985 -48.93718 -52.453846 -14.844851 12.794271
14930000000 -21.053619 121.90823 -48.890072 -75.041885 -49.059803 -77.732559 -14.999514 15.165617
14940000000 -20.892572 122.74875 -49.940865 -88.236694 -50.389553 -85.445946 -15.400227 17.11166
14950000000 -21.240133 121.09167 -50.245426 -106.05598 -49.769756 -108.27944 -15.831559 18.204252
14960000000 -21.265718 121.14957 -50.513077 -125.28452 -51.19149 -131.02312 -16.151762 18.519068
14970000000 -21.754276 119.34405 -50.63953 -138.52095 -50.695614 -142.74849 -16.322678 18.870537
14980000000 -21.808865 119.22099 -50.247478 -163.33699 -51.512783 -169.3075 -16.429577 19.845972
14990000000 -22.215263 116.71925 -52.331993 172.52124 -53.422546 165.85548 -16.573454 21.316399
15000000000 -22.314486 114.32166 -52.909428 160.41869 -55.599781 156.73122 -16.790934 22.609346
15010000000 -23.035847 113.5083 -54.140862 143.43192 -55.921368 157.17195 -16.977196 23.523399
15020000000 -22.782635 113.2028 -54.413406 138.47867 -55.511917 147.95207 -16.887794 23.999283
15030000000 -23.224524 111.52439 -54.194939 126.56222 -54.442917 138.40314 -16.486671 25.16116
15040000000 -23.209219 112.58107 -53.872547 112.92014 -54.644932 119.5617 -15.942091 27.112068
15050000000 -23.83943 113.32259 -53.425037 99.620438 -51.934345 113.71975 -15.548968 30.181625
15060000000 -23.338625 116.84287 -52.971867 79.068153 -52.062111 79.781097 -15.371782 33.489193
15070000000 -23.697361 114.17593 -51.300838 69.685104 -51.069618 74.093086 -15.452125 35.999535
15080000000 -23.906183 117.50945 -51.425659 42.333088 -51.071899 48.220711 -15.621038 37.204647
15090000000 -24.385756 116.29945 -51.617901 29.584961 -50.246197 32.61932 -15.735253 37.162693
15100000000 -24.272619 118.53289 -50.264458 14.446557 -49.473042 16.448837 -15.678064 36.424809
15110000000 -25.132471 116.56635 -49.302902 -4.0453939 -48.037018 -3.7903802 -15.443081 35.671154
15120000000 -25.164377 121.17284 -48.245232 -24.206478 -47.025543 -29.108883 -15.154333 35.24295
15130000000 -25.361261 121.15513 -47.450375 -45.557274 -47.286781 -50.507378 -14.903757 34.680824
15140000000 -24.730452 125.56923 -47.139503 -67.221298 -46.413696 -71.491638 -14.682148 33.955944
15150000000 -24.456421 122.66776 -45.973412 -87.958382 -45.950203 -91.74482 -14.419583 33.287754
15160000000 -24.169514 124.06533 -46.068436 -112.30061 -45.523342 -112.79166 -14.157918 32.868225
15170000000 -24.10033 121.59286 -45.115501 -131.40401 -45.061314 -136.17336 -13.957343 33.126541
15180000000 -23.914114 123.68826 -44.804752 -153.94196 -44.676735 -154.59729 -13.85063 33.782551
15190000000 -24.089277 121.3501 -44.06641 -175.41496 -44.132881 -177.50838 -13.916309 34.134586
15200000000 -24.387735 125.84914 -43.768299 161.12796 -43.436253 161.97432 -14.103319 33.977406
15210000000 -24.255592 128.05156 -43.026981 138.77542 -42.789585 135.33853 -14.323489 33.0769
15220000000 -23.744711 130.30794 -42.822098 113.88951 -42.622746 113.74699 -14.500244 31.89863
15230000000 -23.431723 128.29227 -42.662106 89.622269 -42.231468 87.325935 -14.547783 30.500628
15240000000 -23.266706 126.71035 -42.645901 69.238403 -42.204693 65.422493 -14.547949 29.165754
15250000000 -23.130205 123.3593 -41.985901 44.748425 -41.711605 39.687332 -14.50491 28.030497
15260000000 -23.100939 121.75103 -42.137108 24.158766 -42.248295 19.660072 -14.448712 27.123369
15270000000 -23.110853 119.04877 -41.343338 1.1780275 -41.324478 -2.656903 -14.362883 27.381094
15280000000 -23.289505 117.89837 -41.387726 -23.228714 -41.4786 -27.913261 -14.250676 28.278685
15290000000 -23.357967 118.42754 -41.050659 -47.745064 -41.164505 -51.013649 -14.229093 29.930237
15300000000 -23.087032 119.58062 -40.854462 -72.260147 -41.176369 -75.254982 -14.346072 31.645082
15310000000 -22.929893 118.05013 -41.159939 -97.084114 -41.391396 -97.435005 -14.562057 33.069912
15320000000 -22.798622 117.11127 -41.120186 -117.52603 -41.200165 -120.99848 -14.826824 33.878319
15330000000 -22.589861 114.75404 -41.124718 -143.06403 -41.349354 -144.84019 -15.004794 33.960854
15340000000 -22.877254 112.12106 -41.468559 -164.98386 -41.347786 -166.37471 -15.085997 33.506062
15350000000 -22.950565 110.31276 -41.1376 173.25519 -41.150139 169.7213 -15.070782 33.302811
15360000000 -23.487658 107.24001 -41.028515 148.3353 -41.220184 147.09828 -15.025419 33.255428
15370000000 -23.62472 106.60298 -41.425484 126.39096 -41.368053 123.24993 -14.976647 32.928795
15380000000 -24.030951 105.31084 -41.055714 103.11608 -41.044914 98.999672 -14.888451 32.49247
15390000000 -24.048788 105.67311 -41.54314 80.323769 -41.732288 76.385437 -14.691956 32.083447
15400000000 -23.854137 103.13158 -41.147961 57.6992 -41.454853 54.719711 -14.409631 32.341434
15410000000 -23.898796 100.30334 -41.242531 30.81349 -41.551868 28.861757 -14.174995 33.562408
15420000000 -24.256536 95.593575 -41.726933 9.1144066 -42.205101 5.7907443 -14.048316 35.666126
15430000000 -24.777613 95.373116 -41.897007 -15.581907 -42.423737 -17.636772 -14.105762 37.440247
15440000000 -25.243874 92.694763 -42.841702 -37.49865 -43.262672 -37.441818 -14.356994 38.130264
15450000000 -25.889812 92.529869 -42.740891 -56.958267 -42.790031 -58.247101 -14.654652 37.404709
15460000000 -26.484398 91.498383 -42.498348 -82.928726 -42.986893 -83.358002 -14.871158 35.416016
15470000000 -26.899298 92.299744 -42.964016 -107.5017 -43.478184 -106.93976 -14.904373 33.360237
15480000000 -27.160236 90.282005 -43.435978 -132.83127 -43.683483 -130.74091 -14.789962 32.304077
15490000000 -27.417048 88.352852 -44.591446 -154.68275 -44.458237 -153.83281 -14.651419 32.045197
15500000000 -28.142303 82.918625 -45.110573 -174.23875 -44.989506 -172.4886 -14.536004 32.39045
15510000000 -28.774639 80.525681 -45.837734 167.94781 -45.495747 167.30199 -14.479959 32.843899
15520000000 -29.904253 78.308456 -46.347836 148.76295 -45.986229 148.49709 -14.439107 33.649055
15530000000 -30.538078 76.103668 -45.91441 129.62051 -45.818607 127.26402 -14.418815 34.852482
15540000000 -32.603825 74.473267 -46.216164 105.71618 -46.595406 103.66566 -14.42409 36.877567
15550000000 -33.976585 80.154396 -46.793758 84.305862 -47.104847 82.243401 -14.459938 38.686302
15560000000 -35.819664 80.183662 -47.221985 65.222191 -47.646389 65.9981 -14.598186 39.912964
15570000000 -37.30571 88.163338 -47.686203 41.980766 -47.867062 42.222118 -14.825889 40.658047
15580000000 -40.531757 94.981239 -48.078075 22.415323 -47.995842 25.645531 -15.054333 40.702522
15590000000 -40.162292 97.811523 -48.637161 -4.1789122 -48.141224 -1.2724133 -15.183005 40.137444
15600000000 -45.097969 113.73327 -50.187096 -18.171032 -50.078968 -18.919256 -15.189682 39.163593
15610000000 -47.421146 108.48994 -51.67955 -32.066574 -50.697018 -30.500128 -15.05515 38.137093
15620000000 -51.19503 -98.473328 -51.064266 -36.233418 -50.381081 -41.810581 -14.829701 37.369675
15630000000 -42.674789 -128.84639 -50.121395 -57.665348 -49.529846 -63.465736 -14.556767 37.696896
15640000000 -38.795437 -128.57825 -49.867714 -79.085815 -49.906437 -86.448822 -14.278532 38.882526
15650000000 -36.385471 -130.45758 -50.030869 -102.44184 -50.128742 -105.42976 -14.101196 40.589241
15660000000 -33.646809 -134.02017 -51.405365 -118.9215 -51.570759 -120.64441 -14.065516 42.501942
15670000000 -32.441658 -140.34526 -50.242416 -129.77713 -50.227951 -134.39064 -14.198993 43.603111
15680000000 -30.943398 -142.34636 -50.90147 -150.66354 -51.584904 -154.11911 -14.453285 43.808666
15690000000 -30.630253 -145.16132 -49.971039 -165.76796 -50.007347 -165.5009 -14.73641 43.640636
15700000000 -29.346348 -144.26106 -49.318439 171.63513 -49.84927 169.37866 -14.853366 43.715279
15710000000 -29.343454 -147.63101 -49.934063 151.50644 -49.680817 151.40491 -14.829306 43.715992
15720000000 -28.532152 -141.37357 -49.579857 139.49835 -49.418922 133.65421 -14.780981 43.786503
15730000000 -27.790453 -141.46486 -48.914978 117.23145 -48.923038 114.68967 -14.773342 43.462204
15740000000 -26.921888 -139.96043 -49.136436 99.755791 -49.202209 96.045036 -14.768059 43.45092
15750000000 -26.035418 -142.56026 -47.685196 81.059471 -48.209042 79.636574 -14.577064 43.589394
15760000000 -25.383148 -144.24146 -47.412048 54.862556 -47.589264 53.051346 -14.251206 44.357822
15770000000 -24.752794 -147.61755 -47.550709 35.692837 -48.311092 34.426315 -13.821856 46.4006
15780000000 -24.282415 -151.40175 -47.396351 17.851435 -47.79958 16.57309 -13.504423 48.984802
15790000000 -24.406555 -155.20404 -46.988239 -0.37692314 -47.573986 -0.15481405 -13.364913 51.852837
15800000000 -24.246029 -153.62883 -46.401806 -25.782957 -46.749668 -23.678341 -13.40552 53.855419
15810000000 -23.967131 -153.66069 -46.327896 -45.09436 -46.409176 -45.060738 -13.547091 54.502323
15820000000 -23.51202 -151.76991 -46.011826 -66.911392 -46.204235 -65.441727 -13.636039 53.701859
15830000000 -23.137608 -153.0464 -45.597565 -90.413322 -45.573891 -90.222321 -13.542992 52.10046
15840000000 -22.710094 -150.59354 -46.081345 -110.94781 -45.977547 -108.89713 -13.266745 50.335682
15850000000 -22.15485 -152.10603 -45.57061 -129.90097 -45.348179 -129.85219 -12.934285 48.735378
15860000000 -21.948444 -153.9052 -45.491535 -153.52612 -45.242146 -154.00031 -12.577521 47.611534
15870000000 -21.894392 -155.18552 -45.5159 -170.95576 -45.332935 -171.36113 -12.244214 46.784431
15880000000 -21.692829 -154.63451 -44.703732 167.74423 -44.428661 167.36496 -11.924004 46.341026
15890000000 -21.571369 -156.8175 -45.015854 145.51053 -44.53672 144.69908 -11.616166 46.223728
15900000000 -21.443048 -157.14659 -44.057495 124.38739 -44.122276 122.81822 -11.376158 46.495224
15910000000 -21.27672 -158.14282 -44.211205 99.021622 -43.896664 98.14743 -11.216043 46.685349
15920000000 -21.109224 -157.64485 -44.508678 80.647484 -44.407696 78.132294 -11.143276 46.398975
15930000000 -20.813892 -156.28491 -44.530388 60.536541 -44.190704 58.053345 -11.193609 45.509541
15940000000 -20.283262 -156.31882 -44.030754 38.371361 -44.094292 36.742573 -11.27238 43.957607
15950000000 -20.039692 -156.26256 -43.857281 20.032219 -43.723381 18.789045 -11.33302 41.717609
15960000000 -19.60479 -156.10396 -42.848133 -5.0221181 -42.826843 -7.9915433 -11.349786 39.041332
15970000000 -19.420061 -156.69998 -43.558445 -28.102385 -43.570602 -28.882135 -11.296565 36.096321
15980000000 -19.147095 -157.50826 -43.276688 -47.487083 -42.816025 -49.294468 -11.127625 33.574608
15990000000 -19.36326 -157.73856 -43.230301 -70.905319 -43 -73.994019 -10.920897 31.638243
16000000000 -19.098839 -155.20438 -43.307144 -90.853951 -43.020744 -93.963905 -10.719621 30.742418
16010000000 -18.864887 -155.93298 -42.852417 -111.40189 -42.685379 -115.4753 -10.616032 30.557344
16020000000 -18.585604 -155.01285 -42.78429 -131.69077 -42.562428 -135.45538 -10.662186 30.614838
16030000000 -18.165691 -154.95193 -42.25267 -152.35898 -42.315758 -157.86441 -10.843372 29.994558
16040000000 -17.620449 -156.30933 -41.760197 -178.02316 -41.904018 178.03596 -11.137527 28.344376
16050000000 -17.349968 -157.33388 -41.94857 157.14294 -41.978718 154.739 -11.406097 26.082392
16060000000 -17.003038 -158.65022 -41.930187 135.3671 -42.118382 132.53539 -11.615282 23.536411
16070000000 -16.988401 -158.69534 -41.877674 113.7198 -42.129925 111.37756 -11.736782 21.231207
16080000000 -16.596762 -158.29263 -41.722004 91.461754 -42.001427 89.300713 -11.893058 19.025604
16090000000 -16.500589 -158.21391 -41.62888 67.017365 -41.684708 66.399162 -12.069904 16.657799
16100000000 -16.157644 -156.76271 -41.938461 46.047989 -42.045292 44.337708 -12.239198 14.490427
16110000000 -15.732351 -157.04137 -41.666084 23.112823 -41.837673 23.633884 -12.297243 12.897474
16120000000 -15.323362 -157.48923 -41.755871 2.0378757 -41.623653 0.99623644 -12.261567 12.424117
16130000000 -14.950491 -159.66017 -41.571194 -19.770269 -41.567017 -20.237589 -12.252464 13.415007
16140000000 -14.788112 -160.9117 -41.511799 -42.507057 -41.431618 -45.168373 -12.407119 15.236004
16150000000 -14.504817 -162.13326 -41.863407 -66.698692 -41.882229 -68.021278 -12.774096 16.660421
16160000000 -14.296121 -163.4776 -41.980198 -87.308296 -41.731716 -89.01342 -13.315851 16.802078
16170000000 -14.15516 -163.99913 -42.198292 -107.5136 -42.248726 -111.49709 -13.892953 15.109229
16180000000 -13.845543 -163.43233 -41.767166 -130.8938 -41.766544 -133.36247 -14.306596 12.281223
16190000000 -13.5046 -164.13603 -41.973324 -153.59875 -41.985329 -156.27794 -14.497447 9.785409
16200000000 -13.203436 -163.61673 -42.000954 -175.90939 -42.21912 -176.79475 -14.526254 8.2250843
16210000000 -12.736265 -164.5363 -42.029907 162.48595 -41.984943 160.45798 -14.552183 7.3965478
16220000000 -12.501073 -166.0446 -42.252686 140.99843 -42.468994 140.2856 -14.61472 6.7484913
16230000000 -12.254009 -167.74245 -42.053284 120.94279 -41.944656 119.52834 -14.655859 6.2104082
16240000000 -12.136838 -169.25998 -41.923286 96.979996 -41.885181 95.947273 -14.654726 6.3728356
16250000000 -12.010568 -170.97984 -41.872173 76.49585 -41.996006 73.426094 -14.600106 7.8946214
16260000000 -11.970621 -171.52708 -41.873013 52.397102 -42.06044 51.375832 -14.687369 10.173222
16270000000 -11.695894 -172.61055 -42.180626 29.704691 -42.254627 28.984478 -14.944265 12.603043
16280000000 -11.497652 -172.69301 -42.350281 7.9116583 -42.343277 8.5403986 -15.441894 13.718551
16290000000 -11.062222 -174.00688 -42.262108 -11.655751 -42.180115 -12.740328 -16.016794 12.470726
16300000000 -10.821986 -174.84856 -42.077599 -35.815418 -41.80825 -35.491417 -16.536642 9.2435436
16310000000 -10.41285 -176.35992 -42.160229 -60.523312 -41.960175 -62.369804 -16.79961 5.6026826
16320000000 -10.286742 -177.91602 -42.371426 -80.75515 -42.1245 -83.332245 -16.831926 2.8311448
16330000000 -10.086931 -179.25644 -42.1698 -106.99557 -42.22897 -109.40353 -16.781965 1.1491202
16340000000 -10.059726 179.49339 -42.96656 -128.55322 -42.550697 -131.66118 -16.727215 -0.25769931
16350000000 -9.9769335 178.7099 -42.738991 -150.55214 -42.83942 -153.80534 -16.772312 -1.3909978
16360000000 -9.9032383 178.36662 -42.779587 -174.8654 -42.74577 -177.67917 -16.867701 -1.4865942
16370000000 -9.6748638 177.31424 -43.352131 161.42288 -43.284149 159.14146 -16.980513 -0.62425482
16380000000 -9.4805012 176.59355 -43.781475 141.19788 -43.808918 138.80945 -17.321602 0.85744768
16390000000 -9.1768541 174.74982 -43.823799 116.90897 -43.674953 114.07573 -17.983917 1.7770814
16400000000 -8.9682264 173.40323 -44.681896 93.946838 -44.705185 91.169571 -18.949614 0.90074283
16410000000 -8.7644815 171.36589 -44.834553 71.574081 -44.816929 69.295067 -20.055784 -2.3437083
16420000000 -8.6362629 170.25119 -45.437687 48.54924 -45.523891 47.075001 -20.881813 -7.025785
16430000000 -8.49963 168.86188 -46.016407 25.090191 -46.453449 24.161064 -21.380959 -11.329689
16440000000 -8.4651518 168.43829 -46.504704 4.5374942 -46.613148 3.7619286 -21.827805 -14.044912
16450000000 -8.3257132 167.9048 -47.790249 -18.849033 -48.016045 -20.900982 -22.402782 -15.011059
16460000000 -8.1770954 167.82629 -48.10128 -34.658566 -48.418377 -34.449997 -23.008318 -15.58447
16470000000 -7.9877677 166.63837 -48.895695 -53.424049 -48.807495 -55.159859 -23.618729 -15.519763
16480000000 -7.8219514 165.81908 -49.783768 -74.300003 -49.854015 -71.072617 -23.974491 -11.888037
16490000000 -7.6234732 164.10817 -50.749569 -84.963661 -50.748016 -86.670273 -24.278362 -4.1103678
16500000000 -7.504642 162.58601 -49.706097 -101.9723 -49.900135 -100.91132 -24.552465 7.8664708
16510000000 -7.38837 160.78575 -50.692619 -125.05128 -50.353542 -123.95148 -25.288857 20.970568
16520000000 -7.3196535 159.77847 -51.487244 -137.41472 -51.091599 -136.12469 -26.707516 35.163086
16530000000 -7.2120752 158.72113 -51.68869 -146.90475 -51.537827 -150.66135 -28.46723 47.166889
16540000000 -7.09584 158.50613 -50.368427 -162.06232 -50.453751 -163.20326 -30.150902 51.635017
16550000000 -6.8912964 157.94981 -49.525478 178.80661 -49.517139 175.47961 -31.251701 46.565506
16560000000 -6.69906 157.43562 -48.914635 155.20172 -48.896389 153.68683 -30.917162 41.134174
16570000000 -6.5149875 156.4521 -49.284832 136.23907 -49.215321 132.6859 -30.010794 40.091194
16580000000 -6.3251362 155.33911 -47.988766 118.00444 -48.591785 115.61417 -29.206652 45.020969
16590000000 -6.2182889 153.74835 -48.332649 93.54451 -48.139736 94.11499 -28.616264 48.848724
16600000000 -6.1513572 152.47975 -48.227093 72.390594 -48.780502 68.255035 -28.088791 51.446693
16610000000 -6.0744481 151.30815 -48.046207 55.802483 -47.8395 57.223537 -27.367411 54.498604
16620000000 -5.9627867 150.36465 -47.512154 33.583916 -47.629967 33.018654 -26.294081 61.424698
16630000000 -5.8219752 149.44038 -47.272194 12.191193 -47.094635 10.675176 -25.029427 70.100891
16640000000 -5.6304698 148.68555 -47.175507 -6.6989598 -47.321568 -8.4284811 -24.282499 80.524902
16650000000 -5.4114609 147.66072 -46.85516 -29.726072 -46.775085 -29.036139 -23.893566 90.098328
16660000000 -5.1990504 146.5443 -46.799858 -51.712513 -46.564285 -54.494537 -24.014923 98.950859
16670000000 -5.0239215 145.36389 -46.068146 -74.825432 -46.044186 -75.586243 -24.400761 102.77463
16680000000 -4.8825479 144.16019 -46.89035 -101.36533 -46.79734 -102.47608 -24.875919 101.28209
16690000000 -4.7643299 143.09772 -47.317055 -118.80582 -47.094032 -118.8353 -24.930634 95.871788
16700000000 -4.6508074 141.96156 -46.801659 -136.86649 -46.44281 -139.41469 -24.182814 91.068954
16710000000 -4.5463614 140.94421 -46.336823 -159.31009 -46.283855 -162.48914 -22.892982 87.282005
16720000000 -4.4032893 139.81682 -46.358044 -179.62419 -46.311516 177.13184 -21.759453 85.359573
16730000000 -4.2522812 138.67307 -46.09264 155.44391 -46.362202 152.62419 -20.904951 84.973457
16740000000 -4.0702882 137.30731 -46.37336 135.7919 -46.430019 135.11179 -20.230494 85.712837
16750000000 -3.9123721 135.89975 -46.268074 112.54443 -46.348312 112.52128 -19.640844 87.403183
16760000000 -3.7524354 134.50632 -46.15379 92.92411 -46.221497 91.790337 -19.234911 88.0653
16770000000 -3.5891716 133.11635 -46.294422 70.901222 -46.136982 69.582901 -19.181814 88.674759
16780000000 -3.4790692 131.6692 -46.212181 50.709385 -46.244568 48.335747 -19.400545 88.717834
16790000000 -3.3504918 130.71153 -46.308865 28.220352 -46.073944 28.504648 -19.71982 87.472313
16800000000 -3.2197959 129.24031 -46.16901 6.8440847 -45.853718 4.9880219 -20.173985 83.573639
16810000000 -3.1208107 128.13455 -45.95726 -16.256401 -45.809376 -17.394787 -20.61705 78.145927
16820000000 -2.98369 126.61447 -46.171898 -36.196846 -45.789036 -39.197227 -20.767431 72.02948
16830000000 -2.8711426 125.23413 -45.908978 -56.320076 -45.779888 -60.068584 -20.520981 66.135643
16840000000 -2.7360122 123.58784 -45.735569 -79.137154 -45.626045 -83.408279 -20.10882 62.038677
16850000000 -2.6090682 122.03991 -45.741497 -101.73065 -45.928326 -104.78612 -19.708889 60.800747
16860000000 -2.4913609 120.3287 -45.620453 -120.27395 -45.811493 -124.17598 -19.465382 62.21431
16870000000 -2.3789847 118.92399 -45.184853 -143.90959 -45.55711 -145.86401 -19.523392 65.046928
16880000000 -2.2587309 117.41176 -45.189548 -167.13698 -45.15588 -168.18387 -19.906105 68.508987
16890000000 -2.1480432 116.1116 -44.69062 168.3157 -44.678684 166.16573 -20.714886 71.082809
16900000000 -2.0489266 114.73479 -45.410805 144.34036 -45.36454 142.21423 -21.85833 72.927887
16910000000 -1.9514279 113.49057 -45.523026 122.24199 -45.53466 120.6244 -23.1786 73.836639
16920000000 -1.8565744 112.04532 -45.477798 100.72517 -45.615425 100.98062 -24.429409 73.576439
16930000000 -1.7635233 110.55519 -45.646458 78.064507 -45.416042 76.331078 -25.45104 71.521461
16940000000 -1.68464 108.88979 -45.561886 55.793732 -45.368275 54.216419 -26.194622 69.741379
16950000000 -1.5940379 107.24928 -45.489044 31.723125 -45.53677 30.074953 -26.693605 70.437698
16960000000 -1.5190607 105.48995 -45.593735 10.203287 -45.463551 8.501483 -26.2213 75.597076
16970000000 -1.4339765 103.88459 -45.619923 -12.873589 -45.507679 -15.443201 -25.25161 81.777443
16980000000 -1.3533088 102.23457 -45.614799 -37.203873 -45.61055 -39.267788 -24.263561 89.328987
16990000000 -1.267683 100.75644 -45.848759 -60.059978 -45.876781 -62.481186 -23.131178 98.07267
17000000000 -1.1807841 99.290222 -46.12347 -85.610107 -46.162357 -87.502434 -22.181328 105.91872
