!Keysight Technologies,P9374A,MY57211807,A.19.30.04
!Date: Friday, May 08, 2026 15:39:16
!Correction: S11(C  2-Port  ) 
!S21(C  2-Port  ) 
!S12(C  2-Port  ) 
!S22(C  2-Port  ) 
!S2P File: Measurements: S11, S21, S12, S22:
# Hz S  dB   R 50
13000000000 -19.044369 45.615852 -42.070751 14.119923 -42.963715 9.4797354 -8.8210707 25.946659
13010000000 -20.895712 49.89386 -42.595188 -7.3236237 -43.57515 -8.0849714 -8.9230165 21.722019
13020000000 -21.46125 63.838684 -42.4767 -27.862484 -43.15147 -31.970337 -9.1129255 18.001293
13030000000 -20.490435 73.524803 -42.267578 -55.03648 -43.889545 -60.132523 -9.2811165 14.43727
13040000000 -19.284124 75.416191 -43.099831 -80.15274 -44.795971 -80.911293 -9.4781618 10.98068
13050000000 -18.166981 71.700821 -44.556709 -104.68672 -46.707039 -103.66167 -9.7673206 7.5393176
13060000000 -17.875229 62.541241 -45.381866 -115.38953 -46.918221 -110.4762 -10.210629 4.137116
13070000000 -18.523865 55.260899 -44.746384 -134.79605 -46.34145 -130.92128 -10.772773 1.2346382
13080000000 -19.324337 51.327374 -44.138474 -160.15929 -45.681812 -155.61569 -11.344095 -1.7036639
13090000000 -20.642824 49.35239 -44.40358 173.17761 -46.707047 177.20271 -11.838574 -4.7300906
13100000000 -21.411274 58.775459 -46.185272 142.46695 -49.476971 156.41835 -12.279415 -7.9104066
13110000000 -21.156807 65.549599 -48.373558 135.98042 -49.616501 159.36963 -12.838862 -10.628489
13120000000 -20.210411 72.30027 -47.795284 123.30008 -48.342251 145.1467 -13.557019 -12.33917
13130000000 -18.816982 71.265472 -46.297447 103.8903 -46.480473 121.74191 -14.331443 -13.153317
13140000000 -18.147318 65.898018 -45.914413 75.702591 -46.131302 90.933746 -15.157492 -13.890159
13150000000 -18.162447 60.102074 -46.860683 44.193176 -47.662605 64.036942 -15.915241 -14.763729
13160000000 -18.478922 55.660511 -49.857719 28.709324 -49.18515 55.94796 -16.633047 -15.043324
13170000000 -19.376934 51.922359 -50.502048 20.841587 -48.328445 50.621136 -17.440514 -14.448071
13180000000 -20.063883 53.013821 -49.166019 16.290525 -45.623363 32.430256 -18.409424 -11.729767
13190000000 -20.846394 54.304398 -47.044773 -11.872156 -44.407429 -0.08795362 -19.567476 -7.4709644
13200000000 -20.6539 62.497948 -47.25462 -41.34568 -44.706753 -28.149555 -20.833551 -2.2707975
13210000000 -19.735153 62.330509 -49.10186 -62.075008 -45.65403 -48.66848 -21.955927 2.8899496
13220000000 -19.062639 62.101658 -48.73666 -75.232635 -44.780247 -65.099182 -22.661907 8.0295134
13230000000 -18.40169 57.97636 -47.980602 -92.831741 -44.312119 -88.430847 -22.964058 13.139623
13240000000 -18.204123 53.194916 -48.421246 -114.30368 -44.003727 -113.36372 -22.984072 22.654711
13250000000 -18.425812 48.742504 -47.70525 -130.22278 -43.78043 -134.95528 -22.292374 34.709888
13260000000 -18.826628 44.897038 -46.988346 -157.14655 -43.651512 -160.8979 -21.315681 44.866886
13270000000 -19.822521 43.042519 -47.530506 -176.16556 -43.595795 179.01591 -20.662493 51.692513
13280000000 -20.341654 47.597744 -47.137573 163.73393 -43.146732 152.79219 -20.318222 57.427193
13290000000 -20.527502 48.128452 -46.88995 144.04941 -43.37735 131.20901 -19.798302 62.000599
13300000000 -20.28993 52.42334 -45.634083 126.08244 -42.83461 110.21552 -18.967216 63.484787
13310000000 -19.706919 50.550793 -44.878822 97.472778 -42.289925 83.777412 -17.983921 63.349461
13320000000 -19.114397 47.914455 -44.422962 71.664246 -41.944778 56.810432 -17.154327 63.388206
13330000000 -18.894371 42.534927 -44.4077 42.984425 -42.079979 28.299704 -16.48465 64.23481
13340000000 -18.938156 37.293488 -44.867691 19.512209 -42.64539 1.1765232 -15.933291 65.363586
13350000000 -19.583666 33.489437 -45.35939 -0.68343347 -43.407471 -18.849176 -15.457731 65.076149
13360000000 -19.771122 31.937094 -44.782066 -20.610989 -42.407959 -39.302784 -15.030482 62.925255
13370000000 -20.868359 29.144968 -43.18013 -42.855034 -41.677849 -67.688591 -14.533049 59.966351
13380000000 -21.437443 35.729404 -42.766136 -76.614639 -41.83931 -98.589485 -13.908787 57.072865
13390000000 -21.33242 37.834404 -42.838093 -106.90355 -42.116802 -124.82001 -13.244422 55.240875
13400000000 -21.121977 39.87896 -43.134533 -133.62408 -42.118595 -151.1971 -12.63359 53.997803
13410000000 -20.562607 38.384716 -43.2962 -162.397 -42.012337 179.1244 -12.247565 53.184586
13420000000 -20.09906 33.20919 -43.556591 170.39632 -42.408428 150.11301 -12.009929 51.963989
13430000000 -20.057724 26.366755 -44.344906 146.76964 -43.3368 123.10114 -11.834457 49.837803
13440000000 -20.423267 19.042171 -43.653347 119.50883 -43.748276 102.11119 -11.704637 46.504532
13450000000 -21.591606 13.923187 -44.22921 91.770439 -43.340927 77.404808 -11.586523 42.96471
13460000000 -22.622507 14.394824 -43.094013 67.986694 -42.311031 50.004757 -11.384643 40.030922
13470000000 -23.996847 17.160275 -42.699535 29.850113 -42.066288 15.491311 -11.147309 37.917137
13480000000 -24.051517 29.619513 -43.666115 -2.6587281 -42.619072 -14.679825 -10.952704 35.284752
13490000000 -22.955564 32.658806 -44.004723 -29.865248 -42.598026 -43.82008 -10.95822 32.764187
13500000000 -22.046471 30.926302 -43.935368 -61.166462 -42.436932 -76.875107 -11.084824 30.632736
13510000000 -21.44729 24.97732 -44.028381 -90.013733 -42.440109 -107.21275 -11.210013 28.925011
13520000000 -21.397562 13.635341 -43.670135 -124.44292 -42.537861 -139.62907 -11.249909 27.539551
13530000000 -22.531023 4.0781674 -44.6343 -155.35292 -42.824909 -168.42091 -11.330715 25.542839
13540000000 -23.952784 -3.3651159 -45.141304 178.37349 -43.003681 162.36839 -11.549926 24.015768
13550000000 -26.907063 -4.7481966 -44.933701 155.8546 -43.014587 136.6167 -11.798446 23.141485
13560000000 -28.449257 16.387911 -43.784847 126.89855 -42.677486 110.51177 -12.035578 22.256786
13570000000 -27.136211 33.061169 -43.599167 97.246239 -42.055637 86.732162 -12.232318 21.225861
13580000000 -24.475046 35.818695 -42.811779 68.95974 -40.917763 58.048008 -12.376048 20.609652
13590000000 -22.937613 27.085972 -42.05619 37.472969 -40.385693 27.311029 -12.419475 20.367357
13600000000 -22.724161 14.485344 -41.841618 5.3333569 -40.039204 -4.084352 -12.393566 20.402035
13610000000 -23.445921 3.5836346 -42.355824 -25.247446 -40.212688 -37.9007 -12.384298 20.526634
13620000000 -25.205975 -8.0305004 -42.434978 -50.80838 -41.038963 -64.236259 -12.460147 21.165648
13630000000 -28.882111 -14.261333 -42.252171 -78.496666 -41.323521 -90.886971 -12.442474 22.017506
13640000000 -33.72485 4.5830646 -42.493504 -103.62822 -41.562572 -111.22202 -12.425926 22.195871
13650000000 -31.543186 47.878868 -42.261055 -126.14925 -41.360977 -135.85107 -12.396266 21.916376
13660000000 -27.251791 46.743927 -42.025379 -150.82872 -40.85009 -159.06505 -12.3495 21.189007
13670000000 -24.947304 35.061375 -41.358196 -174.02562 -40.280605 174.13646 -12.226174 20.659904
13680000000 -24.092432 22.105471 -40.459591 160.88106 -39.839066 147.17917 -12.026162 19.871433
13690000000 -23.923386 9.4468021 -39.879169 130.2851 -39.647213 117.67854 -11.799422 18.987669
13700000000 -25.248711 -5.9041576 -39.851925 100.21332 -40.099266 90.74585 -11.631093 17.801834
13710000000 -28.468166 -12.806111 -40.553223 71.501518 -40.216045 64.284462 -11.566051 16.340637
13720000000 -33.361835 -2.0637155 -41.180153 49.385807 -40.470158 39.833481 -11.537947 14.929498
13730000000 -32.666115 47.126324 -41.261059 31.419779 -40.871532 17.048788 -11.450562 13.279292
13740000000 -28.640495 54.35054 -40.343353 7.8075814 -40.738239 -4.9631162 -11.366782 10.998962
13750000000 -25.866249 45.222809 -39.855804 -18.409145 -40.360836 -26.876997 -11.357635 8.9751291
13760000000 -24.71014 29.142212 -39.804733 -46.273491 -39.916111 -52.921001 -11.395787 7.4144034
13770000000 -24.703859 13.090525 -39.974064 -74.080666 -39.829708 -80.853996 -11.545025 5.6852117
13780000000 -25.399904 -3.8185749 -40.356171 -99.363914 -40.511761 -107.52837 -11.813331 3.6633856
13790000000 -27.700058 -13.739245 -41.006485 -123.44507 -40.94714 -130.34113 -12.106586 1.2482082
13800000000 -30.433823 -15.977045 -41.174301 -142.11942 -41.639763 -151.15941 -12.365644 -1.2997146
13810000000 -32.642414 9.3983059 -41.040604 -167.21846 -41.681435 -171.64816 -12.526039 -3.5869908
13820000000 -30.648586 25.470005 -41.387779 170.3042 -41.445484 170.35709 -12.746431 -5.023201
13830000000 -27.377453 30.093294 -41.500748 150.99876 -41.032959 146.47577 -13.001393 -5.582665
13840000000 -25.808737 17.827749 -41.102161 126.09427 -40.929153 121.31864 -13.385963 -5.7934141
13850000000 -25.334541 9.6116724 -41.407352 102.93227 -41.4422 98.321136 -13.817179 -5.6617661
13860000000 -25.330282 -5.8360634 -41.23127 79.937553 -41.414898 75.483063 -14.254084 -5.9916162
13870000000 -26.637119 -14.451918 -41.521896 51.792183 -41.615383 51.28194 -14.639796 -6.1454282
13880000000 -27.758013 -23.89724 -42.706108 27.576292 -42.123512 29.02425 -14.965956 -5.441412
13890000000 -29.65802 -24.652613 -44.126045 14.424904 -42.713573 10.535911 -15.244489 -3.859946
13900000000 -30.901457 -19.117443 -43.448952 -1.1354452 -42.618114 -10.768511 -15.483558 -1.8939221
13910000000 -30.417936 -5.8454442 -43.05154 -19.33621 -42.656162 -27.720505 -15.763595 -0.0079787914
13920000000 -28.858648 -8.6301165 -42.03709 -41.142838 -41.97319 -50.072487 -16.031439 1.1371509
13930000000 -28.063684 -11.330737 -41.889198 -66.940468 -41.637321 -74.781761 -16.158846 2.2328377
13940000000 -27.645227 -20.46077 -42.287346 -92.12719 -42.12109 -100.66513 -16.106165 3.3316813
13950000000 -27.480297 -27.510359 -42.63488 -113.91929 -42.287991 -122.30643 -15.922935 4.6401286
13960000000 -27.769798 -40.582554 -43.622417 -132.73795 -43.238655 -142.86028 -15.669114 6.5308599
13970000000 -28.396433 -51.442959 -43.209702 -146.66953 -43.106369 -161.40926 -15.50995 8.4808407
13980000000 -29.255747 -60.333057 -42.421268 -168.01952 -43.262756 -178.71764 -15.397792 9.8725481
13990000000 -29.734264 -67.371918 -42.254356 172.95445 -42.707489 162.31897 -15.418839 10.501237
14000000000 -30.687563 -73.102798 -41.661163 149.32384 -42.025543 138.61177 -15.512998 10.702308
14010000000 -30.722494 -67.433655 -41.592556 125.92262 -42.069202 115.59698 -15.594935 11.087482
14020000000 -30.350386 -66.194359 -41.622208 105.38771 -42.01453 96.440384 -15.545195 10.933067
14030000000 -29.252901 -60.867538 -41.24622 84.404579 -41.782585 74.359795 -15.494558 10.254986
14040000000 -28.243738 -64.935226 -40.856758 63.772957 -41.767586 53.891933 -15.532979 9.4828825
14050000000 -27.304447 -71.497955 -40.298771 39.394169 -41.340675 33.363598 -15.627835 8.8317461
14060000000 -27.176821 -83.309937 -40.38319 16.647936 -41.138748 10.875594 -15.725889 8.6342897
14070000000 -27.812773 -96.309532 -40.243523 -7.1282034 -41.121296 -12.738244 -15.876825 8.3337555
14080000000 -28.975979 -109.31952 -40.272652 -27.964989 -41.191422 -30.937567 -15.891856 8.2492657
14090000000 -30.088181 -119.1414 -39.957962 -50.467064 -40.744297 -52.710304 -15.870522 7.5826011
14100000000 -31.578775 -127.82066 -39.702168 -72.966148 -40.460091 -76.050835 -15.834991 7.1505165
14110000000 -33.154919 -120.80683 -39.405525 -95.806694 -40.404133 -97.006119 -15.864096 7.1067996
14120000000 -31.4652 -108.62488 -39.252621 -120.89267 -39.979588 -118.79863 -15.925895 8.2830172
14130000000 -29.10594 -108.49355 -39.361206 -144.82301 -39.794697 -142.56752 -15.98327 8.9320974
14140000000 -26.959211 -115.74504 -39.594967 -167.51123 -39.564194 -166.80458 -16.134172 9.3858995
14150000000 -26.171389 -126.99763 -39.585899 170.18108 -39.921429 168.69182 -16.339132 8.242877
14160000000 -25.947018 -138.23965 -40.014992 149.53407 -40.242172 149.32599 -16.568802 7.2957015
14170000000 -26.427509 -150.8157 -39.704048 130.0076 -39.879833 129.07176 -16.695196 6.8905549
14180000000 -27.639904 -160.49306 -39.111679 105.30716 -39.361179 105.13311 -16.743093 7.7438278
14190000000 -29.782848 -169.42639 -39.274002 79.91597 -39.334854 78.337013 -16.740223 8.9166555
14200000000 -32.109222 -157.5513 -39.516846 56.426842 -39.73164 50.89011 -16.926167 10.29712
14210000000 -30.86525 -141.05502 -40.152782 33.970226 -40.990883 31.386587 -17.312134 11.479589
14220000000 -28.039999 -139.88675 -40.175465 15.107039 -40.797398 15.297443 -17.746166 12.955052
14230000000 -26.191193 -147.74887 -39.931183 -7.8225713 -40.399799 -7.8667941 -18.05777 14.533514
14240000000 -24.968811 -155.9924 -40.046047 -29.734795 -40.241283 -29.81171 -18.213488 16.517771
14250000000 -24.405735 -169.5132 -40.222507 -52.061825 -40.383076 -55.321201 -18.250071 19.005686
14260000000 -25.119343 177.64796 -40.248718 -72.892128 -40.776466 -78.040306 -18.25065 21.182081
14270000000 -27.000677 169.51178 -40.136597 -94.633209 -41.101875 -98.489487 -18.468456 23.959232
14280000000 -29.714127 166.12982 -40.373821 -116.46321 -41.298939 -116.99498 -18.558193 26.592798
14290000000 -31.509661 -171.53189 -40.406776 -139.53355 -41.156532 -136.87953 -18.515671 28.3785
14300000000 -30.143896 -159.44255 -40.557682 -159.60373 -40.627266 -159.61456 -18.315508 29.571062
14310000000 -27.60708 -155.2652 -40.671066 179.01341 -41.154209 176.63345 -17.936232 31.316059
14320000000 -25.609251 -165.65752 -40.576782 157.98531 -41.488644 158.37001 -17.435947 33.211189
14330000000 -24.469999 -176.38326 -40.911854 136.67377 -41.393589 139.20149 -17.034609 35.589645
14340000000 -24.48881 167.48935 -41.19685 117.73618 -41.401955 120.22145 -16.664677 38.049332
14350000000 -25.713343 158.0824 -40.590202 99.522659 -40.825012 101.21632 -16.432348 39.962986
14360000000 -27.558725 151.57997 -40.445271 76.360336 -40.532787 78.498421 -16.25996 41.724888
14370000000 -30.567545 155.99832 -40.133274 54.855785 -40.414345 55.723099 -16.067764 42.720894
14380000000 -32.171677 178.77562 -40.225029 31.860609 -40.581669 35.174652 -15.816779 42.542469
14390000000 -29.416183 -161.05219 -40.411598 12.637315 -40.154976 17.023951 -15.562832 41.587631
14400000000 -26.792608 -166.91711 -40.364281 -7.442369 -39.898403 -5.5083146 -15.275842 40.87709
14410000000 -25.549852 -176.11075 -40.100685 -24.770107 -39.798317 -25.734304 -14.890615 40.382694
14420000000 -24.830647 171.60065 -39.222103 -47.681351 -39.221142 -45.852364 -14.504528 39.660908
14430000000 -25.222065 158.53526 -39.245472 -69.79277 -38.988773 -67.979538 -14.23324 39.158539
14440000000 -26.538626 149.28479 -38.863171 -91.662224 -38.235882 -90.303452 -13.984488 38.80595
14450000000 -28.841551 147.28943 -38.52874 -113.77292 -38.103596 -116.04932 -13.779573 38.171902
14460000000 -31.475677 163.54803 -38.218769 -137.20065 -37.968819 -137.56282 -13.554831 37.149601
14470000000 -30.155243 -170.88567 -38.316547 -160.40628 -37.903164 -160.5161 -13.400137 36.194214
14480000000 -27.082281 -164.42638 -38.049873 178.75075 -37.613758 178.07886 -13.325019 35.702301
14490000000 -25.31584 -171.96599 -37.836655 157.11078 -37.209404 155.92813 -13.31129 35.403492
14500000000 -24.567255 -178.41255 -37.268719 133.06892 -36.628815 130.68034 -13.323536 34.64423
14510000000 -24.306505 170.34521 -37.141693 107.66542 -36.785282 103.69765 -13.48091 33.036884
14520000000 -25.260923 161.20811 -37.369438 85.591293 -37.170055 82.144379 -13.55854 31.456427
14530000000 -27.26569 155.75624 -37.112568 63.40707 -36.973148 62.245453 -13.448976 29.927082
14540000000 -28.749008 167.18416 -37.103298 40.053936 -36.580177 38.663486 -13.299697 28.866436
14550000000 -28.754301 178.41965 -36.844513 17.21209 -36.299957 13.703765 -13.173406 28.981838
14560000000 -26.577579 -169.48654 -36.893581 -7.2251081 -36.500416 -12.086086 -13.086837 29.907415
14570000000 -24.620066 -173.80916 -37.289165 -30.110203 -36.992058 -35.001167 -13.097307 30.339752
14580000000 -23.489143 -178.09921 -37.205875 -51.532608 -37.137989 -55.608257 -13.163296 30.484829
14590000000 -22.848337 174.27477 -37.297142 -73.181801 -37.081078 -76.677505 -13.213288 30.252813
14600000000 -22.915512 167.70389 -37.297455 -94.695251 -36.87196 -98.211433 -13.238366 30.071299
14610000000 -23.743845 162.15279 -37.089142 -116.67834 -36.802219 -123.288 -13.208508 30.38028
14620000000 -24.712774 164.73674 -37.057129 -139.14835 -37.142174 -144.83812 -13.152584 30.912371
14630000000 -25.077284 169.56891 -36.96376 -160.37469 -37.255161 -164.26472 -13.108346 30.851955
14640000000 -24.625385 175.46806 -36.970161 177.2513 -37.038704 174.34007 -13.097436 30.084702
14650000000 -23.646441 177.98604 -36.792206 155.54997 -36.621803 152.76495 -13.032748 28.912109
14660000000 -22.28413 175.93031 -36.59618 134.9073 -36.655735 129.48355 -12.87575 27.809391
14670000000 -21.626442 169.81606 -36.442596 113.70705 -36.74234 108.20018 -12.641276 27.388998
14680000000 -21.315147 164.95654 -35.832993 90.085709 -36.298092 87.224617 -12.387716 27.671846
14690000000 -21.279196 160.11874 -36.143749 66.877892 -36.434662 64.721367 -12.180779 27.623789
14700000000 -21.678209 156.67583 -35.813904 44.881737 -36.008312 43.735363 -12.098534 27.509466
14710000000 -22.194422 156.41573 -35.866306 22.852858 -35.787544 20.594513 -12.092938 26.885063
14720000000 -22.337322 159.12675 -35.469589 2.5334346 -35.479244 -1.7344084 -12.174407 25.932877
14730000000 -22.292006 160.46535 -34.915859 -21.394556 -35.302086 -24.642534 -12.258637 25.028278
14740000000 -21.693129 161.32782 -34.697304 -45.295876 -35.07196 -47.269211 -12.348557 23.915569
14750000000 -21.203184 159.40794 -34.534729 -69.575775 -34.717495 -70.53054 -12.382081 22.36167
14760000000 -20.547173 156.76721 -34.521568 -92.196022 -34.550419 -93.811089 -12.377666 20.494999
14770000000 -20.177547 150.20645 -34.220631 -114.49847 -34.250397 -117.03426 -12.351707 18.58427
14780000000 -20.252552 146.47078 -33.838329 -137.7981 -34.189632 -140.93745 -12.34245 17.507837
14790000000 -20.349173 142.84319 -33.632927 -162.44121 -34.033619 -163.61086 -12.364401 17.228479
14800000000 -20.620872 141.25679 -33.504089 174.20601 -33.729774 173.43933 -12.436177 17.410946
14810000000 -20.979053 141.70622 -33.305618 150.32692 -33.411346 149.43175 -12.515339 17.471872
14820000000 -20.967093 143.57246 -33.097458 126.5205 -33.148296 125.36509 -12.678854 16.89225
14830000000 -20.854643 144.12752 -32.828918 101.72576 -33.042709 100.11119 -12.882088 16.138472
14840000000 -20.539951 144.43954 -32.852783 76.711937 -33.043625 75.182724 -13.090913 16.073359
14850000000 -20.285746 141.42995 -32.820038 52.316517 -33.148907 52.061226 -13.235674 16.390017
14860000000 -20.024513 138.35712 -32.872215 28.655609 -32.915066 28.503942 -13.401623 16.559319
14870000000 -20.124569 131.10123 -32.61544 5.1443353 -32.753544 4.251606 -13.639043 15.926881
14880000000 -20.520126 128.62122 -32.579136 -21.019264 -32.680828 -21.057249 -13.85843 14.826548
14890000000 -20.685535 124.51054 -32.693844 -44.64045 -32.768757 -45.41526 -13.987328 13.559769
14900000000 -21.163315 122.7202 -32.701115 -67.540588 -32.875931 -68.143463 -13.920431 13.285971
14910000000 -21.494213 123.3226 -32.463829 -91.697121 -32.66333 -92.074112 -13.754342 14.135531
14920000000 -21.577225 125.85389 -32.42923 -117.27393 -32.603447 -116.85754 -13.662578 15.968834
14930000000 -21.204494 127.96737 -32.569202 -142.00566 -32.624092 -141.78592 -13.761702 17.917082
14940000000 -20.741123 127.80004 -32.70462 -167.30478 -32.796761 -166.86436 -14.009356 19.216873
14950000000 -20.48138 124.36073 -33.118748 169.11174 -33.060005 169.23027 -14.390472 19.547695
14960000000 -20.634159 121.44327 -33.142212 146.30066 -33.208813 146.17598 -14.693728 19.751926
14970000000 -20.733694 115.56124 -33.125633 122.56853 -33.230816 123.0943 -14.829844 20.437515
14980000000 -21.792435 110.96285 -33.202988 99.213791 -33.21035 99.903969 -14.778278 21.590485
14990000000 -22.721121 109.18071 -33.139282 74.620544 -33.088654 75.641045 -14.790363 22.001493
15000000000 -24.01766 110.79301 -33.341427 49.824108 -33.105343 50.400139 -14.954475 22.39397
15010000000 -24.301859 118.46181 -33.51403 25.298069 -33.409256 24.648329 -15.118916 22.558403
15020000000 -23.823421 123.41488 -33.892105 1.4283167 -33.940536 2.1621265 -15.05007 23.160856
15030000000 -22.582699 124.24638 -34.227154 -20.94451 -34.059525 -19.646854 -14.683782 23.789722
15040000000 -22.320131 110.91841 -34.057617 -39.028339 -33.804638 -39.775803 -14.306852 25.029789
15050000000 -23.054443 108.70992 -34.157379 -62.340614 -34.001858 -63.287552 -14.060189 27.338793
15060000000 -23.566578 110.88835 -34.325954 -84.535721 -34.140659 -85.85685 -13.986617 29.915535
15070000000 -24.000957 109.77543 -34.233852 -107.15327 -34.184189 -108.70774 -14.075357 31.892229
15080000000 -25.202703 114.32713 -34.336555 -131.7392 -34.331108 -132.76918 -14.169096 32.614532
15090000000 -24.96648 119.34093 -34.432117 -154.20595 -34.259037 -154.76085 -14.214693 31.857246
15100000000 -25.567436 123.01106 -34.449593 -178.83116 -34.395214 -179.39125 -14.123009 30.794096
15110000000 -24.747652 127.52379 -34.751831 157.06393 -34.635048 157.8611 -13.919821 29.75573
15120000000 -24.396811 125.34396 -35.136036 135.52049 -34.721966 136.39603 -13.741126 29.096914
15130000000 -24.10672 123.71377 -35.278233 113.99788 -34.708504 112.01629 -13.614851 28.758764
15140000000 -23.846436 121.16972 -35.127121 92.376648 -34.886074 90.34787 -13.448009 28.565079
15150000000 -23.965475 116.43976 -35.175575 67.985481 -34.854412 67.393181 -13.220012 28.204035
15160000000 -24.498554 116.24226 -35.441998 45.928562 -34.997963 45.13763 -13.008091 27.769693
15170000000 -25.112617 115.72064 -35.637188 24.250256 -35.009575 22.888067 -12.871564 27.702921
15180000000 -25.704239 125.96062 -35.476685 2.7049997 -34.915447 -0.56373519 -12.909763 28.06321
15190000000 -24.830215 131.51306 -35.265419 -21.778444 -34.915302 -24.313234 -12.985055 28.529144
15200000000 -24.142048 135.37872 -35.640572 -45.036987 -35.071484 -47.223991 -13.107758 27.979914
15210000000 -22.886076 135.92677 -35.841835 -65.632607 -35.148163 -70.711716 -13.279491 26.739634
15220000000 -22.145517 129.33241 -35.649971 -87.745232 -35.272022 -93.62851 -13.397843 25.275036
15230000000 -22.070509 121.34528 -35.390404 -110.02974 -35.373898 -115.07259 -13.429515 23.817818
15240000000 -22.985472 113.84292 -35.358486 -134.75493 -35.232388 -137.25822 -13.436736 22.515074
15250000000 -24.523401 112.25549 -35.434177 -157.40793 -35.08709 -160.2578 -13.476849 21.721895
15260000000 -25.410877 121.53561 -35.468353 179.20953 -35.037254 175.45702 -13.460585 21.81282
15270000000 -24.68285 129.74699 -35.496601 157.21231 -35.257145 151.54712 -13.341204 22.046453
15280000000 -23.459896 131.21548 -35.339928 132.91612 -35.474495 128.61453 -13.292414 22.577785
15290000000 -22.071808 128.53841 -35.579426 108.81496 -35.607269 106.16396 -13.385359 23.579992
15300000000 -21.512157 120.13237 -36.01115 86.285484 -35.718178 83.854156 -13.568856 25.115215
15310000000 -21.509958 115.16896 -35.997955 65.753853 -35.791676 61.862705 -13.776106 26.39493
15320000000 -21.786823 106.69922 -35.790966 42.946526 -35.740627 40.346966 -13.937616 26.418158
15330000000 -23.005997 102.9003 -35.841618 19.385303 -35.525867 17.049232 -14.129388 25.597368
15340000000 -24.400242 103.33293 -35.891411 -4.4282713 -35.591461 -7.0876002 -14.222186 25.067801
15350000000 -25.259111 112.27512 -36.268848 -27.05337 -35.729679 -29.396473 -14.232265 25.109861
15360000000 -24.77177 119.98883 -36.336163 -47.297672 -35.758896 -52.826801 -14.165841 25.564707
15370000000 -23.500992 122.3312 -36.089962 -69.538513 -35.970924 -75.427322 -14.118546 25.437809
15380000000 -22.224173 115.85793 -36.142101 -92.979797 -36.067871 -96.680298 -14.053149 25.305986
15390000000 -21.8626 106.58678 -36.359768 -115.72625 -35.973236 -119.21793 -13.928759 25.025682
15400000000 -22.030771 95.100731 -36.489067 -136.47992 -36.231464 -142.00632 -13.736177 25.449326
15410000000 -23.343719 86.089546 -36.386955 -156.88872 -36.027126 -162.58609 -13.576771 26.41514
15420000000 -25.202368 80.911896 -36.002041 -179.25317 -36.030621 174.32152 -13.543297 28.153511
15430000000 -27.602303 87.678795 -35.895885 157.63162 -36.0462 152.56577 -13.627863 29.614277
15440000000 -28.024105 102.96774 -35.917786 133.60147 -35.953384 130.55893 -13.855592 29.979378
15450000000 -26.569885 112.20644 -36.115219 110.44669 -35.649128 107.1885 -14.075784 28.784252
15460000000 -24.899685 108.09364 -36.16518 89.379555 -35.745552 82.729065 -14.226424 26.743448
15470000000 -24.367115 99.573448 -35.989178 67.382462 -35.975731 60.883255 -14.22978 24.921513
15480000000 -24.225882 87.169868 -35.99403 45.906528 -35.994244 39.402527 -14.112644 24.333681
15490000000 -25.327652 73.745346 -35.831482 23.73134 -35.815578 18.918823 -13.984015 24.375626
15500000000 -27.453543 59.666847 -35.678085 2.3452153 -35.363754 -4.2161198 -13.912675 24.91671
15510000000 -31.563688 58.439331 -35.276844 -19.79892 -35.403938 -28.123289 -13.882486 25.326805
15520000000 -35.593258 73.903946 -34.903664 -44.072617 -35.224155 -50.840603 -13.95009 25.763313
15530000000 -33.999008 109.0816 -34.910511 -68.226921 -35.366119 -74.99012 -13.984782 26.816107
15540000000 -31.890102 109.21882 -34.753773 -91.927185 -35.353977 -96.913551 -14.017118 28.354662
15550000000 -29.990149 103.92229 -34.838806 -116.1754 -35.273617 -119.62679 -14.076741 29.402042
15560000000 -30.101536 85.05722 -34.879707 -136.72302 -35.124176 -142.1082 -14.250785 30.20167
15570000000 -31.669281 69.608109 -34.56049 -160.60571 -35.037521 -166.51491 -14.467376 30.735825
15580000000 -34.087265 50.12376 -34.357609 175.30199 -34.996563 171.18675 -14.672605 30.353292
15590000000 -37.83453 14.019874 -34.343327 149.71574 -34.830471 146.10732 -14.831494 29.518909
15600000000 -39.960297 -57.64315 -34.412895 127.23988 -34.987175 123.95846 -14.850505 28.867689
15610000000 -37.626396 -126.1123 -34.367851 104.09868 -34.807697 100.80161 -14.702659 27.980709
15620000000 -35.764133 -145.62166 -34.126812 80.089783 -34.622414 76.741379 -14.485107 27.698761
15630000000 -34.409626 -170.77127 -34.203274 55.396702 -34.841007 52.643353 -14.256541 27.849152
15640000000 -35.924778 176.56427 -34.226051 30.487637 -34.877625 28.480335 -14.133386 28.863865
15650000000 -38.232037 173.92886 -34.690277 7.0177932 -35.065178 5.5768085 -14.100859 30.690416
15660000000 -43.074112 -175.33003 -34.712666 -14.377849 -35.121719 -16.78665 -14.178259 32.289955
15670000000 -39.058323 -106.60117 -34.648178 -36.974876 -35.045341 -39.353149 -14.341095 33.328094
15680000000 -32.298492 -108.80013 -34.488388 -61.383736 -35.041618 -63.654835 -14.551136 33.366848
15690000000 -28.865952 -119.85318 -34.495991 -87.107246 -35.039417 -87.756783 -14.742677 32.655651
15700000000 -26.673109 -134.52914 -34.870644 -110.48701 -35.164654 -111.80036 -14.905437 32.189217
15710000000 -26.483725 -144.56833 -34.889694 -132.8589 -35.34885 -135.59178 -14.955095 32.180527
15720000000 -25.721071 -153.53278 -34.908215 -157.245 -35.520508 -159.51283 -15.020884 32.306789
15730000000 -26.755037 -162.56145 -35.174603 178.5143 -35.829884 178.03653 -15.062916 32.647942
15740000000 -28.049229 -163.08575 -35.456116 155.75381 -36.100296 154.64485 -15.028424 32.31184
15750000000 -29.852083 -149.64105 -35.472523 132.75894 -36.197491 133.49728 -14.900296 32.350014
15760000000 -28.078852 -136.22603 -35.755013 109.14401 -36.157654 110.45962 -14.685387 33.304947
15770000000 -26.109507 -129.85988 -35.97398 87.47081 -36.214462 87.288483 -14.372848 35.839317
15780000000 -23.618252 -135.50934 -35.970898 64.275192 -36.549595 64.301598 -14.16132 39.038586
15790000000 -22.57073 -145.00722 -36.187141 40.042099 -36.784672 41.878139 -14.103954 42.140739
15800000000 -21.831308 -154.68799 -36.516121 17.264368 -36.871685 18.870926 -14.230991 44.055202
15810000000 -22.420206 -164.92862 -36.784615 -5.807847 -37.014774 -3.9355733 -14.467896 44.384918
15820000000 -23.385595 -165.88835 -37.186703 -28.417456 -37.258255 -26.592262 -14.615948 43.649776
15830000000 -24.451166 -164.24226 -37.381828 -48.936531 -37.430183 -49.579403 -14.544683 42.408615
15840000000 -24.772799 -153.78246 -37.549042 -71.322884 -37.715004 -71.127266 -14.269283 41.368538
15850000000 -23.912848 -143.70306 -37.590923 -92.244469 -37.882797 -92.034607 -13.920899 40.271469
15860000000 -22.193268 -141.87105 -37.607952 -114.74035 -37.791302 -113.70889 -13.591667 39.742085
15870000000 -20.966625 -146.10225 -37.770618 -136.87816 -37.60648 -136.62097 -13.246396 39.374741
15880000000 -20.241396 -153.07077 -37.700531 -157.56218 -37.809505 -159.60056 -12.932376 39.333359
15890000000 -20.434412 -161.03496 -37.599152 178.44031 -37.912006 175.86478 -12.62307 39.691864
15900000000 -20.878595 -165.20515 -37.564724 154.45235 -38.227474 155.74228 -12.357906 40.376492
15910000000 -21.752863 -166.36082 -38.142593 129.75594 -38.187336 132.61911 -12.20661 40.770889
15920000000 -22.230959 -161.70341 -38.804054 107.96506 -38.576126 110.16127 -12.156505 40.869225
15930000000 -21.90798 -154.23466 -38.828876 90.663902 -38.519592 89.091782 -12.207906 40.138065
15940000000 -20.818157 -150.76036 -38.496075 69.210449 -38.755264 66.806099 -12.301557 38.896889
15950000000 -19.809225 -150.85815 -38.118382 44.925049 -38.401432 44.888531 -12.351088 36.749805
15960000000 -19.198874 -153.94176 -38.378948 18.985943 -38.550053 19.768656 -12.344064 34.308575
15970000000 -18.880405 -155.09294 -38.819107 -2.616801 -38.846107 -2.4245205 -12.234075 31.50671
15980000000 -18.588831 -158.64384 -38.910412 -24.982504 -38.910679 -25.430902 -12.052112 29.056086
15990000000 -18.944727 -160.89732 -38.913742 -47.106991 -39.110695 -46.456177 -11.804361 27.304323
16000000000 -19.184046 -160.38072 -39.013611 -71.398781 -39.11623 -69.1782 -11.576416 26.526234
16010000000 -19.433548 -158.8405 -39.562748 -93.879433 -39.250431 -91.519829 -11.479444 26.564499
16020000000 -19.208944 -155.60019 -39.74918 -115.04674 -39.212154 -114.21906 -11.479937 26.68714
16030000000 -18.75717 -153.18239 -39.856262 -136.72577 -39.566788 -138.45848 -11.652362 26.00264
16040000000 -17.949766 -152.40573 -39.928322 -158.69839 -39.715157 -159.78174 -11.920323 24.164072
16050000000 -17.175018 -153.15298 -40.174385 178.03375 -39.853489 178.50075 -12.224222 21.71138
16060000000 -16.480232 -156.42775 -40.060146 156.16849 -39.764713 155.85628 -12.443166 19.399212
16070000000 -16.303049 -159.14806 -40.123592 131.99562 -39.728836 131.95491 -12.546182 17.378965
16080000000 -16.081999 -161.15672 -40.409935 107.53995 -40.057816 107.22221 -12.650778 15.14874
16090000000 -16.381607 -163.46254 -41.079758 85.620346 -40.407753 84.394653 -12.811749 12.699839
16100000000 -16.638607 -161.38531 -41.327831 66.991486 -40.756527 63.539536 -12.969754 10.19503
16110000000 -16.670118 -157.76117 -40.924053 43.571762 -40.767933 40.651749 -13.080381 8.4223156
16120000000 -16.009596 -154.25546 -41.078762 19.411846 -40.802368 20.2253 -13.034853 8.2907572
16130000000 -15.140201 -154.15485 -41.769611 -2.9127347 -41.029972 -3.7170599 -13.021534 9.2178898
16140000000 -14.434912 -156.36099 -41.64616 -23.748514 -41.063091 -26.045849 -13.213521 10.965932
16150000000 -13.817757 -160.53793 -42.172714 -48.136284 -41.562073 -50.264408 -13.622195 12.19357
16160000000 -13.591949 -164.99986 -42.526047 -67.365265 -41.639057 -70.555435 -14.243813 11.97308
16170000000 -13.78435 -168.79787 -42.37801 -90.975494 -41.724953 -96.266693 -14.871899 10.45064
16180000000 -14.059959 -168.55023 -42.952705 -117.14638 -42.59996 -120.51991 -15.276772 7.847074
16190000000 -14.171199 -166.6263 -43.89547 -135.5041 -42.825737 -140.78499 -15.440499 5.4367604
16200000000 -13.86719 -162.86139 -43.874542 -152.69173 -43.20628 -160.88058 -15.477328 3.984587
16210000000 -13.20896 -161.22408 -43.453125 -173.94135 -43.003105 177.74763 -15.577647 3.4563277
16220000000 -12.489943 -161.44403 -43.335075 162.74384 -43.420605 155.46376 -15.686479 3.4297569
16230000000 -11.770045 -164.67332 -43.563702 138.80829 -43.253265 134.38344 -15.736359 3.3834455
16240000000 -11.53686 -169.08437 -43.831894 116.44679 -43.44503 108.38144 -15.736113 3.5997758
16250000000 -11.555471 -173.24429 -44.582066 95.536446 -44.328751 87.478004 -15.708484 5.1150069
16260000000 -11.798583 -175.48126 -44.227661 74.033905 -44.431744 67.601227 -15.837021 7.566422
16270000000 -12.049826 -176.14386 -44.623001 49.971241 -44.787624 44.675846 -16.149181 10.415671
16280000000 -12.028208 -174.01192 -45.22501 32.786133 -45.37537 26.743824 -16.656364 11.704833
16290000000 -11.644516 -172.33043 -45.39616 11.965494 -45.341549 5.4252591 -17.299347 10.731159
16300000000 -10.977307 -171.64087 -45.089935 -8.8275356 -45.433262 -15.607363 -17.798435 8.2429008
16310000000 -10.307994 -173.39919 -44.877682 -28.999481 -45.329369 -33.613503 -17.945986 4.5107608
16320000000 -9.8748684 -176.28519 -44.749191 -53.940777 -44.965256 -59.110062 -17.917223 1.7287642
16330000000 -9.6735878 -179.69986 -45.072792 -79.01207 -45.36573 -84.585449 -17.916489 0.047835898
16340000000 -9.7565355 177.42932 -45.497517 -98.536308 -46.020161 -102.00164 -17.979198 -0.59213257
16350000000 -9.9803219 175.71053 -45.179016 -116.38909 -45.736946 -121.76839 -17.999737 -0.82061189
16360000000 -10.198404 176.01401 -44.652775 -142.65854 -46.018887 -144.55759 -18.058987 -1.0298663
16370000000 -10.145513 177.21248 -45.200634 -165.26607 -45.614185 -163.0459 -18.218399 -0.26730826
16380000000 -9.7915401 178.06323 -45.297096 173.19167 -44.910713 174.66644 -18.565134 1.1552919
16390000000 -9.3311272 177.35464 -45.37315 150.97804 -45.327976 150.49367 -19.329138 1.9217913
16400000000 -8.8343239 175.61534 -45.066242 129.04428 -44.860783 128.9671 -20.359795 1.9770988
16410000000 -8.4321346 172.77783 -45.172943 105.78041 -44.84766 104.16084 -21.504057 -1.0720329
16420000000 -8.269989 169.52634 -44.689682 81.599113 -44.617691 81.588966 -22.447063 -5.0304785
16430000000 -8.3341742 166.93903 -45.594414 56.902065 -44.746883 55.530308 -22.927563 -8.9006138
16440000000 -8.5058756 166.28282 -45.768063 37.321571 -45.122913 32.681103 -23.360388 -11.073765
16450000000 -8.5855417 166.61066 -45.141125 14.676984 -44.9552 9.2191029 -24.100239 -11.301182
16460000000 -8.4999094 167.85121 -44.939842 -11.908643 -45.08707 -13.095558 -25.017437 -9.398531
16470000000 -8.2003565 168.15123 -44.937305 -35.44775 -44.824425 -35.953648 -25.745758 -5.9222364
16480000000 -7.8714008 167.65494 -45.436226 -62.398163 -44.921047 -62.720158 -26.028021 0.54446995
16490000000 -7.4725604 165.95842 -46.0257 -84.985703 -44.706429 -86.219971 -25.820284 9.9836826
16500000000 -7.2273054 163.11783 -45.538128 -104.99569 -44.538639 -111.50539 -25.826267 21.587738
16510000000 -7.1172838 160.18889 -45.453907 -132.38133 -44.930779 -138.15846 -26.035841 36.594864
16520000000 -7.205792 158.04666 -45.565952 -156.84029 -45.206444 -160.17761 -26.396175 52.267834
16530000000 -7.2653646 157.11739 -45.661636 175.68221 -45.162285 175.34511 -26.817371 61.988651
16540000000 -7.3363786 157.44514 -46.142532 149.93054 -45.361141 148.48384 -27.684641 64.647148
16550000000 -7.1580906 158.35913 -46.567402 129.97289 -45.596394 128.19386 -28.226603 60.9436
16560000000 -6.8504181 159.00931 -45.722557 105.3933 -44.804073 101.99208 -27.898714 56.334747
16570000000 -6.4312558 158.10057 -45.531284 73.883751 -44.805397 70.373466 -27.038284 54.332146
16580000000 -6.1585579 156.22539 -46.066429 44.984848 -45.1898 43.092422 -26.432957 56.189388
16590000000 -5.9743457 153.83383 -46.687939 18.706842 -45.87447 16.688097 -25.969769 57.934944
16600000000 -5.9836922 151.34435 -47.180065 -6.2217689 -46.081444 -8.4757433 -25.62619 59.945381
16610000000 -6.0480475 149.81694 -47.8918 -29.469749 -46.680813 -35.085918 -24.976828 60.373478
16620000000 -6.1329875 149.18777 -47.699135 -52.519108 -47.009205 -58.910519 -24.329653 62.831791
16630000000 -6.0200014 149.38812 -47.716599 -74.098778 -47.228973 -80.522186 -23.63306 69.284157
16640000000 -5.7973185 149.4135 -47.271706 -107.91373 -46.798256 -108.42971 -23.095705 77.870049
16650000000 -5.4381223 148.88455 -48.376842 -135.58313 -46.703236 -136.08041 -22.777187 85.138184
16660000000 -5.1194687 147.55287 -48.607769 -159.86984 -46.825165 -168.03894 -23.097475 90.207077
16670000000 -4.8508334 145.72084 -49.475769 174.97873 -47.81707 163.8918 -23.684969 92.81395
16680000000 -4.7287836 143.6731 -49.322384 150.30931 -48.676395 138.52513 -23.897181 92.213081
16690000000 -4.7027125 142.04053 -49.302315 121.18183 -48.648251 114.53835 -23.528786 88.333786
16700000000 -4.7267237 141.00542 -50.028797 87.925575 -48.834625 84.966202 -22.700916 83.798798
16710000000 -4.6666946 140.64793 -51.523708 67.560471 -49.606804 62.875893 -21.795811 81.476074
16720000000 -4.5354462 140.10608 -51.33366 42.596775 -49.853359 35.269596 -20.985155 81.528114
16730000000 -4.3012075 139.35728 -51.796604 17.436071 -50.014526 12.364295 -20.172602 82.57402
16740000000 -4.0515809 138.1259 -51.599113 -4.1319504 -49.220211 -14.856205 -19.504478 83.056435
16750000000 -3.8048255 136.23949 -50.92754 -34.126537 -49.46909 -48.496239 -19.043577 83.297585
16760000000 -3.6429355 134.30971 -51.471813 -67.806343 -50.883083 -75.701653 -18.830002 84.175064
16770000000 -3.5438969 132.53529 -53.746101 -92.739487 -51.804043 -96.518753 -18.718285 84.533257
16780000000 -3.4794829 131.17726 -53.46373 -108.82859 -51.428089 -119.95477 -18.837845 83.721458
16790000000 -3.404871 130.18517 -52.987907 -136.60789 -51.385494 -142.6274 -19.169937 81.790268
16800000000 -3.3143961 129.30621 -53.24194 -164.60677 -51.268906 -171.14618 -19.492796 78.339279
16810000000 -3.162168 128.40863 -53.921539 167.66512 -51.841309 159.11801 -19.703182 73.625298
16820000000 -3.0044563 127.13933 -54.632244 149.32393 -52.543247 136.46309 -19.693417 68.624748
16830000000 -2.8242025 125.51797 -54.604767 128.99794 -52.818691 114.83394 -19.377811 63.72229
16840000000 -2.6793408 123.67613 -53.653587 105.70792 -52.110573 89.222404 -19.078163 59.677322
16850000000 -2.5584178 121.78545 -53.483334 76.556282 -52.918072 60.70705 -18.854599 58.770077
16860000000 -2.4701834 120.0042 -53.669044 53.804234 -53.011875 40.836227 -18.61038 59.917343
16870000000 -2.3974278 118.50862 -53.5172 24.516996 -52.779552 14.982608 -18.635502 61.716095
16880000000 -2.3091068 117.27287 -54.1796 -0.28307876 -53.439686 -10.403445 -19.017365 63.726021
16890000000 -2.1939385 116.18729 -55.004349 -20.628094 -53.744926 -34.084488 -19.788397 65.490791
16900000000 -2.0664237 114.98994 -54.034763 -35.106007 -53.622566 -54.363094 -20.726089 66.232506
16910000000 -1.9359744 113.67994 -52.916698 -65.284203 -53.231644 -80.569321 -21.741028 65.809975
16920000000 -1.8316185 112.17799 -53.120945 -97.191711 -53.777428 -109.03567 -22.722065 63.52697
16930000000 -1.7301064 110.51207 -54.155464 -121.87049 -54.567757 -130.18533 -23.566694 61.334286
16940000000 -1.6645995 108.74988 -54.41383 -143.18298 -54.755356 -152.20099 -23.993296 61.196747
16950000000 -1.5991561 107.04642 -54.321545 -165.49858 -55.412079 -175.8631 -24.12306 62.217991
16960000000 -1.5309792 105.37685 -53.714767 175.31009 -54.863441 167.51457 -23.909418 64.204773
16970000000 -1.4556409 103.81605 -53.723721 144.04527 -54.277245 136.58118 -23.614456 69.711433
16980000000 -1.3707961 102.27763 -54.896313 123.89346 -54.965397 110.78325 -23.00839 77.677444
16990000000 -1.278268 100.82868 -54.459122 100.44334 -55.676727 83.09716 -22.154066 85.66703
17000000000 -1.1784229 99.390648 -54.795406 79.918922 -56.523052 68.359192 -21.479155 92.424164
