!Keysight Technologies,P9374A,MY57211807,A.19.30.04
!Date: Friday, May 08, 2026 15:47:38
!Correction: S11(C  2-Port  ) 
!S21(C  2-Port  ) 
!S12(C  2-Port  ) 
!S22(C  2-Port  ) 
!S2P File: Measurements: S11, S21, S12, S22:
# Hz S  dB   R 50
13000000000 -18.965147 55.441113 -44.890587 15.166394 -44.566471 14.561666 -9.7091894 17.627432
13010000000 -19.396702 58.128086 -44.775928 -7.8979402 -44.461281 -8.3490419 -9.5510101 12.828008
13020000000 -19.588833 59.44371 -44.360958 -25.501625 -43.813435 -29.247759 -9.4290762 8.3610468
13030000000 -19.904308 63.123119 -43.691322 -50.052799 -43.34763 -53.262962 -9.3134518 3.8466866
13040000000 -19.704063 65.324486 -43.832722 -69.702118 -43.454441 -76.066208 -9.2706671 -0.51838207
13050000000 -19.616405 65.533859 -43.092186 -90.070488 -43.33659 -95.659904 -9.3363218 -4.7471704
13060000000 -19.399687 64.072769 -42.420868 -113.55373 -43.007912 -116.97964 -9.4791164 -9.0539837
13070000000 -19.610012 61.545601 -42.30677 -138.13451 -42.325996 -139.937 -9.6829634 -13.480778
13080000000 -19.72579 60.723026 -42.101742 -160.63954 -42.201355 -166.74489 -9.8827801 -18.266726
13090000000 -19.827063 59.478054 -41.798504 176.97934 -42.476456 172.37686 -10.006386 -23.061808
13100000000 -20.005117 59.453274 -41.827759 154.6765 -42.482811 149.9005 -10.1338 -27.482121
13110000000 -20.193888 61.534035 -41.38168 133.03064 -42.293926 130.20998 -10.316012 -31.382267
13120000000 -19.870464 63.985191 -41.053055 108.75711 -42.132294 109.09692 -10.581304 -35.124271
13130000000 -19.560194 65.061745 -40.945709 85.467796 -41.623444 85.358101 -10.935359 -38.816822
13140000000 -18.959995 64.286797 -40.80558 61.10331 -41.37981 61.54295 -11.28593 -42.751019
13150000000 -19.039074 60.764149 -40.63855 38.376675 -41.551476 37.378868 -11.597505 -46.74831
13160000000 -19.178246 60.519001 -40.681828 13.668216 -41.819736 15.767484 -11.909789 -50.54073
13170000000 -19.332575 58.317196 -40.663143 -10.860779 -41.567959 -4.752636 -12.341034 -54.05172
13180000000 -19.586033 57.406216 -41.095234 -33.827515 -41.346069 -26.188826 -12.894348 -57.371384
13190000000 -19.847923 56.648113 -41.052055 -54.47525 -41.293873 -50.838863 -13.536304 -61.322968
13200000000 -19.834723 57.324837 -40.752354 -77.161972 -41.168308 -72.228104 -14.166279 -66.23288
13210000000 -19.802824 57.240166 -40.589581 -101.84104 -40.930801 -97.505463 -14.681165 -71.292068
13220000000 -19.437149 58.281963 -40.94875 -127.30641 -41.210945 -121.64743 -15.098581 -75.690117
13230000000 -19.183105 55.884361 -41.145988 -149.37502 -41.485203 -143.84261 -15.578629 -78.968292
13240000000 -18.981455 55.425034 -41.493999 -174.79994 -41.409603 -164.8927 -16.3291 -81.584373
13250000000 -18.761822 51.926704 -42.269737 165.26297 -41.250519 171.75679 -17.380257 -85.066185
13260000000 -19.057873 49.779144 -42.099438 141.74954 -41.516182 146.29643 -18.718174 -90.630348
13270000000 -19.296589 47.825191 -42.366684 118.07343 -41.65274 124.18536 -20.027348 -98.257317
13280000000 -19.781187 47.152237 -42.900517 93.254257 -41.913433 99.972748 -21.073626 -107.47068
13290000000 -20.101995 48.343121 -43.750114 74.047241 -42.416618 78.364319 -21.986147 -116.85015
13300000000 -19.926949 47.952599 -44.139896 54.6115 -42.489071 57.128384 -23.248512 -126.00217
13310000000 -19.962353 46.899632 -44.435661 37.827652 -42.880402 34.8736 -24.838381 -137.03134
13320000000 -19.703243 45.629753 -44.075756 13.277038 -42.888622 12.294225 -26.59108 -154.10297
13330000000 -19.679667 43.454048 -44.85873 -9.7866926 -43.147636 -9.3967113 -27.401312 -176.8493
13340000000 -19.404396 41.088383 -45.777534 -28.637579 -43.710728 -33.269016 -26.905626 161.56528
13350000000 -19.605749 37.968815 -45.918819 -46.081905 -43.970402 -53.375561 -26.08329 145.48676
13360000000 -19.6887 35.414265 -46.107681 -64.865181 -44.341766 -75.233139 -25.737873 128.78641
13370000000 -20.409252 33.957806 -45.806309 -80.354019 -45.053745 -95.785675 -25.229671 109.86552
13380000000 -20.434101 34.277706 -45.920643 -101.91348 -45.430691 -114.054 -23.731043 91.375481
13390000000 -21.264774 34.416412 -45.997208 -118.16933 -45.431423 -133.05092 -21.68342 78.691704
13400000000 -20.942383 36.34029 -46.098614 -139.65395 -45.268291 -154.06532 -19.91258 72.267143
13410000000 -21.299473 34.028515 -46.036842 -154.44511 -45.559696 -174.72656 -18.607811 68.589966
13420000000 -20.898621 34.287682 -45.356506 -175.66505 -46.010643 163.51088 -17.869036 64.495964
13430000000 -20.986166 28.429697 -44.707497 162.41371 -45.777855 145.6588 -17.521749 59.296227
13440000000 -21.051445 26.313917 -45.052071 139.31438 -46.012558 123.29196 -17.244892 52.64735
13450000000 -21.485571 22.188602 -44.474022 117.1123 -45.914646 104.4903 -16.82711 45.423592
13460000000 -21.823658 20.350256 -44.894413 97.822456 -46.208454 85.050995 -16.25135 38.929058
13470000000 -22.740044 19.663687 -44.610695 76.984276 -46.039822 63.248619 -15.76682 33.635822
13480000000 -22.631226 22.823626 -44.549973 57.806152 -46.436325 46.146687 -15.515414 29.645025
13490000000 -23.265671 22.086588 -43.897274 34.279423 -45.79356 22.371595 -15.36441 26.105589
13500000000 -22.962038 26.429966 -43.915337 11.772843 -45.846199 0.4950923 -15.376762 22.044722
13510000000 -23.019518 22.597267 -43.903618 -9.2888317 -46.150986 -17.776371 -15.492338 18.273462
13520000000 -22.868526 21.670324 -43.701149 -32.429802 -46.20026 -41.558002 -15.611681 14.711973
13530000000 -23.023876 14.223899 -43.545464 -51.299232 -46.338768 -58.830345 -15.829845 12.003863
13540000000 -23.878984 11.665407 -42.92276 -78.334 -45.966568 -81.632858 -16.130064 9.5556011
13550000000 -24.616352 8.9253798 -43.239605 -100.04317 -46.39957 -101.81886 -16.60195 7.5150609
13560000000 -25.357889 10.608287 -43.05653 -125.50141 -45.832134 -124.8078 -17.09411 5.7337623
13570000000 -25.98403 15.231863 -43.598106 -148.01779 -45.95129 -144.74057 -17.518764 3.7745953
13580000000 -25.802496 21.669863 -43.61108 -168.69949 -45.963058 -170.90746 -17.897755 2.9152524
13590000000 -25.16629 22.875303 -43.637138 168.17262 -47.022755 171.51112 -18.094463 3.410749
13600000000 -24.795137 22.636497 -43.449936 144.46776 -47.03561 152.34584 -18.170567 4.7199564
13610000000 -24.476034 16.731859 -43.990177 121.76704 -46.528015 134.78523 -18.248598 7.2581239
13620000000 -25.646297 12.588625 -43.99596 98.402107 -46.09549 110.66618 -18.312675 10.560997
13630000000 -26.092113 9.8859329 -44.241409 73.991615 -46.548283 88.988243 -18.223816 13.858055
13640000000 -27.973642 8.3893328 -44.821453 51.855907 -47.14394 67.237175 -18.108906 16.183575
13650000000 -28.815189 16.058369 -45.103947 27.224266 -46.978848 46.393681 -17.82737 17.820816
13660000000 -28.665485 23.291586 -46.15205 5.1409645 -47.116074 24.388035 -17.417511 17.818197
13670000000 -27.717407 26.946514 -46.84153 -15.534921 -47.426231 6.8421822 -16.936163 17.1556
13680000000 -26.429468 26.492279 -47.775715 -30.376596 -47.635925 -12.756423 -16.372921 16.275761
13690000000 -25.798021 20.250711 -47.494389 -49.516739 -47.694729 -29.745287 -15.827174 15.260559
13700000000 -26.034637 15.504292 -47.76366 -72.009315 -47.537727 -50.823986 -15.360014 13.722211
13710000000 -26.6154 11.285087 -48.030025 -94.715622 -46.854916 -69.970703 -15.014498 11.625755
13720000000 -27.660667 12.297072 -49.218124 -113.63074 -46.992493 -92.474754 -14.729463 8.7637472
13730000000 -28.858145 16.613844 -49.891712 -137.81709 -47.077984 -114.43862 -14.462299 5.446876
13740000000 -28.61978 26.319775 -52.163494 -148.03743 -47.554699 -132.39862 -14.178477 1.9908817
13750000000 -28.501965 26.730387 -51.031464 -155.89969 -47.614044 -148.59032 -13.961527 -1.358605
13760000000 -27.376673 28.163322 -50.964275 -175.20186 -46.76601 -168.30672 -13.927306 -4.2796521
13770000000 -27.357731 18.278637 -50.830402 166.14771 -46.620895 168.54683 -14.017488 -7.3574901
13780000000 -26.997231 17.354198 -50.640865 155.02377 -46.378613 147.57417 -14.280272 -11.338951
13790000000 -27.005049 8.2818832 -50.027557 134.60266 -46.355515 126.3956 -14.569281 -15.851216
13800000000 -27.676996 7.6338849 -49.818478 115.213 -46.232819 106.91208 -14.750586 -20.740007
13810000000 -27.363297 5.4065113 -49.79142 99.203575 -45.899437 83.975456 -14.851809 -24.917011
13820000000 -27.456249 5.3013186 -49.486839 82.966568 -46.096466 62.93755 -15.040068 -28.249327
13830000000 -27.485439 2.939213 -48.249958 65.192818 -46.018208 39.937428 -15.419449 -30.605696
13840000000 -27.646416 4.3175635 -47.571964 45.537144 -46.173115 20.569925 -16.006008 -32.82444
13850000000 -27.660686 1.3345875 -46.72784 27.260702 -46.059978 3.2703712 -16.70253 -35.131943
13860000000 -27.891575 3.3860991 -45.376755 1.9927154 -45.243607 -17.609842 -17.411564 -38.054398
13870000000 -27.508121 -2.0113585 -44.869492 -22.154436 -44.675964 -40.000404 -18.08219 -40.198345
13880000000 -27.877445 -2.175894 -45.084507 -46.237717 -44.886265 -65.937889 -18.813061 -41.158901
13890000000 -26.835772 -7.3663077 -44.37262 -65.958679 -44.761021 -89.163322 -19.706356 -40.445057
13900000000 -26.930771 -17.194849 -43.892445 -87.73571 -45.272263 -111.09949 -20.726875 -38.607563
13910000000 -27.235361 -22.897053 -43.920776 -111.1076 -45.400455 -128.43137 -21.743013 -36.83337
13920000000 -27.492861 -30.868883 -43.304539 -132.70589 -44.826523 -148.78235 -22.705023 -35.605614
13930000000 -29.238874 -37.025326 -42.862942 -155.761 -44.578239 -171.62122 -23.389675 -32.734993
13940000000 -30.606215 -32.872822 -42.403076 179.79149 -44.277351 163.397 -23.559071 -27.689623
13950000000 -30.878119 -25.645206 -42.030369 155.60747 -44.513481 140.27631 -23.353285 -20.817303
13960000000 -30.073788 -22.780436 -41.876171 128.74135 -45.04324 116.36297 -22.975403 -13.52811
13970000000 -28.396555 -27.481943 -42.615482 105.31542 -45.108452 101.14996 -22.57901 -6.7337627
13980000000 -27.257582 -41.020668 -41.920719 84.726143 -44.460873 78.610855 -22.324257 -1.2678162
13990000000 -26.940149 -54.20977 -42.14222 59.283234 -44.780731 53.002155 -22.036793 2.0794806
14000000000 -26.195776 -70.092957 -42.127964 37.360893 -44.741661 33.860222 -22.015903 3.5356531
14010000000 -27.551687 -85.872635 -42.024246 11.44166 -44.856831 8.752799 -21.958076 4.2693048
14020000000 -28.845282 -89.303734 -42.361404 -12.009887 -45.157692 -12.53287 -21.807692 3.1172054
14030000000 -31.320257 -88.7295 -42.521755 -36.686615 -45.542156 -34.157478 -21.773539 1.9969054
14040000000 -31.961632 -68.527374 -43.004658 -58.911514 -45.606689 -51.176544 -21.610834 0.18561324
14050000000 -29.749645 -59.456551 -43.024258 -80.383034 -45.415962 -73.827538 -21.574047 -2.117286
14060000000 -27.859913 -64.784302 -42.954395 -104.92754 -45.125042 -97.818352 -21.676401 -3.3199286
14070000000 -26.930807 -78.98896 -43.578407 -132.45834 -45.617424 -122.33877 -21.756231 -4.0231438
14080000000 -26.661169 -94.526604 -44.386684 -154.71234 -46.433727 -139.00357 -21.678713 -5.0856166
14090000000 -27.212465 -113.63596 -45.110298 -171.90462 -45.55526 -154.54968 -21.544678 -6.4447246
14100000000 -28.491381 -127.49506 -45.057503 165.30379 -45.667461 179.0995 -21.422087 -7.0570998
14110000000 -29.816378 -137.68697 -45.56971 142.90076 -45.811764 158.91182 -21.211414 -6.775939
14120000000 -32.225151 -130.84283 -46.013714 120.90542 -45.689552 138.04333 -21.275892 -6.6093469
14130000000 -30.823101 -117.46001 -46.44574 100.75346 -45.80579 117.82693 -21.622789 -5.6086664
14140000000 -28.756607 -114.83187 -46.513588 80.18441 -45.378723 95.214485 -21.975338 -6.6801686
14150000000 -27.330502 -120.38081 -47.343094 60.590389 -45.53273 74.489212 -22.431013 -10.686988
14160000000 -26.258429 -129.83539 -46.979389 40.849438 -45.46677 49.650204 -22.687128 -15.264995
14170000000 -26.462454 -142.15752 -47.42905 21.530914 -45.561504 30.829184 -22.676975 -19.922562
14180000000 -27.234684 -149.76233 -47.290009 2.5532849 -44.83847 7.1602688 -22.903872 -22.143978
14190000000 -28.196257 -156.96425 -47.727062 -17.633722 -45.291286 -17.131456 -23.354462 -22.627398
14200000000 -29.045444 -156.24692 -47.670124 -40.64275 -45.692657 -41.549118 -24.262737 -23.317665
14210000000 -28.913666 -151.76703 -48.404018 -61.22842 -46.077183 -62.564602 -25.743523 -26.02467
14220000000 -27.229259 -152.62849 -48.66573 -75.90612 -46.062218 -80.147148 -27.7542 -30.648767
14230000000 -26.752102 -159.19673 -47.95591 -96.896339 -45.627682 -103.68751 -30.021944 -36.002151
14240000000 -25.85573 -162.95554 -48.088902 -119.24432 -45.720181 -127.52348 -33.084545 -40.715733
14250000000 -26.521532 -174.02608 -48.594921 -142.14684 -46.005489 -153.25249 -38.355057 -40.174179
14260000000 -26.992643 -172.09238 -49.050591 -162.55974 -46.294704 -173.68794 -60.930344 -2.8183999
14270000000 -28.272791 -173.90547 -49.174294 179.94824 -46.572769 162.48021 -38.996124 137.97662
14280000000 -28.000082 -165.90802 -49.100662 157.97484 -46.796196 139.1767 -32.618198 138.24521
14290000000 -27.401287 -166.82925 -50.075733 133.83012 -47.546734 114.29984 -29.5249 133.72878
14300000000 -26.295845 -170.37424 -49.460766 122.21175 -48.069191 95.552673 -27.772301 125.8911
14310000000 -26.201443 179.31216 -50.465 97.789238 -48.022995 69.919312 -26.141174 117.03752
14320000000 -28.465103 169.19562 -48.313908 57.86755 -47.6558 77.968346 -22.043499 102.40775
14330000000 -29.375402 177.71597 -49.310959 38.669811 -47.631351 56.898434 -20.54727 97.638542
14340000000 -28.293514 -175.8299 -50.151421 22.403288 -48.076668 36.407627 -19.25296 95.329132
14350000000 -27.096994 -173.40593 -50.472546 4.2915735 -48.20763 14.379179 -18.128784 93.77375
14360000000 -26.097033 -179.68141 -51.053509 -12.464434 -48.374775 -8.3878527 -17.287344 92.117493
14370000000 -25.885408 175.99455 -51.056107 -27.964554 -48.535748 -32.24823 -16.713839 90.14299
14380000000 -26.169842 167.4117 -51.03587 -52.584621 -49.193741 -60.551262 -16.307339 87.310204
14390000000 -27.359398 164.20697 -52.352646 -73.49894 -51.68935 -75.600189 -15.972404 83.77298
14400000000 -28.347017 163.83597 -52.799984 -86.94622 -51.562832 -86.754868 -15.600688 79.927185
14410000000 -29.316645 168.44261 -53.007256 -101.23775 -51.108242 -103.04372 -15.173576 75.733948
14420000000 -29.078325 175.91673 -54.895523 -112.5187 -52.362144 -122.27528 -14.783005 72.311043
14430000000 -28.035292 177.79742 -53.642685 -115.96554 -52.29184 -135.38087 -14.388409 69.638535
14440000000 -27.161007 178.81918 -51.739536 -134.72141 -52.861229 -150.71719 -14.038441 66.877098
14450000000 -25.888367 174.47804 -50.252663 -152.59061 -52.04884 -162.73714 -13.801253 64.026924
14460000000 -25.972208 166.98671 -50.061558 -177.47314 -51.939766 -174.22755 -13.632615 61.279182
14470000000 -26.494749 165.26183 -50.260296 165.35513 -50.170471 165.4249 -13.461624 58.901394
14480000000 -27.274704 165.23189 -48.264957 149.23888 -49.800262 148.93599 -13.375652 57.181995
14490000000 -28.175688 170.56976 -47.793201 123.2303 -48.971909 128.89076 -13.357653 56.008457
14500000000 -27.998203 -178.86581 -47.041191 100.47414 -47.641808 106.35645 -13.444976 54.873314
14510000000 -26.729206 -177.2641 -46.948849 77.643097 -47.161144 81.746056 -13.610209 53.058975
14520000000 -26.159822 -177.62207 -46.581867 59.196644 -47.151257 59.059731 -13.739181 50.599251
14530000000 -25.42239 177.39409 -45.752457 36.217735 -46.488167 45.052841 -13.739859 48.144833
14540000000 -25.39889 172.93697 -45.081192 10.660035 -45.571564 14.901665 -13.580907 46.411884
14550000000 -25.479546 168.69368 -45.13583 -14.633814 -45.9921 -6.4255857 -13.368221 45.704803
14560000000 -25.779194 168.66594 -45.641525 -36.494038 -45.94754 -24.965202 -13.228124 45.746994
14570000000 -25.908911 171.78874 -45.323563 -58.774796 -44.863953 -50.621861 -13.177127 45.977634
14580000000 -25.560089 176.52145 -45.578209 -79.953728 -45.104885 -74.212349 -13.229237 45.75573
14590000000 -24.566696 179.42575 -45.533985 -100.12827 -45.452106 -96.35247 -13.245266 45.457119
14600000000 -23.814962 176.54816 -45.076603 -118.08379 -45.097439 -113.58604 -13.181808 44.744282
14610000000 -23.487919 174.74722 -44.360664 -142.37689 -44.494797 -134.43451 -13.081218 44.161808
14620000000 -23.273157 170.86304 -44.028446 -167.67397 -43.797184 -157.31439 -13.023792 43.873268
14630000000 -23.410604 169.65865 -44.705994 168.98154 -43.420963 177.20622 -12.956379 43.331463
14640000000 -23.490772 167.26399 -44.752319 149.95134 -43.819153 152.91562 -12.952475 42.054543
14650000000 -23.390471 169.41902 -44.221729 128.65875 -43.608036 131.54126 -12.879196 40.500427
14660000000 -22.978056 167.58617 -44.203865 105.7457 -43.526051 110.72453 -12.703094 38.514648
14670000000 -22.771242 168.51057 -43.949654 84.068199 -43.234554 87.915039 -12.450126 37.244217
14680000000 -22.167858 167.07507 -43.592148 58.759796 -42.97686 64.955185 -12.165133 36.424664
14690000000 -21.828955 165.99306 -44.199829 34.637108 -42.788212 41.13784 -11.982284 35.702534
14700000000 -21.358889 162.54332 -44.485302 15.202586 -43.283421 15.925476 -11.917322 35.012798
14710000000 -21.451853 160.29762 -44.435822 -6.6680336 -43.48904 -2.7154951 -11.952534 33.990982
14720000000 -21.478024 157.68027 -44.283417 -27.158537 -42.954205 -24.580996 -12.073983 32.74052
14730000000 -21.763895 157.77376 -43.925365 -49.292789 -42.698193 -48.372318 -12.166354 31.427292
14740000000 -21.505507 156.77966 -43.483139 -75.527557 -42.379402 -71.880974 -12.278254 29.508518
14750000000 -21.344982 155.72177 -44.662903 -101.38443 -42.486515 -98.691414 -12.366711 27.475315
14760000000 -20.983727 153.53181 -45.087757 -117.84347 -43.335415 -123.49983 -12.407485 25.100195
14770000000 -20.765734 150.57759 -44.816666 -137.0955 -43.492775 -140.47528 -12.448919 22.987368
14780000000 -20.576086 148.0663 -44.900345 -159.55101 -43.039177 -163.71016 -12.47487 21.766502
14790000000 -20.579491 145.76909 -44.694195 179.30083 -43.314331 168.20569 -12.520978 21.080456
14800000000 -20.466244 145.21823 -44.474827 157.28267 -43.878487 149.33374 -12.655721 21.01762
14810000000 -20.436049 143.69438 -45.046501 129.54822 -43.933422 123.64343 -12.80442 20.996252
14820000000 -20.410387 143.36076 -46.261398 111.06699 -44.820057 103.20554 -12.969958 20.304205
14830000000 -20.266146 142.24326 -46.090061 95.965584 -45.239075 84.571007 -13.205732 19.535175
14840000000 -20.304836 139.22 -45.669525 76.757904 -44.715572 65.546906 -13.422507 19.230778
14850000000 -20.552622 136.98807 -45.175255 54.665482 -44.494957 41.576378 -13.617998 19.23193
14860000000 -20.695477 135.40178 -45.188194 31.341747 -44.616604 20.411545 -13.871765 19.428457
14870000000 -20.84708 132.8051 -45.689384 6.765543 -44.626656 -6.2861485 -14.127733 19.070093
14880000000 -20.876507 131.34109 -46.37077 -11.366442 -45.394634 -26.981464 -14.394938 17.560778
14890000000 -20.875908 128.63091 -46.076031 -27.144722 -45.56768 -47.837402 -14.524778 16.220606
14900000000 -20.877201 128.19374 -45.426964 -46.740906 -45.828568 -71.087547 -14.453122 15.645909
14910000000 -20.444813 126.40343 -44.674412 -74.327744 -46.037174 -91.10788 -14.305039 16.518841
14920000000 -20.538275 122.52935 -45.801853 -98.415298 -46.506977 -113.09386 -14.211936 18.427982
14930000000 -20.793545 122.33493 -45.881317 -116.80674 -47.242626 -134.36467 -14.321959 20.343977
14940000000 -20.841356 120.41223 -46.412476 -132.15187 -47.762497 -147.58665 -14.642132 21.809782
14950000000 -21.254002 119.86494 -45.381344 -152.71365 -46.862698 -166.05196 -15.049289 22.363287
14960000000 -21.816523 119.03947 -44.903946 179.71187 -46.738655 168.01456 -15.351888 22.704493
14970000000 -22.031364 122.20332 -45.210358 155.1815 -46.969372 149.54204 -15.487349 22.930723
14980000000 -21.914524 120.17306 -46.010094 136.68651 -47.046932 127.29518 -15.540527 23.865154
14990000000 -22.068821 118.85103 -45.417061 117.21339 -46.775265 106.228 -15.597646 24.815308
15000000000 -22.219969 115.10565 -45.495358 92.476646 -47.181591 84.330109 -15.736078 25.426489
15010000000 -22.464573 114.10822 -45.799976 69.067856 -46.415649 60.151161 -15.902021 25.409515
15020000000 -22.778992 110.11853 -46.249638 52.602928 -46.962734 37.286095 -15.830682 25.421448
15030000000 -23.174774 110.63666 -45.667999 32.307194 -47.524258 14.559793 -15.512613 25.576841
15040000000 -23.688131 109.0919 -45.442097 9.3880119 -47.967022 -5.6289039 -15.08378 27.210386
15050000000 -24.303331 116.17927 -45.383636 -16.361101 -47.174137 -25.852802 -14.735536 29.704185
15060000000 -23.559937 119.2179 -46.058792 -34.947414 -48.568333 -51.216129 -14.667318 32.377701
15070000000 -23.400736 118.66114 -45.285381 -58.164497 -48.648594 -71.431816 -14.750833 34.733608
15080000000 -23.406284 116.78742 -45.884644 -84.353394 -49.338505 -88.071114 -14.899471 35.473549
15090000000 -23.842119 115.64063 -46.727757 -107.93554 -49.351135 -109.92203 -14.982685 35.034977
15100000000 -24.21237 114.40382 -47.800232 -119.1538 -50.240276 -132.53661 -14.930836 33.42968
15110000000 -25.190701 113.89675 -46.272118 -131.92004 -50.927547 -142.91472 -14.801662 32.222145
15120000000 -25.974586 117.96903 -45.204659 -162.52893 -50.104462 -166.73441 -14.618288 31.590448
15130000000 -25.871727 126.00092 -45.347092 168.30763 -50.121239 170.89539 -14.45564 30.893538
15140000000 -24.820713 127.59525 -46.978996 142.24695 -51.106327 154.72371 -14.312577 30.430567
15150000000 -24.366232 127.11617 -47.740154 132.21085 -50.298157 139.64745 -14.092298 30.033636
15160000000 -23.541023 125.47005 -47.386204 117.51985 -50.792641 118.03803 -13.846815 29.703295
15170000000 -23.407795 120.02507 -46.00248 95.655373 -50.311813 96.579285 -13.650374 29.752234
15180000000 -23.870129 118.91064 -46.026455 69.313133 -51.241161 77.480766 -13.634068 29.836668
15190000000 -24.316856 118.86089 -46.396542 44.084801 -50.487492 62.43269 -13.760687 30.286654
15200000000 -25.132179 122.87524 -47.198956 24.67565 -50.00293 42.89571 -13.931026 29.952108
15210000000 -24.79981 131.05939 -47.429115 8.2460976 -49.702038 20.052429 -14.21139 28.810757
15220000000 -24.090691 134.56181 -46.723003 -12.227387 -49.578312 -1.1690331 -14.393582 27.701609
15230000000 -22.936956 132.97908 -46.409115 -36.703255 -49.298641 -22.328152 -14.46982 25.651478
15240000000 -22.589056 127.1305 -46.810226 -63.489723 -49.755844 -47.059639 -14.574203 24.06815
15250000000 -22.491896 121.8364 -47.120525 -84.026489 -49.233311 -66.840538 -14.555366 23.03191
15260000000 -22.949167 117.54337 -48.006485 -106.25367 -49.732742 -89.135155 -14.489922 22.039427
15270000000 -23.130299 114.89119 -48.766632 -121.95724 -48.884071 -106.85934 -14.465187 22.009186
15280000000 -24.142532 113.60549 -49.252991 -139.17166 -49.203346 -134.72903 -14.416822 23.062525
15290000000 -24.099134 120.93439 -48.098495 -154.53503 -49.717442 -148.86635 -14.458193 24.397802
15300000000 -23.712553 122.36731 -47.187252 177.27975 -48.86594 -171.29485 -14.651403 26.236717
15310000000 -22.793079 124.60221 -47.729382 148.77028 -48.952652 164.58501 -14.885222 27.571241
15320000000 -22.142698 120.14038 -48.474529 122.70792 -48.711292 139.18324 -15.214421 27.957754
15330000000 -21.785471 114.26949 -49.924496 102.40569 -50.031284 114.94308 -15.465083 27.922968
15340000000 -22.398994 108.19048 -50.632973 91.139359 -50.425488 98.922523 -15.593573 27.204672
15350000000 -22.842285 106.23352 -50.132175 73.704575 -50.071499 79.098511 -15.678374 26.845295
15360000000 -23.720045 101.21082 -49.559746 49.532829 -50.052387 53.768547 -15.714038 26.870852
15370000000 -24.710939 104.80609 -49.1525 27.758394 -50.33408 29.662693 -15.731439 26.936388
15380000000 -24.890312 107.82436 -50.194389 -5.2876463 -51.90015 6.5326262 -15.63098 26.6399
15390000000 -24.302057 112.31304 -51.99007 -11.058562 -53.037079 -5.304944 -15.445411 26.42581
15400000000 -23.569435 107.24757 -50.711334 -25.354204 -52.120327 -22.329735 -15.146816 27.045824
15410000000 -23.465719 103.50123 -50.411667 -47.578255 -52.670086 -41.848824 -14.898233 28.592043
15420000000 -23.463642 97.136856 -49.262253 -77.67321 -50.872265 -67.312241 -14.834775 31.070793
15430000000 -23.925486 91.283638 -51.283588 -104.92128 -53.459133 -97.548462 -14.894863 33.279041
15440000000 -25.132141 85.541534 -54.287579 -119.5302 -55.075829 -105.50504 -15.233362 33.736198
15450000000 -26.278376 87.672485 -53.029747 -125.95319 -55.712391 -125.00276 -15.624339 33.271904
15460000000 -27.280949 87.669113 -53.95993 -135.85182 -55.524281 -114.33208 -15.845224 31.246487
15470000000 -28.089605 95.891846 -52.060032 -159.56622 -53.509724 -147.79773 -15.929391 29.235603
15480000000 -27.265392 97.31897 -52.259525 -178.07187 -53.59977 -173.62999 -15.764689 28.452431
15490000000 -27.358162 94.353668 -52.358116 161.64627 -54.663548 178.74785 -15.596612 28.152119
15500000000 -27.201336 89.315964 -52.331879 147.79398 -54.689693 152.89914 -15.539911 28.922266
15510000000 -27.406656 80.609932 -51.671871 126.10146 -56.257721 154.38632 -15.428087 29.905628
15520000000 -28.980776 69.233376 -52.227512 107.3702 -53.34581 138.90887 -15.375904 30.669275
15530000000 -31.039457 68.411339 -51.662689 84.672226 -53.445286 117.813 -15.366322 32.428905
15540000000 -34.06868 66.208946 -51.146824 66.356392 -51.086624 98.736954 -15.333273 34.663483
15550000000 -34.836723 88.581612 -52.232265 50.500294 -51.543163 79.427101 -15.395197 36.807812
15560000000 -35.986774 80.26815 -51.000149 35.138443 -50.865383 60.897583 -15.575777 38.642868
15570000000 -37.544941 99.283112 -49.929329 12.704489 -48.820728 38.20623 -15.801693 39.831493
15580000000 -37.587292 98.553192 -49.68848 -16.350447 -48.734921 11.31094 -16.066456 39.887707
15590000000 -38.553051 96.143524 -50.937775 -35.499489 -48.971436 -8.3417292 -16.254086 39.65361
15600000000 -41.246429 78.997818 -50.410873 -51.553703 -47.959579 -28.535891 -16.223196 38.709839
15610000000 -50.576084 41.046047 -50.985386 -73.918938 -47.963112 -52.602913 -16.045929 37.621483
15620000000 -42.6577 -74.536682 -50.21891 -82.240211 -46.69767 -69.539268 -15.739137 36.986401
15630000000 -36.834724 -127.70206 -49.335625 -107.22147 -46.67104 -97.809509 -15.400029 37.139042
15640000000 -36.449596 -139.99791 -49.337387 -129.42693 -46.12886 -118.12978 -15.117182 38.451824
15650000000 -34.800591 -151.26695 -48.274681 -147.33272 -45.796329 -143.98767 -14.9168 40.853542
15660000000 -36.472969 -148.1011 -48.336689 -170.44576 -45.951767 -165.8428 -14.817306 42.979122
15670000000 -33.989044 -141.37819 -48.065578 169.97852 -46.187225 172.47267 -14.975676 44.192596
15680000000 -32.893288 -136.82156 -47.166428 146.30278 -45.688374 153.4066 -15.225882 45.159752
15690000000 -30.583122 -137.56981 -47.718933 124.12434 -44.769131 131.04825 -15.432614 44.922096
15700000000 -29.489573 -137.81862 -46.971531 102.45407 -44.481686 103.31384 -15.580202 44.617493
15710000000 -28.28817 -140.77751 -46.729542 79.173836 -44.491371 79.80574 -15.570831 44.517101
15720000000 -27.446108 -142.51126 -47.142059 56.166775 -44.752789 57.753902 -15.499123 44.684486
15730000000 -26.782867 -147.16913 -46.822426 38.696407 -44.639305 36.067032 -15.504666 44.471523
15740000000 -27.00359 -148.17529 -46.343624 13.194115 -44.48423 12.832839 -15.468368 44.375923
15750000000 -26.637278 -147.68251 -46.325165 -7.4513111 -44.236961 -9.9658527 -15.252157 44.444614
15760000000 -26.511034 -145.158 -46.468334 -29.889717 -44.614895 -30.051365 -14.853071 45.29583
15770000000 -25.425526 -143.69212 -46.17915 -52.319778 -43.948402 -52.401402 -14.35749 47.228863
15780000000 -24.724577 -145.92326 -46.147831 -70.717392 -44.041824 -76.381271 -13.976455 49.786327
15790000000 -23.93759 -149.12039 -46.080093 -94.606194 -43.977013 -97.526878 -13.816826 52.436638
15800000000 -23.555769 -152.6635 -46.370193 -116.28686 -44.150845 -121.67985 -13.897267 54.466759
15810000000 -23.280113 -155.12697 -46.04501 -137.658 -43.851288 -143.89577 -14.0796 55.302349
15820000000 -23.332449 -156.38971 -46.55518 -158.49167 -44.173973 -167.78284 -14.176668 54.378201
15830000000 -23.185171 -156.20593 -45.95797 -178.17473 -43.986298 169.92635 -14.128554 52.326717
15840000000 -23.394739 -152.9164 -45.755394 159.5354 -44.488533 148.31096 -13.885262 50.338921
15850000000 -22.693129 -150.18393 -45.879204 137.59247 -44.253239 127.76118 -13.530693 48.698738
15860000000 -22.085077 -150.07043 -45.384205 118.3196 -44.083641 106.91013 -13.137531 47.329544
15870000000 -21.469044 -152.19057 -45.222874 93.428352 -43.572132 81.918907 -12.793869 46.418949
15880000000 -21.382912 -156.00101 -45.247749 72.53627 -43.783752 56.558491 -12.473865 45.816959
15890000000 -21.399921 -157.8475 -45.51054 50.969749 -44.564758 34.942837 -12.163482 45.671555
15900000000 -21.488575 -159.79517 -45.193077 32.396832 -44.512283 16.07251 -11.924442 45.956017
15910000000 -21.640003 -159.24258 -44.519859 10.673042 -44.350914 -6.5711203 -11.770244 46.042648
15920000000 -21.444757 -156.68663 -44.20657 -13.213399 -44.624287 -28.659754 -11.739607 45.682247
15930000000 -20.898842 -154.86732 -44.230804 -38.181198 -44.358856 -50.245262 -11.826164 44.775703
15940000000 -20.347767 -154.43372 -44.497761 -60.104408 -44.660442 -74.561455 -11.95163 43.121658
15950000000 -19.643894 -155.32072 -44.354832 -82.105728 -44.642063 -93.017944 -12.060389 40.646873
15960000000 -19.49534 -157.02226 -44.378441 -106.82257 -44.534294 -116.12036 -12.078377 37.776352
15970000000 -19.232506 -157.9698 -44.430759 -128.33568 -44.570595 -140.30891 -12.025155 34.598694
15980000000 -19.438055 -158.44499 -44.385258 -150.41609 -44.785961 -161.02376 -11.853674 31.880428
15990000000 -19.409973 -157.17538 -44.650047 -172.59756 -45.184494 176.30707 -11.632952 29.982126
16000000000 -19.351093 -155.19479 -44.663933 166.31337 -45.190254 155.00452 -11.421852 29.030462
16010000000 -18.847229 -153.73804 -44.876709 145.06694 -45.207245 134.50084 -11.33717 28.729139
16020000000 -18.44626 -154.36273 -44.426777 126.41242 -45.162254 112.61496 -11.436552 28.764837
16030000000 -17.894213 -155.25487 -44.398693 100.50163 -45.599861 89.238052 -11.643279 28.155914
16040000000 -17.653782 -157.90181 -44.358082 80.214928 -45.70039 70.319786 -11.959666 26.24925
16050000000 -17.461473 -158.23322 -44.380993 56.489101 -45.873379 46.443584 -12.292486 23.629677
16060000000 -17.254452 -158.3311 -44.622826 33.55901 -45.755268 23.380617 -12.551435 20.736383
16070000000 -16.936611 -157.83621 -44.754082 12.00727 -46.510757 3.1260245 -12.729032 18.128403
16080000000 -16.650492 -157.79785 -44.461365 -7.8899879 -46.210419 -14.223643 -12.911434 15.765289
16090000000 -16.331463 -157.42444 -44.447948 -32.029015 -45.875828 -37.073063 -13.109655 13.282255
16100000000 -16.081432 -156.83636 -44.520267 -52.40432 -45.841518 -62.162479 -13.29726 10.727269
16110000000 -15.615537 -157.56427 -44.247311 -76.46312 -46.246441 -86.633301 -13.375564 8.9287491
16120000000 -15.366039 -158.46655 -44.265404 -96.613693 -46.582718 -104.3465 -13.363096 8.279911
16130000000 -15.042586 -159.83664 -44.191978 -119.87855 -46.174835 -125.94366 -13.41426 9.2225494
16140000000 -14.910405 -160.9603 -43.935055 -144.04871 -46.418705 -149.28542 -13.663649 11.175825
16150000000 -14.6522 -161.99734 -43.979496 -166.99536 -46.252903 -170.09378 -14.155572 12.611579
16160000000 -14.409192 -161.89072 -44.310993 167.28304 -46.502697 165.52611 -14.912705 12.437371
16170000000 -13.992283 -162.88092 -44.683174 145.78638 -46.829792 143.93323 -15.676149 10.609775
16180000000 -13.659655 -163.26083 -44.616219 123.60429 -46.838619 123.80733 -16.2206 7.1294336
16190000000 -13.303939 -164.82661 -44.599491 98.502953 -46.69944 99.725357 -16.472809 4.2090611
16200000000 -13.174557 -165.12608 -44.825077 75.651299 -46.955513 77.540451 -16.534687 2.6028678
16210000000 -12.843851 -165.68562 -45.259453 48.659073 -46.998402 51.640827 -16.596418 1.6117674
16220000000 -12.720487 -166.08095 -45.838852 28.015806 -48.198097 29.494314 -16.772055 0.86031109
16230000000 -12.388207 -166.92969 -46.062149 6.6973519 -48.323624 10.972099 -16.932484 0.70977563
16240000000 -12.186028 -167.93576 -45.974224 -12.869533 -48.58511 -9.9303293 -17.01226 1.3314179
16250000000 -11.914572 -169.88109 -46.080875 -40.55851 -49.075878 -33.505493 -17.039524 4.0233059
16260000000 -11.797598 -171.16714 -46.53693 -61.080326 -49.32354 -49.403004 -17.134516 7.3673043
16270000000 -11.511479 -172.98085 -46.802673 -84.98085 -48.961479 -71.887604 -17.565504 10.442651
16280000000 -11.444421 -174.16418 -47.435543 -109.05598 -50.287949 -93.553802 -18.334772 12.320971
16290000000 -11.160125 -174.80611 -48.36515 -130.74219 -50.475685 -110.73679 -19.184126 11.63077
16300000000 -10.957121 -175.33879 -48.756367 -151.73888 -50.440609 -130.27594 -19.893486 7.9006448
16310000000 -10.583949 -175.83356 -49.12553 -172.03551 -50.198498 -151.40916 -20.234531 3.4239163
16320000000 -10.306332 -176.84877 -50.212032 164.67867 -51.20034 -171.28993 -20.258102 -0.092906386
16330000000 -10.023604 -178.51698 -49.869354 144.06386 -50.282185 173.63487 -20.245054 -2.1470835
16340000000 -9.9330082 -179.99452 -51.014526 122.01088 -50.768513 151.70663 -20.297918 -3.2911265
16350000000 -9.8414621 178.28546 -51.327145 104.54223 -50.527145 129.07079 -20.308493 -3.9562461
16360000000 -9.8721094 177.44298 -51.229946 84.644958 -50.664658 110.13236 -20.382786 -4.1881304
16370000000 -9.7301092 176.83325 -51.476398 60.728428 -49.856758 91.95623 -20.626633 -2.7316232
16380000000 -9.5780239 175.99739 -53.144337 37.460266 -49.934418 68.661964 -21.210329 0.20605162
16390000000 -9.3149529 175.27855 -53.033089 23.339832 -49.621101 48.543537 -22.331915 2.5291991
16400000000 -9.002182 173.92284 -53.955933 -6.0803308 -50.36832 22.259974 -24.024012 2.6300662
16410000000 -8.7401285 172.09805 -55.490833 -18.732941 -50.283508 4.1260095 -26.024963 -2.6512742
16420000000 -8.5193148 170.53156 -56.196449 -34.477139 -50.192509 -21.211443 -28.049721 -11.75
16430000000 -8.4241323 168.56178 -56.588661 -52.153442 -51.293461 -46.351887 -29.17201 -17.817673
16440000000 -8.4242249 167.91016 -57.370811 -68.126701 -51.622066 -60.960361 -29.866371 -23.484381
16450000000 -8.3635244 167.49493 -56.991554 -78.17495 -50.675297 -84.456551 -31.613302 -28.568939
16460000000 -8.263648 167.5551 -57.440586 -98.522774 -51.318943 -109.60236 -34.605286 -30.358978
16470000000 -8.0535011 167.24335 -56.812553 -106.35638 -52.293045 -127.91633 -37.723396 -26.603899
16480000000 -7.8165917 166.24588 -56.39019 -129.97803 -52.257397 -151.80072 -39.453487 -0.95121473
16490000000 -7.6021862 164.46638 -57.116692 -141.06668 -53.476456 -169.59891 -36.767101 42.187393
16500000000 -7.4373732 162.72289 -55.604195 -154.49265 -52.760311 178.55655 -32.275898 70.716141
16510000000 -7.3439918 160.44789 -54.174023 -178.62868 -53.127739 151.43054 -28.63929 90.357735
16520000000 -7.3347945 159.57794 -55.427868 162.25902 -53.986561 135.51067 -26.260176 104.1066
16530000000 -7.2221336 158.56673 -53.77874 136.44864 -53.289562 111.96284 -25.329702 113.59367
16540000000 -7.1402102 158.67442 -54.854595 117.06114 -54.605862 95.148781 -25.320143 120.65215
16550000000 -6.8714199 158.09886 -54.345337 98.704575 -53.745506 79.084793 -25.604 121.65639
16560000000 -6.7023735 157.61519 -54.194241 82.266525 -53.379444 58.903553 -26.002241 116.21631
16570000000 -6.4657016 156.5108 -54.218075 60.672455 -53.317345 33.174309 -25.880392 111.10763
16580000000 -6.3307662 155.33081 -52.451813 44.472435 -52.454659 15.53672 -25.2644 107.07351
16590000000 -6.2006717 153.67995 -52.63892 18.295887 -53.739185 -10.092254 -24.806952 105.40438
16600000000 -6.1728711 152.45457 -52.409561 -4.4610577 -53.37204 -24.910587 -24.240051 103.59727
16610000000 -6.0700464 151.21242 -51.915409 -20.675909 -52.385262 -43.265945 -23.704567 99.970276
16620000000 -6.0060225 150.46051 -51.889633 -49.934849 -52.421513 -71.341911 -22.893711 98.195641
16630000000 -5.807045 149.4924 -52.243927 -61.287048 -53.119934 -93.165192 -21.754374 99.843758
16640000000 -5.6488237 148.75954 -51.148777 -82.091682 -53.781925 -113.64814 -20.694818 103.48795
16650000000 -5.376781 147.74333 -50.317245 -109.09342 -53.807358 -130.65395 -20.115269 108.03008
16660000000 -5.2078419 146.49384 -51.126751 -132.83034 -53.569309 -148.57942 -20.06389 112.61885
16670000000 -5.0017071 145.32541 -50.558872 -151.79065 -53.045029 -171.51753 -20.383156 115.35455
16680000000 -4.8949847 144.05714 -50.033115 -176.90793 -53.239922 164.72885 -20.731497 114.63848
16690000000 -4.7809877 143.01071 -49.742779 158.38492 -53.434261 146.44606 -20.80938 110.34544
16700000000 -4.6863832 142.11293 -50.160358 132.93059 -52.783264 122.3753 -20.556055 104.62032
16710000000 -4.5402536 141.13181 -50.130821 109.27056 -53.017784 101.91544 -19.945412 100.12009
16720000000 -4.395556 140.02985 -50.787083 91.533241 -53.853168 83.102432 -19.243565 97.52346
16730000000 -4.2085195 138.62875 -49.673805 67.079941 -52.49564 61.666821 -18.547319 96.367195
16740000000 -4.0691271 137.20236 -49.754704 40.96611 -52.463478 38.951015 -17.999249 95.381599
16750000000 -3.9034421 135.77995 -50.843254 16.200912 -52.881802 10.876696 -17.623571 95.452034
16760000000 -3.7710695 134.33281 -50.814735 -0.32786557 -53.414154 -3.7564542 -17.353321 95.765884
16770000000 -3.6300542 133.18898 -50.96167 -26.947168 -53.235027 -25.337513 -17.292849 95.85141
16780000000 -3.4823937 131.97655 -51.67268 -46.290928 -52.523331 -46.537308 -17.461485 95.522209
16790000000 -3.3330345 130.7627 -51.825672 -69.261101 -53.233395 -76.422684 -17.839497 94.356453
16800000000 -3.210324 129.4333 -51.637527 -87.303749 -53.70583 -93.05732 -18.350538 91.977409
16810000000 -3.0904136 128.04976 -52.33831 -111.10468 -54.067543 -115.01722 -18.779646 87.934631
16820000000 -2.9873765 126.60417 -51.714619 -131.91443 -54.000237 -133.12543 -19.103642 82.33519
16830000000 -2.8752377 125.05847 -52.728806 -157.4393 -53.789219 -155.33627 -19.121721 76.64016
16840000000 -2.7608039 123.6375 -53.12524 -176.83246 -54.138496 -179.68762 -18.873508 72.808769
16850000000 -2.6207907 122.07384 -52.734203 164.29955 -54.577316 159.73442 -18.534973 71.367821
16860000000 -2.4952636 120.51989 -53.278366 140.5157 -54.519459 140.96713 -18.243418 72.339661
16870000000 -2.3638656 118.92844 -53.257092 117.83823 -54.899681 118.21361 -18.22576 74.567764
16880000000 -2.2524393 117.48319 -53.954113 97.391876 -55.42506 99.1222 -18.594704 77.993546
16890000000 -2.140142 116.04874 -54.332016 81.969612 -54.799915 82.502464 -19.286224 81.244972
16900000000 -2.0500295 114.78414 -53.911903 57.264057 -54.581261 54.296299 -20.184557 84.123138
16910000000 -1.946589 113.42877 -53.914341 35.450291 -55.15229 32.586174 -21.206739 85.700417
16920000000 -1.8664296 112.12252 -55.611423 12.451254 -56.53569 11.360001 -22.216949 86.590935
16930000000 -1.7643055 110.5802 -55.388748 -4.6241965 -56.316433 -5.7624006 -23.079304 86.487984
16940000000 -1.683835 108.97197 -55.343777 -20.98502 -56.20549 -17.59008 -23.680933 87.310951
16950000000 -1.5930897 107.2284 -55.178879 -46.451965 -55.191772 -45.709469 -23.767693 88.329803
16960000000 -1.5190023 105.55123 -55.240829 -66.817986 -55.937099 -72.253563 -23.470196 90.27343
16970000000 -1.4340219 103.86359 -55.393692 -89.147408 -55.869957 -90.130287 -22.696487 94.038696
16980000000 -1.3547298 102.30145 -55.544144 -109.87578 -56.114143 -108.08001 -21.640491 98.978455
16990000000 -1.2660259 100.74499 -55.936077 -129.36784 -56.221504 -130.28329 -20.673731 104.43851
17000000000 -1.1815075 99.335686 -55.9408 -151.6665 -56.205482 -151.84309 -19.924749 110.40859
