!Keysight Technologies,P9374A,MY57211807,A.19.30.04
!Date: Friday, May 08, 2026 14:35:00
!Correction: S11(C  2-Port  ) 
!S21(C  2-Port  ) 
!S12(C  2-Port  ) 
!S22(C  2-Port  ) 
!S2P File: Measurements: S11, S21, S12, S22:
# Hz S  dB   R 50
13000000000 -18.875639 58.227829 -44.34267 153.97446 -44.485802 151.11385 -8.8881941 21.285744
13010000000 -18.977085 58.843208 -42.925289 133.89542 -43.116215 132.54643 -8.9204655 17.455631
13020000000 -19.277708 59.439449 -42.397854 109.87544 -42.423828 108.64301 -9.0086184 13.887657
13030000000 -19.387518 60.9277 -42.168121 84.410042 -42.241974 82.946259 -9.0812712 10.243576
13040000000 -19.873495 60.882141 -42.631813 64.973289 -42.800404 63.141781 -9.2105627 6.5874386
13050000000 -20.022596 64.275208 -42.688873 48.75573 -42.924137 47.914795 -9.4463053 3.3332827
13060000000 -20.029758 65.264671 -41.444 30.41329 -41.515678 31.15 -9.724638 0.2469663
13070000000 -19.711327 65.316406 -40.359215 7.9910278 -40.18486 7.0423312 -10.052733 -2.927109
13080000000 -19.561743 64.454453 -39.845554 -20.210466 -39.914143 -21.889164 -10.444359 -6.5897408
13090000000 -19.277332 61.345413 -40.163937 -45.246059 -40.216785 -46.863575 -10.877705 -10.089175
13100000000 -19.541292 59.956009 -40.470715 -66.803047 -40.508156 -66.528938 -11.228962 -12.846518
13110000000 -19.420708 59.168995 -40.229721 -85.104553 -40.172195 -85.93718 -11.615318 -15.462238
13120000000 -19.934731 58.838501 -39.848831 -109.39557 -39.825615 -110.67153 -12.069814 -17.792688
13130000000 -19.845217 61.086807 -39.642925 -131.69609 -39.468056 -132.22455 -12.664039 -20.256901
13140000000 -19.771593 63.99976 -39.404865 -156.26112 -39.463928 -158.10368 -13.328918 -22.54089
13150000000 -19.325941 62.709286 -39.570713 -179.90854 -39.591839 179.79659 -13.925198 -24.412415
13160000000 -19.372532 63.690224 -39.774105 161.66803 -39.793156 160.12549 -14.45211 -25.753452
13170000000 -19.102144 61.556431 -39.353237 138.51692 -39.277233 137.55296 -14.97852 -26.613928
13180000000 -19.254871 59.299171 -38.939945 116.53693 -38.976143 115.01746 -15.692349 -27.130796
13190000000 -19.091177 57.763588 -38.635609 89.542213 -38.577843 88.190742 -16.656342 -27.05829
13200000000 -19.134405 54.503349 -38.895744 63.725288 -38.801552 62.04052 -17.735704 -27.049406
13210000000 -19.338295 52.834465 -39.734917 41.184132 -39.731056 39.390221 -18.779325 -27.556025
13220000000 -19.710737 52.133942 -39.95715 23.943785 -39.863464 21.766586 -19.636274 -27.214737
13230000000 -19.765812 53.119038 -39.744675 2.49702 -39.833614 1.0536052 -20.2656 -25.072371
13240000000 -19.718943 55.347168 -39.06076 -15.90059 -39.249397 -17.826109 -20.888521 -21.164293
13250000000 -19.288956 54.763142 -38.76437 -42.470932 -38.940506 -43.199921 -21.829546 -14.200478
13260000000 -19.101442 55.443859 -38.537918 -66.84079 -38.442459 -67.717369 -22.967985 -4.4290442
13270000000 -18.640423 51.181389 -38.818153 -93.836128 -38.864738 -96.026237 -23.932634 7.6435571
13280000000 -18.823423 46.893719 -39.514523 -115.4316 -39.577126 -115.67543 -24.463848 17.854647
13290000000 -19.34181 42.912178 -39.476067 -135.51576 -39.622437 -136.72264 -24.465858 26.175831
13300000000 -19.723524 42.636486 -39.222832 -158.34541 -39.160954 -158.72264 -23.782887 32.287533
13310000000 -20.295622 40.862934 -39.402885 179.47786 -39.43898 178.43025 -22.703255 37.995079
13320000000 -20.289989 43.443432 -39.16214 155.98228 -38.997292 155.72874 -21.585396 44.476948
13330000000 -20.21866 41.855335 -39.342575 135.04701 -39.22488 133.33401 -20.448383 50.279072
13340000000 -19.923452 43.560036 -39.06284 108.81142 -39.115891 107.70078 -19.52042 53.755718
13350000000 -19.807606 40.105446 -39.411743 86.167542 -39.318695 85.761497 -18.905247 54.875446
13360000000 -19.625751 39.498688 -39.178722 64.176781 -38.990444 63.076599 -18.335409 53.769287
13370000000 -19.62706 35.179314 -39.011715 38.44054 -38.894585 36.363102 -17.612307 51.298264
13380000000 -19.781456 32.201107 -39.407986 12.113757 -39.552814 10.387753 -16.628571 48.6931
13390000000 -20.557737 28.969141 -40.209946 -9.7713537 -40.134903 -10.841407 -15.663573 46.901306
13400000000 -20.820864 29.187498 -40.054546 -30.82019 -39.929356 -32.22826 -14.861556 45.933018
13410000000 -21.710413 25.858845 -39.993824 -53.64875 -39.929077 -55.925255 -14.327156 45.54977
13420000000 -22.012844 31.33334 -39.847294 -79.170052 -40.047657 -81.479828 -13.97876 44.176376
13430000000 -21.907839 29.822126 -39.793903 -105.10164 -39.910686 -106.25014 -13.747522 41.727119
13440000000 -21.444052 30.871181 -40.10133 -131.79369 -40.346416 -133.23172 -13.533658 38.31171
13450000000 -21.145452 25.952038 -41.247402 -158.66466 -41.184055 -158.56517 -13.240213 34.446293
13460000000 -21.087721 23.095139 -41.494713 -176.17081 -41.478065 -178.08449 -12.91046 30.84234
13470000000 -21.56625 16.961721 -41.322536 157.14313 -41.469902 156.74113 -12.651214 27.863188
13480000000 -22.068188 15.087028 -42.104202 132.29462 -42.068295 130.95502 -12.518315 25.272772
13490000000 -23.516367 12.696167 -42.209484 109.40765 -42.344704 108.57003 -12.472851 22.986008
13500000000 -23.61425 18.653788 -42.305164 85.279137 -42.263615 82.629768 -12.51704 20.454996
13510000000 -24.223969 18.689062 -42.511761 54.59576 -42.790539 52.798355 -12.590072 17.762239
13520000000 -24.146132 21.7335 -44.229378 30.30864 -44.436584 30.425621 -12.698995 15.079282
13530000000 -23.895704 20.142538 -44.129353 9.8017006 -44.123398 7.9460807 -12.899206 12.964843
13540000000 -23.749763 16.539705 -44.582054 -18.980513 -44.865711 -17.757612 -13.115312 11.396012
13550000000 -23.834196 12.49213 -45.268723 -41.270645 -45.243332 -41.707645 -13.390969 9.8380451
13560000000 -24.028473 8.8292522 -44.843613 -69.599236 -45.151218 -69.222916 -13.726154 8.1985502
13570000000 -25.376829 5.8487754 -46.167 -100.01495 -46.008865 -99.48745 -14.068911 6.8362575
13580000000 -25.4009 7.3147845 -47.052094 -127.20047 -46.918777 -126.87165 -14.289867 6.2184858
13590000000 -27.154867 7.0996189 -47.797119 -152.43805 -47.623474 -153.31383 -14.440238 5.7312207
13600000000 -26.878521 17.60973 -47.220886 176.87286 -47.62228 177.16222 -14.535436 6.0274696
13610000000 -27.082399 21.0634 -49.412647 142.5896 -49.372631 145.0224 -14.654081 7.2008553
13620000000 -26.556482 22.080639 -48.951176 115.27569 -49.007099 118.41095 -14.74142 8.9458857
13630000000 -26.424374 20.984234 -50.502712 85.946648 -49.476067 92.028038 -14.824392 10.106031
13640000000 -26.111242 13.452025 -50.300655 59.880844 -49.345367 57.544495 -14.88201 11.106456
13650000000 -27.284428 6.766326 -49.997124 31.383934 -49.946129 27.670218 -14.828227 11.316175
13660000000 -27.95476 8.4640217 -49.409973 -1.3571281 -49.232491 -2.6908906 -14.702344 10.95883
13670000000 -29.120302 7.5109882 -48.73753 -32.290874 -48.820251 -30.485918 -14.533249 10.527197
13680000000 -29.662136 13.340219 -48.144867 -69.426987 -47.602859 -68.416458 -14.210834 10.340263
13690000000 -29.965151 25.122309 -48.362171 -98.163635 -47.819145 -99.043922 -13.898367 9.5576181
13700000000 -27.980801 30.502098 -48.066525 -130.58699 -47.685253 -132.69957 -13.654571 8.8795919
13710000000 -27.26177 26.957247 -48.210533 -149.99342 -48.39645 -154.49173 -13.403934 7.2118301
13720000000 -26.902897 24.375648 -46.723419 -175.18619 -47.239105 -175.45921 -13.267941 4.8616047
13730000000 -26.952747 19.980955 -45.265865 158.84686 -45.034916 160.39713 -13.138125 2.5525908
13740000000 -27.559868 13.949471 -44.742317 125.04227 -44.245087 124.95121 -13.00186 0.17494011
13750000000 -29.239395 11.017865 -44.340977 97.06044 -44.11665 93.664513 -12.864217 -2.4298625
13760000000 -29.898449 16.463991 -44.388634 68.412193 -44.486057 66.893814 -12.902464 -4.9954767
13770000000 -31.035315 20.542522 -44.354626 46.757992 -44.4678 46.967628 -13.059953 -8.0932169
13780000000 -29.979794 29.35014 -43.711632 25.111582 -43.519051 26.239891 -13.365626 -11.610914
13790000000 -28.35343 28.784176 -42.887844 -0.52005666 -42.442505 -2.1199534 -13.634517 -15.370455
13800000000 -27.227936 22.200998 -42.188919 -27.760698 -41.956879 -30.538412 -13.839555 -19.753569
13810000000 -26.625233 13.642872 -42.323486 -54.370365 -42.163986 -57.359356 -14.021991 -23.433067
13820000000 -26.908688 4.4327812 -41.983971 -78.480156 -42.110027 -80.494499 -14.3371 -26.457653
13830000000 -27.471806 4.0960102 -41.935139 -103.66165 -41.891586 -103.28027 -14.783487 -28.2684
13840000000 -27.739382 -4.7168002 -41.585926 -125.78651 -41.305672 -126.71401 -15.343041 -29.888023
13850000000 -29.701878 -0.55588317 -41.260963 -148.06918 -41.105682 -150.71417 -15.995457 -31.920935
13860000000 -29.355814 2.7946677 -40.47546 -173.02489 -40.515423 -175.50581 -16.742229 -34.542068
13870000000 -29.463631 6.3256054 -40.185062 159.65691 -40.281734 158.12993 -17.529263 -36.147507
13880000000 -29.037708 5.4812999 -40.548096 133.11005 -40.419674 133.58858 -18.312349 -36.857147
13890000000 -27.882027 4.7673674 -40.684235 111.70898 -40.30624 110.06931 -19.225283 -36.49247
13900000000 -27.396509 -6.1840053 -40.352333 92.024994 -40.206577 87.152718 -20.235378 -34.754078
13910000000 -27.547129 -9.6173182 -39.693157 67.867653 -39.907681 64.561951 -21.249502 -32.873264
13920000000 -26.938494 -19.798197 -39.363174 41.085144 -39.630894 40.372044 -22.185673 -30.767284
13930000000 -27.972713 -31.471115 -39.418678 16.700342 -39.319466 15.775088 -22.813381 -27.264149
13940000000 -29.317892 -38.281902 -39.320755 -8.6993256 -39.298985 -9.601347 -23.026985 -22.787001
13950000000 -31.503662 -39.851048 -39.318211 -31.474106 -39.182613 -32.69175 -23.018906 -17.028725
13960000000 -32.327179 -35.335102 -39.187389 -55.18998 -39.125416 -57.688053 -22.965399 -8.9508362
13970000000 -32.201809 -25.039188 -39.159679 -79.443542 -39.231544 -81.194626 -22.636892 -0.6584993
13980000000 -30.224426 -31.473646 -39.355209 -103.44889 -39.37772 -103.966 -22.365482 5.3438702
13990000000 -28.809284 -38.534088 -38.804165 -125.19779 -38.576786 -126.55256 -22.206816 9.4207993
14000000000 -27.893564 -55.607571 -38.479855 -150.90076 -38.427032 -152.56882 -22.148203 11.652349
14010000000 -27.653923 -63.968758 -38.50148 -176.94057 -38.430405 -177.71542 -22.263596 11.924962
14020000000 -27.717335 -75.898346 -38.82489 158.42052 -38.750908 156.93265 -22.283701 12.444547
14030000000 -28.932125 -81.626015 -38.957355 135.9745 -38.633698 134.34232 -22.081869 12.46628
14040000000 -29.865498 -85.247536 -38.574104 111.71378 -38.573502 109.6281 -22.035402 11.625803
14050000000 -30.555649 -80.269821 -38.378918 87.070358 -38.321018 85.324005 -21.981592 12.035664
14060000000 -31.081865 -83.699547 -38.660004 60.589455 -38.630947 59.341873 -21.953854 12.203521
14070000000 -31.495699 -79.385178 -38.680336 33.246147 -38.503399 32.333191 -22.046062 11.51185
14080000000 -31.005909 -89.810028 -39.278057 9.1118355 -39.045631 6.5188189 -22.251335 11.615847
14090000000 -31.28405 -86.454163 -39.519726 -14.203838 -39.350147 -17.571293 -22.189758 12.433593
14100000000 -29.336239 -99.138832 -39.5312 -38.130024 -39.670425 -40.121994 -22.021193 12.39175
14110000000 -28.648821 -106.90177 -39.724323 -63.051712 -39.717884 -65.615105 -21.885479 13.243203
14120000000 -27.773012 -123.61205 -39.822578 -88.97908 -39.86591 -89.729073 -21.934521 14.516582
14130000000 -27.974113 -131.35904 -40.137035 -115.44688 -40.028027 -116.19923 -22.130255 15.956277
14140000000 -28.151371 -142.19975 -40.648228 -142.45111 -40.250938 -143.59729 -22.524532 16.625797
14150000000 -29.708855 -144.78679 -41.402191 -166.89406 -41.130745 -170.86383 -22.981745 16.01803
14160000000 -30.512436 -143.08069 -41.794388 167.73215 -41.982128 165.23227 -23.359921 15.021624
14170000000 -30.797144 -133.78557 -42.566418 141.9057 -42.640827 140.80748 -23.554554 14.123981
14180000000 -29.472755 -131.97459 -43.604195 118.39619 -43.54126 118.55405 -23.786316 15.142592
14190000000 -28.243731 -138.42163 -43.813622 97.357079 -43.23531 95.770897 -24.267746 19.564373
14200000000 -27.538958 -146.21518 -43.958046 69.70649 -43.666538 67.217384 -24.735449 26.273762
14210000000 -27.026716 -153.27359 -44.911011 38.722008 -44.739441 35.306183 -25.517153 34.082054
14220000000 -27.064964 -162.18275 -46.443665 11.48469 -46.381855 11.642539 -26.110167 43.243523
14230000000 -27.256464 -168.33321 -48.460857 -11.121756 -48.226696 -11.452819 -26.549768 52.80072
14240000000 -27.618952 -170.02498 -49.300034 -26.427963 -49.019882 -28.498446 -26.13475 63.192596
14250000000 -27.771357 -170.82469 -49.405788 -54.524769 -49.398262 -53.073769 -25.124352 70.459259
14260000000 -28.339785 -173.7682 -50.766026 -80.951767 -49.87936 -81.353004 -24.010086 75.874458
14270000000 -28.99544 -167.67241 -53.001957 -114.80073 -52.162655 -114.47367 -23.09214 80.460281
14280000000 -28.704235 -165.82454 -54.06456 -138.87604 -53.982796 -141.72316 -22.106539 84.163452
14290000000 -27.61047 -163.44997 -57.435894 -176.57393 -57.742519 -167.98465 -21.096184 85.106018
14300000000 -27.095333 -170.03754 -63.270264 161.19583 -60.937889 169.70477 -20.247046 83.485939
14310000000 -26.324471 -175.09201 -65.78949 118.46843 -67.572922 146.87604 -19.412958 81.570488
14320000000 -26.624613 173.73813 -70.018875 98.934364 -65.336922 140.2673 -18.582844 79.788597
14330000000 -26.729742 169.66708 -72.642059 -30.141506 -73.08181 95.060715 -17.669506 79.097565
14340000000 -28.440449 162.15829 -72.693352 -33.280895 -66.303574 12.6399 -16.822603 78.66214
14350000000 -29.294279 172.39233 -64.13707 -44.981613 -61.316704 -60.856987 -16.135262 77.467934
14360000000 -29.577023 -179.94684 -56.67252 -89.667976 -57.708225 -93.750061 -15.711046 76.313492
14370000000 -28.009283 -174.71916 -55.708984 -127.45332 -55.238651 -138.59204 -15.418059 74.931633
14380000000 -27.460222 -179.02916 -54.541603 -173.13908 -55.264053 177.74445 -15.107468 73.153229
14390000000 -26.648773 178.18866 -56.529591 150.99631 -57.062508 153.04535 -14.803735 70.550934
14400000000 -26.915897 170.55072 -57.958244 165.13882 -57.947899 163.08908 -14.446606 67.894516
14410000000 -27.296547 165.16559 -54.456539 144.66016 -54.592491 143.47015 -14.093303 65.202293
14420000000 -28.544771 162.94415 -51.449791 120.69341 -51.092529 119.98679 -13.741584 62.899227
14430000000 -28.423132 165.29062 -51.172462 78.17701 -50.753262 74.528992 -13.499515 60.742538
14440000000 -29.662798 168.40065 -52.377552 66.582047 -52.09642 61.369648 -13.31324 59.035709
14450000000 -28.397226 178.06798 -51.480888 42.917736 -51.71386 39.783466 -13.156503 57.310432
14460000000 -27.926722 179.51576 -50.87022 19.921343 -50.845909 18.990025 -12.994072 55.492912
14470000000 -26.864521 178.74915 -50.478291 2.7937915 -49.683475 4.5719395 -12.869201 53.259911
14480000000 -26.433121 -179.2464 -50.421703 -19.908331 -49.211147 -22.228317 -12.853795 51.797215
14490000000 -25.707035 173.11095 -48.903767 -36.71423 -48.255989 -40.107853 -12.871008 50.668079
14500000000 -26.732758 169.25476 -47.523773 -64.846268 -47.339245 -72.33947 -12.963578 49.672482
14510000000 -27.041689 167.59547 -48.194996 -94.4953 -48.675087 -99.291039 -13.03589 47.836254
14520000000 -28.456638 173.64868 -49.155987 -110.95901 -49.090801 -108.96715 -13.160146 45.981159
14530000000 -28.099621 176.96507 -48.128582 -127.78179 -47.509186 -126.71826 -13.121252 44.077232
14540000000 -27.608368 -169.74721 -46.915607 -146.55632 -46.395103 -148.14513 -13.033787 42.878468
14550000000 -25.234917 -175.65216 -45.7127 -175.98341 -45.319607 -177.68129 -12.918712 42.465363
14560000000 -24.697081 -177.51956 -46.03376 154.06955 -45.844604 153.9886 -12.883453 42.332462
14570000000 -23.734079 172.80176 -47.604057 133.42972 -46.650661 132.94185 -12.872619 42.466263
14580000000 -24.239401 170.1657 -47.463333 120.97832 -47.216148 116.67371 -12.99807 42.245895
14590000000 -24.50285 164.77173 -45.582298 106.96492 -45.741947 101.65027 -12.991863 42.24601
14600000000 -25.690882 171.23627 -43.993996 76.793747 -44.313873 77.479912 -12.955652 41.616478
14610000000 -25.282965 174.86165 -43.492905 45.229919 -43.492424 46.373199 -12.870065 41.085918
14620000000 -24.548796 -177.54536 -44.217957 12.61519 -44.053974 14.551331 -12.874871 40.525543
14630000000 -23.519611 179.55998 -45.617584 -6.3649955 -45.127487 -7.9545698 -12.898059 40.38829
14640000000 -22.642546 177.18036 -45.893742 -19.366568 -45.970619 -23.747938 -12.897503 39.872272
14650000000 -22.23914 171.48651 -44.758766 -42.161922 -45.073143 -40.785908 -12.758175 38.96183
14660000000 -21.79933 166.10208 -44.02533 -65.193481 -43.869064 -65.26992 -12.594077 36.868576
14670000000 -22.618858 160.61868 -43.671585 -92.973824 -43.544563 -93.352089 -12.477335 35.571827
14680000000 -22.491287 162.73386 -44.154392 -120.72318 -43.999023 -122.88061 -12.329369 34.926052
14690000000 -22.966309 161.65793 -44.557915 -145.2905 -44.647995 -145.58115 -12.195716 34.88306
14700000000 -22.475811 166.45335 -45.51442 -166.64613 -45.209328 -166.90361 -12.085839 34.166046
14710000000 -22.137419 166.50618 -45.827969 175.64195 -45.25732 176.14624 -12.13142 33.311459
14720000000 -21.491081 166.21619 -45.69165 154.49176 -44.790134 150.79454 -12.233497 32.404354
14730000000 -21.015394 163.50806 -45.250671 133.67804 -45.012367 129.51382 -12.342448 31.427189
14740000000 -20.377298 157.81439 -45.221458 105.17375 -44.944683 102.96012 -12.423735 29.649391
14750000000 -20.753548 152.62631 -46.080616 85.290077 -45.986874 83.245354 -12.592499 27.514538
14760000000 -20.628603 149.49821 -46.247051 66.133064 -45.546337 66.094162 -12.722381 25.822563
14770000000 -21.353977 145.70747 -45.467575 45.427746 -44.956459 42.064396 -12.783558 24.430588
14780000000 -21.301445 146.96384 -45.615524 15.726852 -45.12402 14.933805 -12.777746 23.492897
14790000000 -21.496439 148.61899 -46.560947 -6.2702265 -46.293068 -11.12319 -12.781114 22.854448
14800000000 -20.88323 150.42508 -47.178585 -28.043976 -46.900993 -28.126083 -12.957331 22.303782
14810000000 -20.435434 150.75601 -47.547871 -45.179913 -47.377495 -48.942814 -13.185814 22.451437
14820000000 -19.637068 147.39091 -47.728992 -64.967957 -48.450108 -67.397415 -13.351742 22.537909
14830000000 -19.619244 141.65782 -47.30077 -88.073235 -47.733524 -84.559692 -13.50785 22.010014
14840000000 -19.856472 136.53633 -47.335236 -112.0962 -47.776539 -108.4604 -13.719582 21.763577
14850000000 -20.646055 133.5985 -47.822617 -138.22391 -47.715363 -134.79172 -13.976627 22.236956
14860000000 -20.956707 132.57629 -49.175156 -161.48599 -49.734055 -158.58603 -14.236332 22.843121
14870000000 -21.628063 132.54454 -50.480904 176.45726 -50.729427 -177.93309 -14.47362 23.242826
14880000000 -21.430506 134.20294 -51.481781 171.0383 -51.571968 173.57162 -14.724464 22.109629
14890000000 -21.101105 134.84109 -50.44017 153.31912 -50.750645 155.90436 -14.851582 21.067078
14900000000 -20.398458 131.18341 -50.036411 127.62096 -50.40712 132.24878 -14.868754 20.443598
14910000000 -20.375488 128.60085 -51.490665 102.84905 -50.837383 107.86095 -14.760775 21.690844
14920000000 -20.106583 123.52871 -52.042118 88.827904 -51.547745 88.97345 -14.683027 23.806925
14930000000 -20.614031 121.84123 -53.364262 67.400848 -51.945366 61.644527 -14.694294 26.396452
14940000000 -20.795294 118.92373 -54.291641 68.317329 -56.128002 49.654118 -14.889138 28.053844
14950000000 -21.536345 119.92392 -51.869785 48.851009 -53.041855 50.624889 -15.207082 29.300549
14960000000 -21.727272 118.47638 -51.45089 28.632658 -51.496105 27.17494 -15.433585 30.152861
14970000000 -22.57564 121.98399 -51.779182 10.405875 -51.732887 5.5946412 -15.534167 30.841034
14980000000 -22.285305 122.10732 -50.075264 -8.6792469 -51.041397 -15.765644 -15.563895 32.455532
14990000000 -22.34643 123.65511 -50.475109 -39.171429 -51.775146 -40.760437 -15.506031 33.944439
15000000000 -21.881266 119.2171 -51.900723 -59.697651 -52.077484 -59.199451 -15.584186 34.984043
15010000000 -22.049126 116.44439 -52.16436 -68.241486 -52.763554 -77.149879 -15.613664 35.611221
15020000000 -22.248837 110.00848 -51.687855 -90.720818 -53.947979 -93.089081 -15.440265 35.271942
15030000000 -22.985104 109.61472 -52.004757 -97.889915 -53.342518 -84.458046 -15.074651 34.934975
15040000000 -23.552689 107.46072 -49.960419 -118.92366 -49.584732 -110.92159 -14.691856 35.664795
15050000000 -24.60228 113.64478 -48.955746 -142.53426 -48.388241 -141.07433 -14.296798 38.068771
15060000000 -24.413925 120.13276 -48.880516 -173.68289 -48.886868 -173.35587 -14.023339 40.259666
15070000000 -23.742271 123.96207 -50.444038 161.37939 -50.570904 162.51268 -13.975457 41.4188
15080000000 -23.338974 121.96085 -51.79924 146.17917 -51.164982 149.81512 -14.083649 41.962841
15090000000 -23.278561 119.18082 -51.726788 136.39462 -51.093655 131.2186 -14.066006 41.502502
15100000000 -23.785143 115.98538 -50.774914 125.7 -51.39629 127.47881 -13.974414 40.36935
15110000000 -24.585518 114.72202 -50.251354 105.52985 -49.639458 108.83156 -13.78508 38.97488
15120000000 -25.513109 118.46174 -49.129539 86.169968 -47.88488 86.521706 -13.618115 37.887661
15130000000 -25.258034 120.49787 -48.547539 65.79454 -47.628403 59.819363 -13.541213 37.100178
15140000000 -25.49325 124.52066 -47.219803 41.593578 -46.937004 31.719519 -13.410247 36.408535
15150000000 -24.75695 126.97079 -47.642006 12.986897 -48.185417 5.5707803 -13.173665 35.52042
15160000000 -24.420473 127.8427 -49.267609 -4.3961287 -50.34259 -13.046529 -12.984386 34.571899
15170000000 -23.936171 127.77322 -48.8209 -15.362568 -48.9977 -11.724909 -12.83732 34.19249
15180000000 -23.506697 126.04545 -47.277786 -31.33655 -47.496754 -34.514648 -12.830462 34.369461
15190000000 -23.403111 125.02649 -46.549164 -55.711334 -47.006672 -57.465591 -12.944907 34.702232
15200000000 -23.420235 124.13144 -46.005363 -78.01371 -46.394085 -78.113518 -13.10077 34.578331
15210000000 -23.683563 120.70178 -45.726475 -102.6004 -45.785843 -102.83591 -13.241742 33.507618
15220000000 -24.546379 125.08705 -45.42564 -121.78656 -45.640621 -122.12199 -13.439615 31.53223
15230000000 -24.129982 127.99295 -44.87587 -146.26941 -45.21505 -147.23938 -13.620025 30.128273
15240000000 -23.87904 130.62134 -45.433117 -171.42331 -46.077518 -169.86337 -13.687231 29.485241
15250000000 -23.240875 129.84015 -45.995354 171.39281 -45.851524 176.67168 -13.649186 29.005733
15260000000 -22.582281 127.36832 -45.400089 158.9342 -45.115379 159.91745 -13.551359 28.223095
15270000000 -22.404402 122.33876 -43.873791 137.33418 -43.553406 137.60701 -13.590826 27.909056
15280000000 -22.266727 118.35177 -43.27655 110.53049 -43.200562 111.28609 -13.62592 29.140247
15290000000 -22.772844 115.51537 -43.079926 86.08107 -42.825115 85.864075 -13.622499 30.889517
15300000000 -22.858484 114.06499 -43.304508 62.504681 -43.306583 58.320465 -13.684486 32.603168
15310000000 -23.466833 114.52828 -43.602505 42.543182 -43.720814 40.77594 -13.853724 33.252617
15320000000 -23.30608 116.89463 -43.374485 23.702274 -43.63261 23.691502 -14.097766 33.591324
15330000000 -23.255941 118.12397 -42.974483 2.9426205 -42.614971 2.0899997 -14.265389 33.448311
15340000000 -22.843136 115.56872 -42.341778 -17.044325 -42.005798 -20.500669 -14.36026 33.301361
15350000000 -22.990622 116.46819 -41.74781 -41.995434 -41.761654 -47.644131 -14.299401 33.652794
15360000000 -22.421429 112.34171 -41.533298 -65.155563 -41.796223 -70.245689 -14.241138 33.605831
15370000000 -22.64686 108.58194 -41.514874 -89.94751 -41.735367 -91.78804 -14.191567 33.653858
15380000000 -22.578194 101.69251 -41.850941 -112.10548 -41.657581 -114.79951 -14.127925 33.276173
15390000000 -23.704723 98.418892 -41.523129 -129.48865 -41.342396 -134.26692 -13.982591 33.166542
15400000000 -24.188396 95.658363 -40.929726 -152.2531 -41.043911 -158.23616 -13.750987 33.394535
15410000000 -25.137554 97.880562 -40.687317 -178.01732 -41.106258 179.01961 -13.487185 34.375202
15420000000 -25.416595 101.44498 -40.910595 158.85103 -41.214775 158.3002 -13.419806 35.319508
15430000000 -24.96047 105.11729 -41.071476 138.62836 -41.016663 137.61272 -13.561257 36.701969
15440000000 -24.585014 100.77676 -40.531956 120.65024 -40.421738 117.86932 -13.781957 37.654194
15450000000 -24.54855 98.711403 -40.078228 94.757896 -40.234032 92.770348 -13.947416 37.147625
15460000000 -24.52454 90.606163 -40.037983 70.446297 -40.105274 70.060524 -13.996777 35.17868
15470000000 -25.49852 85.469795 -40.090706 45.71637 -39.844456 46.419037 -13.995727 32.914143
15480000000 -26.612055 78.629341 -40.216255 25.742256 -39.94384 24.2108 -13.935143 31.860483
15490000000 -28.230259 80.808456 -40.309677 2.1559794 -40.26392 -0.0083899582 -13.931322 31.905897
15500000000 -29.089544 77.977119 -40.23222 -17.810507 -40.415188 -18.415926 -13.860223 33.1124
15510000000 -30.437428 85.920723 -40.339527 -40.147045 -40.35421 -38.804199 -13.750346 33.895798
15520000000 -30.700993 86.637627 -40.097675 -60.448692 -39.703281 -58.17432 -13.65678 34.140194
15530000000 -30.170216 95.78849 -39.670536 -83.826141 -39.144203 -83.88871 -13.673551 34.533199
15540000000 -29.988102 85.169418 -39.448284 -106.52562 -39.228157 -108.23668 -13.772854 35.506863
15550000000 -30.364273 84.183258 -39.282921 -131.5686 -39.173294 -132.55923 -13.886208 37.327564
15560000000 -31.489775 70.061478 -39.959137 -155.95726 -39.812534 -155.74933 -13.927293 38.721451
15570000000 -34.065418 64.29512 -39.873375 -174.91547 -39.743446 -176.25307 -13.995903 39.034752
15580000000 -38.340282 33.544041 -39.748398 162.84737 -39.73444 162.17738 -14.119931 38.434425
15590000000 -50.719379 77.957962 -39.467506 138.23502 -39.401367 139.25102 -14.299391 37.715908
15600000000 -52.749123 -122.74615 -39.82716 115.23099 -39.457867 113.70026 -14.333241 37.459187
15610000000 -39.599014 -174.14949 -39.813774 94.358803 -39.762848 91.985321 -14.152867 37.196465
15620000000 -40.82856 173.32259 -39.757969 72.099159 -39.846104 69.521561 -13.903983 36.733723
15630000000 -39.910225 165.57727 -39.834133 47.373226 -40.110165 47.225765 -13.672022 36.743656
15640000000 -48.417896 -179.53667 -39.990528 26.194876 -39.893173 25.496399 -13.512005 37.171906
15650000000 -42.655598 -130.45201 -40.083012 4.0884452 -40.132374 2.3076 -13.509009 38.660866
15660000000 -37.268131 -115.11261 -40.003593 -19.0846 -40.04044 -20.336802 -13.494452 40.408955
15670000000 -34.070148 -127.38057 -40.329651 -43.402695 -40.310665 -45.621235 -13.556249 41.099792
15680000000 -31.339796 -124.73472 -40.814777 -67.834312 -41.102715 -69.087318 -13.691755 40.907749
15690000000 -29.348646 -137.90712 -41.257114 -85.071594 -41.64415 -85.745567 -13.81076 40.349579
15700000000 -28.496517 -143.23297 -41.002865 -105.83681 -41.238914 -105.40576 -13.869115 39.921467
15710000000 -28.156523 -151.5204 -40.982346 -129.09528 -40.903305 -128.01717 -13.899892 39.754322
15720000000 -28.24765 -152.29144 -41.238255 -151.69662 -41.00602 -151.91814 -13.911053 40.542561
15730000000 -28.674093 -150.729 -41.30484 -174.93497 -41.041508 -176.51048 -13.836785 40.94725
15740000000 -28.399012 -144.09811 -42.230652 160.96893 -41.952045 159.77069 -13.731723 40.589661
15750000000 -27.798185 -140.82542 -42.557392 145.59898 -42.520199 142.17674 -13.594132 40.10284
15760000000 -26.176317 -137.00264 -42.315971 124.39847 -42.352043 123.47993 -13.37073 40.447594
15770000000 -24.964968 -141.96135 -42.796429 103.59976 -42.546421 102.21368 -13.117163 41.92704
15780000000 -24.318806 -146.30241 -42.617245 85.239471 -42.207165 83.71096 -12.888663 44.361649
15790000000 -23.773661 -152.28967 -42.655632 64.825531 -42.082836 59.439716 -12.75252 46.343243
15800000000 -23.933954 -156.03772 -42.359783 42.378696 -42.239109 37.1903 -12.813973 47.52343
15810000000 -24.0728 -157.76619 -42.543037 19.848682 -42.451561 15.393549 -12.922249 47.47694
15820000000 -24.300383 -153.23996 -42.457851 -2.3490028 -42.581253 -6.659677 -12.976179 46.435371
15830000000 -23.456448 -151.86005 -42.75127 -22.698082 -42.800236 -28.071209 -12.856746 44.977768
15840000000 -23.417309 -149.24028 -42.845852 -43.760162 -43.061249 -48.385937 -12.627016 43.463978
15850000000 -22.421125 -149.10013 -42.776844 -63.782192 -42.992359 -69.211647 -12.369703 42.600571
15860000000 -22.045155 -150.04857 -42.821342 -85.525604 -42.823483 -89.447838 -12.092296 41.995773
15870000000 -21.595728 -154.05327 -43.213375 -108.34222 -43.202213 -111.73226 -11.842586 41.453785
15880000000 -21.746719 -155.10991 -42.74675 -125.43633 -42.827484 -130.86571 -11.610912 41.01284
15890000000 -21.533913 -156.63383 -42.739357 -149.66316 -43.020569 -154.70006 -11.364072 40.909756
15900000000 -21.700329 -158.12364 -42.47517 -173.21167 -43.12862 -175.47665 -11.147717 40.742645
15910000000 -21.719374 -157.29823 -43.036991 163.30934 -42.985386 163.52422 -11.024822 40.571835
15920000000 -21.374035 -154.86755 -43.51181 142.23619 -42.989662 138.2966 -10.991646 40.275394
15930000000 -20.823505 -154.09723 -43.943928 123.93199 -43.778423 118.02079 -11.019278 39.51408
15940000000 -20.380331 -153.94975 -43.420898 104.63777 -43.765488 98.958954 -11.07713 38.144672
15950000000 -19.783974 -155.00752 -43.428658 79.983101 -44.153797 76.120232 -11.117439 36.2505
15960000000 -19.557745 -156.17447 -43.493366 60.6777 -43.580509 62.352505 -11.099459 33.849056
15970000000 -19.46419 -157.64876 -43.647129 37.545002 -42.904697 36.159237 -11.046142 31.384296
15980000000 -19.595472 -156.82234 -43.556759 15.108054 -43.141201 7.9885406 -10.910657 29.359324
15990000000 -19.3125 -154.42757 -43.692528 -8.4631948 -44.156811 -14.310159 -10.731109 27.836971
16000000000 -19.088522 -154.99716 -44.593094 -29.463442 -44.760784 -33.217503 -10.586095 26.991909
16010000000 -18.800562 -153.93526 -44.676876 -46.585056 -44.883686 -49.262238 -10.501825 26.660099
16020000000 -18.391281 -154.59821 -44.264904 -64.834854 -44.351192 -66.788551 -10.536974 26.144007
16030000000 -18.09436 -155.12773 -43.566818 -89.12294 -43.709702 -92.642853 -10.71163 25.119003
16040000000 -17.783236 -155.9922 -44.280575 -116.96452 -44.105003 -118.74657 -10.930804 23.777353
16050000000 -17.438744 -156.35138 -45.158997 -138.19064 -44.936699 -143.41252 -11.099496 22.03285
16060000000 -17.045889 -156.99471 -45.68383 -151.30208 -45.875858 -156.29288 -11.226148 19.710522
16070000000 -16.836468 -157.69579 -44.887733 -171.01401 -45.49971 -173.83083 -11.381537 17.582434
16080000000 -16.566547 -157.41986 -44.15448 162.77167 -44.630161 164.12445 -11.576532 15.83395
16090000000 -16.341932 -157.14459 -44.956596 135.57939 -44.762699 136.14337 -11.744165 14.003098
16100000000 -16.035265 -157.41867 -46.210236 115.43147 -45.809441 111.74164 -11.865992 12.14356
16110000000 -15.840694 -156.86861 -46.307976 100.75855 -46.520821 96.486832 -11.885161 10.519915
16120000000 -15.327673 -157.20389 -45.877815 79.247124 -46.790775 80.556763 -11.89758 9.6109514
16130000000 -14.931103 -158.99825 -46.604733 55.869392 -46.166115 63.273014 -11.91869 10.247269
16140000000 -14.818473 -160.68701 -46.82634 38.130634 -45.751709 39.497444 -12.078157 11.439883
16150000000 -14.562744 -161.32956 -46.634361 18.650803 -45.529137 14.608366 -12.420512 12.578148
16160000000 -14.318213 -162.24687 -46.561562 -5.6845675 -46.667572 -9.4334908 -12.845382 12.691813
16170000000 -13.976136 -162.46376 -47.24921 -24.625269 -47.178368 -24.086483 -13.298679 11.38407
16180000000 -13.630247 -162.93053 -48.041653 -45.684219 -47.298588 -43.146553 -13.641618 9.2558374
16190000000 -13.234068 -163.88788 -48.897846 -58.983479 -47.128029 -59.776955 -13.808453 7.2256794
16200000000 -13.035338 -165.28444 -47.455273 -70.014351 -46.527939 -79.916206 -13.904079 6.1545587
16210000000 -12.858913 -165.91798 -46.932144 -95.234573 -46.917152 -101.52928 -13.937734 5.3929586
16220000000 -12.725112 -166.08057 -46.572521 -118.96127 -46.213493 -121.60264 -14.005861 4.6802354
16230000000 -12.368708 -166.80495 -46.821461 -140.00182 -46.172955 -145.35562 -14.065106 4.0622458
16240000000 -12.217045 -167.509 -46.728157 -162.78294 -46.206749 -167.76373 -14.090128 4.3654723
16250000000 -11.839046 -168.71671 -46.719864 176.86139 -46.601543 168.85248 -14.065414 5.6592908
16260000000 -11.627322 -171.07654 -47.2024 158.14975 -47.609379 152.32915 -14.108622 7.5521746
16270000000 -11.430268 -172.74733 -46.674469 141.63882 -46.683971 139.49194 -14.292039 9.3259153
16280000000 -11.331819 -174.45363 -46.123192 119.43826 -46.043617 115.12139 -14.668132 9.9088421
16290000000 -11.100217 -174.8389 -45.861832 94.806885 -46.031727 92.207726 -15.147866 9.0046673
16300000000 -10.893809 -175.85602 -45.839355 68.940758 -45.893105 65.860916 -15.50947 6.8028688
16310000000 -10.607644 -176.02258 -46.789997 47.87661 -46.827892 46.461189 -15.678596 4.0829563
16320000000 -10.352362 -177.27545 -46.094692 27.213264 -46.129951 26.537209 -15.676033 2.0248113
16330000000 -10.11339 -178.0329 -46.803684 4.2179375 -46.703167 2.907052 -15.632587 0.26217642
16340000000 -9.9548922 -179.5652 -46.725094 -17.975477 -46.465759 -16.522535 -15.648418 -1.2042512
16350000000 -9.7974052 179.61464 -47.503071 -39.817738 -46.875454 -40.430664 -15.738296 -1.7449371
16360000000 -9.6084986 177.90134 -47.599884 -54.801655 -47.111076 -57.787281 -15.743624 -1.5628278
16370000000 -9.5392504 176.46349 -47.281128 -76.798706 -46.92543 -79.819626 -15.799767 -1.2229447
16380000000 -9.401597 174.91229 -47.005459 -94.745018 -47.031048 -96.983963 -16.097387 -0.35547543
16390000000 -9.3156691 173.83641 -47.353706 -120.10938 -46.492989 -121.59435 -16.660025 0.30272642
16400000000 -9.1421537 172.90291 -47.429722 -138.03822 -46.381046 -142.51123 -17.397652 -0.083850749
16410000000 -8.9596519 172.28806 -47.074593 -158.60143 -46.937664 -167.97615 -18.123329 -2.056607
16420000000 -8.6736488 171.64342 -47.047749 -179.17271 -47.181644 174.7319 -18.615553 -5.1546998
16430000000 -8.3817139 170.34802 -47.65202 155.49976 -47.196396 152.41164 -18.984724 -8.1615772
16440000000 -8.2085943 168.73615 -47.297348 138.5843 -46.918713 134.40498 -19.296936 -9.5094995
16450000000 -8.1203232 167.32892 -47.668175 119.9833 -47.525665 109.61103 -19.730312 -9.5958805
16460000000 -8.0712757 166.25267 -46.643669 99.250542 -47.390694 92.416168 -20.245378 -8.5397358
16470000000 -8.0547218 165.54968 -46.266556 74.900002 -47.06197 70.347069 -20.535046 -7.0928698
16480000000 -7.9342766 165.175 -46.334572 48.871975 -46.729733 50.225761 -20.654894 -4.9060755
16490000000 -7.7775073 164.06386 -46.740845 26.879318 -46.457348 25.802214 -20.725304 -0.65427268
16500000000 -7.6180167 163.4185 -46.851574 8.9804592 -46.673183 2.4847882 -20.914663 5.5269408
16510000000 -7.3699088 161.85226 -46.59042 -16.199451 -46.914795 -18.019642 -21.48452 12.570897
16520000000 -7.2312698 160.57262 -47.237495 -35.538723 -47.440144 -39.117416 -22.312672 18.965755
16530000000 -7.0510211 159.03893 -46.893642 -58.141624 -47.086906 -57.204262 -23.27825 21.908039
16540000000 -6.9564199 158.13489 -47.106434 -80.790146 -46.830688 -82.56958 -23.912905 20.336311
16550000000 -6.8159451 157.13507 -46.691681 -100.93512 -46.679321 -104.53207 -23.898729 16.861797
16560000000 -6.7311153 156.50644 -46.733524 -125.95966 -46.64167 -128.5329 -23.458399 14.76098
16570000000 -6.6056809 155.71402 -46.899979 -150.28261 -47.128704 -154.83575 -23.132545 15.499947
16580000000 -6.4942975 155.2444 -47.152935 -172.42761 -46.987499 -173.35864 -23.113607 18.441055
16590000000 -6.3224835 154.40053 -47.461796 162.47316 -47.680241 157.94743 -23.079943 22.374317
16600000000 -6.1593924 153.37654 -47.878902 142.48611 -47.956413 139.77672 -22.886549 23.345602
16610000000 -5.9716511 151.99342 -47.793228 119.63283 -47.935165 117.45598 -22.796066 24.788498
16620000000 -5.8512297 150.42087 -48.465115 98.54525 -48.376286 95.154984 -22.66293 29.156965
16630000000 -5.7071433 149.08517 -48.653812 78.637093 -48.64407 75.837486 -22.558649 36.448479
16640000000 -5.6034112 147.85359 -48.763439 53.914368 -48.804169 50.192406 -22.723085 43.663124
16650000000 -5.4626231 147.08708 -48.715611 31.072533 -49.123692 28.41666 -23.299274 50.42662
16660000000 -5.3062835 146.36092 -49.749836 6.5735016 -49.969654 3.8227477 -24.061895 53.455173
16670000000 -5.1087561 145.62238 -49.832851 -11.314814 -50.307064 -15.210671 -24.712658 52.338924
16680000000 -4.9335403 144.5916 -50.015354 -38.254143 -50.413872 -39.28651 -24.742783 48.79385
16690000000 -4.7541122 143.55606 -51.093845 -62.247387 -51.315998 -64.084084 -24.095932 46.858139
16700000000 -4.6145253 142.19234 -52.164619 -81.199287 -52.458103 -84.331299 -23.062567 47.917988
16710000000 -4.4835901 140.98221 -53.399178 -97.919861 -53.604713 -95.861732 -22.122759 50.669037
16720000000 -4.3759651 139.62614 -53.455658 -115.2009 -53.475201 -115.73377 -21.412994 53.443523
16730000000 -4.2286029 138.4332 -53.192974 -134.99579 -53.0177 -136.90399 -20.999073 55.73344
16740000000 -4.0892806 137.04388 -53.47084 -155.77362 -53.648388 -159.75369 -20.642542 57.80661
16750000000 -3.9538255 135.79192 -53.941395 -175.41411 -54.020287 -172.90976 -20.328476 59.531532
16760000000 -3.7995403 134.62907 -53.954987 159.66112 -53.76157 158.73462 -20.032671 60.64909
16770000000 -3.6243591 133.3658 -55.97509 140.81892 -55.613003 136.72142 -20.071447 60.346886
16780000000 -3.4871302 132.03906 -56.194714 127.63599 -56.522957 123.82946 -20.288227 59.883255
16790000000 -3.344007 130.84973 -56.535213 115.9474 -57.024361 112.86732 -20.494518 57.643944
16800000000 -3.2012239 129.47887 -56.92194 102.21622 -57.044006 101.00388 -20.589762 53.275558
16810000000 -3.0819478 127.98318 -55.163208 86.274727 -55.090591 83.076736 -20.547113 47.889931
16820000000 -2.9940698 126.52017 -53.563667 58.748917 -54.261169 57.286156 -20.303633 43.248482
16830000000 -2.8669589 125.03969 -54.401352 24.501446 -55.032631 30.067324 -19.900431 39.886318
16840000000 -2.7670419 123.5024 -55.429543 3.2150981 -55.780602 1.5617447 -19.484755 38.461826
16850000000 -2.6361825 122.06116 -58.104492 -6.2538385 -58.738174 -2.0295129 -19.190783 38.008953
16860000000 -2.5100379 120.58763 -56.395683 -11.708831 -56.540524 -6.4764743 -19.202078 39.29689
16870000000 -2.3671 119.03973 -54.887238 -32.505451 -54.747959 -29.429554 -19.427219 40.868172
16880000000 -2.2667553 117.61034 -53.842987 -63.221748 -53.678658 -59.715347 -20.10763 42.6245
16890000000 -2.1345809 116.24096 -54.39082 -86.264183 -54.525845 -89.674797 -20.89514 42.958164
16900000000 -2.0364816 114.88155 -55.529903 -113.91892 -55.724735 -112.10204 -21.92396 40.407661
16910000000 -1.9311626 113.39056 -56.164364 -129.37154 -56.651264 -126.44376 -22.935577 36.148567
16920000000 -1.8702765 112.01199 -55.40242 -149.08307 -54.868656 -146.62173 -23.694366 31.848408
16930000000 -1.769315 110.50808 -56.983673 -174.03946 -56.176903 -173.21713 -24.036119 28.84478
16940000000 -1.7028408 108.93559 -56.245117 169.83519 -56.154667 170.1985 -24.349754 27.245087
16950000000 -1.6103156 107.29743 -56.380352 153.59959 -56.290829 151.65973 -24.813652 28.512047
16960000000 -1.5283476 105.67858 -56.494797 127.82677 -56.061745 132.41914 -25.330275 34.532337
16970000000 -1.4251615 104.01072 -56.660229 107.34227 -56.24955 106.66228 -25.461582 42.971924
16980000000 -1.3470968 102.39294 -57.117973 88.233673 -56.634785 89.469345 -25.469254 52.811226
16990000000 -1.2479118 100.81564 -56.862503 66.642105 -55.851547 64.886398 -25.31485 63.788715
17000000000 -1.1729168 99.289261 -57.854847 38.906197 -57.508766 39.751717 -25.083063 74.59922
