!Keysight Technologies,P9374A,MY57211807,A.19.30.04
!Date: Friday, May 08, 2026 14:32:47
!Correction: S11(C  2-Port  ) 
!S21(C  2-Port  ) 
!S12(C  2-Port  ) 
!S22(C  2-Port  ) 
!S2P File: Measurements: S11, S21, S12, S22:
# Hz S  dB   R 50
13000000000 -18.82181 59.91214 -44.802914 125.25906 -45.437023 118.81957 -8.7136002 22.966721
13010000000 -18.798191 58.939827 -43.191528 107.31674 -43.919979 101.80895 -8.7563963 19.063908
13020000000 -19.213602 58.695648 -42.558765 86.115234 -43.341618 81.356743 -8.9001465 15.290967
13030000000 -19.502623 60.35154 -41.745056 59.191498 -42.496914 57.035484 -9.0798321 11.862528
13040000000 -20.042698 61.218002 -42.373158 34.405209 -43.081924 32.424015 -9.2405033 8.7754517
13050000000 -20.005123 65.515358 -42.967361 17.711542 -44.179173 17.913809 -9.4594231 5.5478401
13060000000 -19.781946 66.37851 -42.393013 2.1402969 -42.890244 5.6389689 -9.8061819 2.3698323
13070000000 -19.495392 64.261581 -41.5784 -15.660162 -41.862988 -13.469103 -10.229783 -0.58882445
13080000000 -19.4118 62.674644 -40.40197 -40.226574 -40.570351 -38.184235 -10.709034 -3.6581867
13090000000 -19.452848 59.131729 -40.130531 -66.836739 -40.407562 -65.211433 -11.150937 -6.6736312
13100000000 -19.830029 59.047943 -40.38652 -89.399139 -40.405582 -86.852707 -11.54579 -9.2584782
13110000000 -19.839912 60.06329 -40.611965 -109.15312 -40.467216 -107.19385 -11.925898 -11.612944
13120000000 -19.961107 62.358883 -40.121506 -129.53914 -39.93903 -127.57157 -12.418552 -13.745065
13130000000 -19.495827 63.023251 -39.649876 -150.80518 -39.441761 -150.16095 -13.012848 -15.501965
13140000000 -19.27799 63.560547 -39.405487 -176.58156 -39.147068 -175.27751 -13.701846 -17.324909
13150000000 -19.057365 60.698048 -39.642994 160.32892 -39.343307 161.14355 -14.356651 -18.701025
13160000000 -19.594271 60.459366 -39.925793 144.19003 -39.496414 143.56352 -14.924315 -19.463217
13170000000 -19.518183 60.677338 -39.152313 123.51381 -38.771236 122.7829 -15.450933 -19.38504
13180000000 -19.58814 60.395046 -38.445881 101.52345 -38.184135 100.02101 -16.086298 -19.311367
13190000000 -19.295218 59.854546 -37.955631 75.957718 -37.862347 74.584282 -17.043289 -18.7167
13200000000 -19.109518 57.445171 -37.623299 50.539478 -37.406689 49.52655 -18.185446 -17.599154
13210000000 -18.953901 54.434052 -38.22076 26.117062 -37.885414 24.389587 -19.272547 -16.450966
13220000000 -19.297007 51.291763 -38.208424 5.0910506 -37.981461 3.221159 -19.987993 -14.972996
13230000000 -19.514797 50.571411 -38.315632 -14.652315 -38.049782 -17.223045 -20.491323 -12.56582
13240000000 -19.939783 53.102688 -37.73455 -35.292065 -37.754696 -38.419605 -20.903013 -8.3217258
13250000000 -19.575056 54.722237 -37.360199 -59.011024 -37.352032 -61.100941 -21.570885 -0.067856103
13260000000 -19.280191 55.964298 -36.906235 -83.722351 -36.829861 -84.541313 -22.203066 11.24299
13270000000 -18.794624 52.300987 -37.096386 -109.38579 -36.858849 -111.5407 -22.56801 22.860641
13280000000 -18.858435 49.069958 -37.13578 -132.1613 -37.079628 -134.62524 -22.628513 31.843409
13290000000 -19.078829 44.091892 -37.155205 -155.453 -37.156479 -158.21005 -22.476902 37.199986
13300000000 -19.65061 41.993656 -37.223557 -177.2392 -37.164539 -179.68907 -22.027828 41.673466
13310000000 -20.19545 40.712891 -37.026768 159.58444 -36.993942 157.08418 -21.01099 46.296837
13320000000 -20.201056 42.250492 -36.906227 135.96597 -36.910107 132.39369 -19.855875 50.646763
13330000000 -20.303568 41.850101 -36.9846 111.81167 -37.115952 108.90309 -18.904638 53.72686
13340000000 -19.82222 42.836678 -36.931778 88.535622 -37.076847 86.107964 -18.213808 56.294254
13350000000 -19.841656 38.714508 -36.940388 63.692486 -37.176357 61.167309 -17.724543 56.950321
13360000000 -19.868567 38.809231 -36.975365 40.438725 -37.140564 38.383781 -17.251669 55.925686
13370000000 -19.96084 36.060047 -37.177223 16.235554 -37.292538 13.95786 -16.552883 53.540161
13380000000 -19.861544 35.104382 -37.274597 -7.4916897 -37.594715 -9.9821262 -15.675735 51.052624
13390000000 -20.383699 31.457291 -37.581707 -32.730766 -37.979248 -33.879303 -14.807194 49.025913
13400000000 -20.366064 30.479895 -37.778843 -56.169605 -38.123997 -56.044506 -14.136999 48.085022
13410000000 -21.085188 25.034716 -38.057873 -78.683624 -38.241314 -78.960365 -13.647192 47.7486
13420000000 -21.596102 25.74094 -38.125954 -104.20745 -38.426556 -104.53522 -13.368812 46.565838
13430000000 -22.416775 23.666197 -38.528381 -129.91794 -38.699299 -129.93787 -13.128026 44.439476
13440000000 -22.513777 29.9527 -39.150051 -154.33337 -39.335232 -154.18971 -12.956222 41.102608
13450000000 -21.819275 31.406324 -39.858135 -178.2422 -40.116886 -178.00951 -12.703662 37.455418
13460000000 -20.992527 27.956095 -40.49865 159.76915 -40.590485 162.04224 -12.433623 34.109699
13470000000 -21.13246 20.96579 -41.030521 135.08043 -41.10408 135.3634 -12.202403 31.334373
13480000000 -21.259319 16.865505 -41.980576 114.25476 -42.091652 115.36683 -12.059095 29.040049
13490000000 -22.391235 8.3056889 -42.418716 91.183594 -42.49432 93.663216 -11.981486 26.735477
13500000000 -23.832903 9.6337433 -43.358147 66.869118 -43.056667 69.580688 -12.038442 24.231857
13510000000 -25.23735 16.449589 -44.832951 43.548016 -44.481354 43.851753 -12.15676 21.814165
13520000000 -24.958202 24.029987 -46.85968 28.379667 -46.748814 28.081961 -12.309243 19.686895
13530000000 -24.284983 23.940212 -47.649464 14.580308 -47.745354 16.032887 -12.465895 18.098267
13540000000 -23.476198 21.030107 -49.201862 3.0657361 -48.775043 7.465765 -12.638649 16.308037
13550000000 -23.448172 14.0686 -47.979156 -0.8131758 -47.578388 -2.2483335 -12.926133 14.907247
13560000000 -23.517578 7.2623796 -47.489212 -25.49156 -47.185085 -24.370852 -13.240191 13.719292
13570000000 -25.138968 3.9944432 -48.05307 -48.044968 -47.22089 -45.645393 -13.525222 12.609453
13580000000 -25.552002 5.2683024 -49.949486 -52.271614 -48.841301 -55.278709 -13.716947 11.794231
13590000000 -27.205225 7.950675 -48.812099 -62.72591 -48.028614 -68.921959 -13.878177 11.270182
13600000000 -26.943224 16.691168 -47.482933 -71.500397 -47.235588 -78.865562 -13.976535 11.825876
13610000000 -27.054274 20.516422 -45.368088 -88.151398 -45.425781 -94.387512 -14.007836 13.022401
13620000000 -26.800844 19.288244 -43.740738 -112.80943 -43.806843 -116.32024 -14.073146 14.255331
13630000000 -27.061382 21.808054 -42.887154 -138.77187 -42.872284 -143.1064 -14.170262 15.477774
13640000000 -26.589922 17.711983 -42.421707 -162.57632 -42.553585 -168.15184 -14.210242 16.580755
13650000000 -26.918922 13.848011 -42.070877 172.13174 -42.29348 167.27455 -14.157763 16.705544
13660000000 -27.042358 8.4453936 -42.048382 148.9823 -42.552021 145.98743 -14.043995 16.541609
13670000000 -28.317114 5.7406144 -41.921471 128.9375 -42.391014 126.54948 -13.81809 15.866551
13680000000 -29.049376 6.0104032 -41.465363 108.99683 -41.834286 107.39306 -13.571332 15.439445
13690000000 -30.535547 18.122152 -40.398495 88.448029 -40.862732 86.867012 -13.271244 14.727934
13700000000 -29.467096 28.690289 -39.388409 62.00695 -39.921295 61.140659 -13.067338 13.857795
13710000000 -27.964767 34.080441 -39.074631 32.27515 -39.428619 33.320854 -12.855361 12.514058
13720000000 -26.605782 31.224514 -39.232941 6.5298057 -39.445332 7.1676092 -12.740875 10.389668
13730000000 -26.219339 23.418541 -39.38195 -19.248581 -39.692375 -19.27216 -12.617676 8.1647768
13740000000 -26.693747 13.627329 -39.673927 -42.680443 -39.942261 -42.221634 -12.545699 5.7649541
13750000000 -28.439392 6.3586297 -39.765995 -64.900146 -40.002022 -63.656578 -12.447827 3.5206423
13760000000 -30.303787 7.9229856 -39.402485 -87.497559 -39.598526 -86.012421 -12.530972 1.023369
13770000000 -32.04174 17.229691 -39.372475 -114.3965 -39.242764 -112.64362 -12.713726 -1.1426655
13780000000 -30.876549 31.015646 -39.490128 -140.65363 -39.265926 -139.30064 -12.975776 -4.223968
13790000000 -28.649189 33.681057 -39.818237 -165.57021 -39.693821 -165.4169 -13.311064 -7.4850655
13800000000 -27.00634 26.070904 -40.281246 169.94942 -40.332283 169.76326 -13.588717 -11.189016
13810000000 -26.123978 15.383668 -40.793217 145.99048 -40.60672 148.47099 -13.85443 -13.944838
13820000000 -26.4508 3.8776765 -41.444313 122.85229 -41.028355 123.93874 -14.139246 -16.294147
13830000000 -27.285732 2.1329219 -41.931389 101.28727 -41.46645 100.88701 -14.56673 -17.45009
13840000000 -27.562847 -5.5433788 -42.43364 78.177963 -41.966751 76.371841 -15.058002 -18.261864
13850000000 -29.68515 -2.1679912 -43.214123 57.225727 -42.925934 55.279522 -15.707861 -19.177561
13860000000 -29.852991 1.0434265 -43.481834 38.565903 -43.115086 38.423431 -16.433754 -20.02561
13870000000 -29.883251 8.1301861 -43.792793 15.852651 -43.122608 13.782202 -17.088629 -20.024197
13880000000 -29.160082 8.0226669 -43.60722 -4.0029554 -43.405342 -8.8321514 -17.681824 -19.249834
13890000000 -27.653553 3.6673284 -44.492565 -29.644756 -44.479984 -32.859722 -18.316433 -17.649672
13900000000 -27.597116 -5.2519732 -45.247917 -51.275982 -45.111736 -54.864101 -18.966417 -14.368772
13910000000 -27.277689 -8.8784866 -46.641445 -65.469131 -46.56525 -70.601501 -19.584435 -11.249152
13920000000 -26.806622 -20.247602 -46.336311 -81.582138 -46.35284 -85.40657 -20.056931 -7.9837008
13930000000 -27.71047 -29.657963 -46.480789 -95.177238 -46.975746 -100.69948 -20.309072 -5.2177896
13940000000 -28.993336 -39.582989 -45.438389 -113.27618 -46.140072 -114.48483 -20.235565 -2.0727925
13950000000 -31.120598 -41.993748 -44.603214 -136.84866 -45.229969 -137.17981 -19.938351 0.68782121
13960000000 -32.427254 -41.798981 -44.641445 -161.83514 -44.739223 -160.87177 -19.694149 4.7829866
13970000000 -33.260098 -29.814466 -45.351173 175.03296 -45.541904 173.02612 -19.34577 8.8504162
13980000000 -31.462059 -27.751083 -45.40873 158.06201 -45.827869 156.57834 -19.089457 12.920813
13990000000 -29.337343 -33.734669 -45.160336 139.77808 -45.546135 140.30676 -18.872227 14.720296
14000000000 -27.873411 -47.722263 -44.630836 117.74103 -44.814514 120.30842 -18.915026 15.467251
14010000000 -26.714951 -59.23003 -44.447529 93.541763 -44.444996 94.665321 -19.005552 15.470805
14020000000 -26.625635 -74.389061 -44.431175 71.13726 -44.30574 73.636772 -19.068586 15.448869
14030000000 -27.624668 -86.520241 -44.450829 48.740055 -44.202343 49.760731 -18.993708 15.48814
14040000000 -29.509417 -94.896248 -44.379128 26.145311 -43.968372 29.767368 -18.965736 14.899961
14050000000 -31.452435 -90.838997 -44.718552 6.1987867 -43.859749 5.8558292 -18.947441 14.495034
14060000000 -33.839096 -86.395187 -44.234867 -15.909548 -43.512566 -17.794147 -19.064335 14.125754
14070000000 -32.743164 -66.333282 -44.141605 -42.492809 -43.775936 -44.692001 -19.223549 13.574568
14080000000 -30.996082 -74.606728 -44.721603 -67.906937 -44.348747 -70.055099 -19.462921 13.417174
14090000000 -29.391272 -79.977776 -46.258659 -81.920212 -45.418522 -87.904175 -19.411947 14.56506
14100000000 -28.108753 -100.80765 -45.162235 -97.427757 -44.761776 -103.06461 -19.305546 14.235597
14110000000 -27.6863 -110.87695 -44.661537 -121.1572 -44.537254 -127.99522 -19.186348 14.880643
14120000000 -27.322353 -129.00249 -44.646343 -143.50676 -44.638882 -148.47481 -19.305468 14.889524
14130000000 -27.910748 -137.64528 -44.605778 -163.77821 -44.580906 -172.43773 -19.589304 17.011766
14140000000 -29.032373 -146.05092 -44.469204 174.23042 -44.985016 168.18355 -19.909941 18.347536
14150000000 -30.62114 -143.13126 -43.667225 153.03641 -44.568115 148.60638 -20.115086 19.311302
14160000000 -30.880295 -138.50981 -43.341606 127.57629 -43.919846 125.7931 -20.31642 17.851608
14170000000 -30.439253 -130.9523 -42.818794 103.05629 -43.669804 99.833672 -20.602154 17.0299
14180000000 -29.771999 -131.83752 -43.480465 79.152634 -44.560738 76.464912 -20.815901 18.950716
14190000000 -28.098911 -134.37613 -42.674919 55.537624 -43.718998 58.593838 -20.993193 22.471117
14200000000 -27.109442 -144.98959 -42.986637 31.636265 -43.451195 31.871019 -21.140718 27.037893
14210000000 -26.655016 -153.52724 -42.487133 7.0489907 -43.244831 7.6115355 -21.452742 31.734043
14220000000 -26.585264 -163.79141 -42.672497 -18.516966 -43.439381 -15.416306 -21.854376 36.397541
14230000000 -26.81867 -171.1674 -42.34729 -42.744942 -43.027 -39.106926 -22.162642 41.680565
14240000000 -27.757269 -174.93167 -42.493832 -70.155647 -42.828144 -65.401604 -22.107698 47.591469
14250000000 -28.369217 -175.12781 -42.83168 -94.740669 -43.257477 -90.313744 -21.615686 53.085213
14260000000 -29.634731 -171.18588 -42.80381 -121.61668 -43.186424 -115.83015 -20.972094 57.336582
14270000000 -29.122343 -159.36438 -43.356956 -144.82062 -43.269394 -136.75026 -20.566084 60.808144
14280000000 -28.175215 -162.13498 -43.299458 -170.78552 -42.808933 -166.35648 -20.053703 64.579201
14290000000 -27.015055 -163.28773 -43.697182 166.19327 -43.315117 171.98074 -19.489042 66.317825
14300000000 -26.644239 -171.86212 -43.654526 139.70795 -43.127388 145.89478 -18.829433 66.427864
14310000000 -26.089893 -178.35844 -44.162151 112.18198 -43.20731 117.21632 -18.123222 65.495758
14320000000 -26.764812 169.57738 -44.627693 88.612541 -43.714214 92.993973 -17.39436 65.331772
14330000000 -27.219118 167.04822 -45.632027 64.568039 -44.237118 68.61396 -16.610607 65.413437
14340000000 -28.832285 162.95349 -45.012817 42.917137 -43.788898 44.572186 -15.93767 65.849586
14350000000 -29.541918 173.76155 -45.180786 13.781558 -43.956692 15.715789 -15.412266 65.711983
14360000000 -29.990755 -177.42424 -45.973507 -12.733529 -44.528088 -11.904852 -15.05597 65.428322
14370000000 -27.726748 -171.0609 -46.983421 -41.808659 -45.230865 -40.663181 -14.796182 64.760475
14380000000 -27.214767 -176.87964 -47.955986 -56.71191 -46.024281 -60.064724 -14.514471 63.482471
14390000000 -26.226141 178.32664 -47.836491 -77.938118 -46.070061 -83.630974 -14.195473 61.595028
14400000000 -26.604364 168.72537 -46.996231 -99.846558 -45.811161 -108.41227 -13.874581 59.345406
14410000000 -26.967852 161.96896 -46.971882 -130.57884 -45.681576 -138.7309 -13.556057 57.034939
14420000000 -29.065435 157.74442 -47.816628 -160.0948 -46.358963 -167.28288 -13.251413 55.434917
14430000000 -29.151325 164.7341 -49.195671 171.20665 -47.264164 162.08968 -12.96187 53.871326
14440000000 -30.179844 172.18417 -50.422062 157.41353 -48.84507 139.44203 -12.75775 52.221443
14450000000 -28.267395 -176.99257 -50.669884 135.06348 -49.50412 114.41885 -12.630261 50.971966
14460000000 -27.392626 -178.92525 -50.757275 113.08664 -50.637413 91.902206 -12.452641 49.664242
14470000000 -26.285049 178.58434 -50.362885 90.583466 -50.710129 74.475563 -12.316121 47.981174
14480000000 -26.204226 177.16982 -50.931767 58.028938 -50.676666 43.353344 -12.258404 46.615246
14490000000 -25.99913 169.98354 -52.55666 44.60498 -52.233791 17.142187 -12.318444 45.589142
14500000000 -27.106989 171.27092 -52.250256 23.307949 -54.003704 -7.4384236 -12.418049 44.8512
14510000000 -27.072779 167.62714 -50.7173 8.6409369 -53.300972 -3.3053014 -12.44428 43.435242
14520000000 -28.669724 176.78371 -50.587269 -20.484133 -53.249348 -35.278793 -12.518007 41.498882
14530000000 -27.749514 177.541 -50.107437 -48.023323 -52.4557 -58.369343 -12.492032 39.764576
14540000000 -27.39842 -172.56987 -50.197979 -75.17469 -53.280365 -84.437706 -12.399242 38.815372
14550000000 -25.655062 -176.78612 -51.270477 -96.687096 -54.677456 -99.954086 -12.249156 38.392033
14560000000 -24.838995 -176.70663 -50.159756 -111.27538 -54.074768 -115.21181 -12.225013 38.427052
14570000000 -23.88908 174.6412 -49.771675 -135.2088 -53.602558 -122.57857 -12.203732 38.87178
14580000000 -23.95863 172.66896 -48.609131 -167.44371 -50.50206 -156.09848 -12.239777 38.712711
14590000000 -24.053122 164.58508 -48.876133 173.23602 -50.446335 -178.68132 -12.241921 38.433132
14600000000 -25.307209 168.77513 -47.681778 140.87024 -49.845718 145.3316 -12.24967 37.508522
14610000000 -25.445581 169.80093 -48.910648 110.56144 -51.098919 120.8634 -12.232878 37.361919
14620000000 -25.355507 -177.80074 -49.542896 92.749664 -51.110783 110.6509 -12.234067 37.34137
14630000000 -24.086084 -177.93378 -49.066418 71.559326 -49.874863 88.943954 -12.168963 37.216301
14640000000 -22.685139 -178.23949 -48.363949 52.299213 -48.029076 67.915764 -12.103013 36.145782
14650000000 -21.903114 173.44165 -48.048508 24.718491 -47.796032 37.175434 -12.049561 34.793915
14660000000 -21.345385 167.48312 -46.97958 3.8555877 -46.803318 12.878564 -11.940953 33.378784
14670000000 -22.121798 158.93311 -46.581207 -27.679304 -46.686985 -16.072975 -11.774381 32.599705
14680000000 -22.166607 159.34134 -46.392105 -53.103111 -45.936409 -39.918411 -11.582951 32.100113
14690000000 -23.322317 157.18065 -47.334324 -81.030228 -46.424606 -68.14032 -11.462049 31.778908
14700000000 -23.055632 166.80862 -47.534801 -95.414131 -45.721329 -87.428917 -11.398992 31.468752
14710000000 -22.596476 168.53442 -45.942139 -120.4537 -44.408039 -114.77123 -11.417349 30.825392
14720000000 -21.453276 169.23248 -45.897587 -144.88335 -44.090904 -141.2099 -11.479836 29.938242
14730000000 -20.88142 165.3131 -44.779137 -176.78842 -43.315937 -173.13966 -11.572972 28.603874
14740000000 -20.126482 158.79794 -45.820461 153.31557 -43.997463 157.10677 -11.715446 26.864639
14750000000 -20.476719 152.42017 -46.132557 134.96738 -44.340889 135.0163 -11.869904 25.336374
14760000000 -20.374332 148.64136 -46.548271 112.2394 -44.436092 111.20397 -11.927084 24.03495
14770000000 -21.251774 143.49289 -45.50668 87.057289 -43.45282 83.40239 -11.879614 22.600363
14780000000 -21.299847 145.38763 -45.994034 59.16394 -44.052776 54.600132 -11.842618 21.262209
14790000000 -21.84219 146.99396 -46.336117 34.77689 -44.306904 30.431755 -11.88647 20.63183
14800000000 -21.129316 150.81795 -47.149803 14.522082 -44.806026 5.3211589 -12.021081 20.325562
14810000000 -20.771534 152.0583 -47.006931 -4.2355895 -45.268181 -18.595987 -12.222113 20.379662
14820000000 -19.699959 149.03477 -47.810886 -24.893486 -46.532581 -42.274349 -12.376216 20.333117
14830000000 -19.639526 145.10971 -46.421143 -43.335075 -45.96394 -57.648621 -12.517302 19.940485
14840000000 -19.253649 138.5802 -47.093613 -69.635841 -46.206184 -87.639236 -12.645459 19.47621
14850000000 -20.152542 132.54587 -46.759254 -85.603561 -47.209156 -106.93005 -12.855436 19.509754
14860000000 -20.429968 129.45543 -46.164257 -111.51862 -47.219933 -128.14859 -13.098746 19.679693
14870000000 -21.714882 126.81001 -47.162212 -129.92258 -48.505196 -145.31676 -13.338843 19.712568
14880000000 -22.081869 130.12894 -45.877029 -149.48183 -47.649708 -161.95628 -13.524873 18.468639
14890000000 -22.138578 136.07214 -45.60825 -166.28246 -48.076302 -174.51196 -13.654657 17.384007
14900000000 -20.798281 135.64734 -43.995239 168.55699 -45.96909 163.86446 -13.602994 16.9436
14910000000 -20.240355 134.10364 -44.383327 140.47356 -46.470478 137.96886 -13.507499 17.811056
14920000000 -19.436275 126.50785 -43.879986 121.80162 -45.605938 124.28642 -13.453009 19.39757
14930000000 -19.885138 121.27743 -44.08913 96.553917 -45.624821 98.638283 -13.598749 21.436687
14940000000 -20.259865 114.66698 -43.129654 78.729546 -44.537758 83.435539 -13.788645 23.153772
14950000000 -21.707432 114.66924 -42.301292 50.849251 -43.107906 56.960079 -14.043346 23.66069
14960000000 -22.450798 114.69422 -42.124317 26.023153 -42.8908 31.024336 -14.281079 23.513014
14970000000 -23.332806 124.77052 -42.023174 1.060287 -42.389477 6.8112836 -14.485165 23.942337
14980000000 -22.559711 125.4306 -41.597988 -23.589752 -41.966637 -18.371542 -14.556238 25.376326
14990000000 -22.125174 127.86801 -41.623833 -47.410255 -41.814945 -41.270203 -14.564577 26.749363
15000000000 -21.478783 119.73722 -41.164742 -72.009369 -41.122055 -66.576759 -14.613058 27.361864
15010000000 -21.769812 116.84323 -41.158604 -97.313248 -41.058907 -92.505013 -14.702332 27.214094
15020000000 -21.99824 108.49902 -40.936234 -123.24654 -40.510349 -118.31546 -14.59709 26.927984
15030000000 -22.988491 109.32601 -41.37014 -146.23111 -40.881496 -143.81789 -14.374755 26.850981
15040000000 -23.601494 105.98257 -41.004513 -167.88528 -40.490711 -165.4153 -14.072466 28.514168
15050000000 -24.425112 114.04495 -40.330585 167.06972 -40.824646 164.78329 -13.778435 30.985947
15060000000 -24.699423 116.89207 -40.690777 144.48166 -41.455956 143.10867 -13.60283 33.457893
15070000000 -24.093809 124.66651 -40.173824 118.46592 -40.804985 117.45978 -13.594379 34.431839
15080000000 -23.823544 122.77286 -40.354305 91.406708 -40.897533 92.108101 -13.734966 34.781364
15090000000 -23.314928 124.19602 -40.247223 65.259148 -40.726974 65.248474 -13.790381 34.116974
15100000000 -23.564823 117.70162 -41.194366 37.307873 -41.818222 39.554821 -13.784859 33.563656
15110000000 -23.923431 118.19122 -41.606129 19.282682 -41.99408 20.815557 -13.588293 32.979645
15120000000 -24.671728 114.68967 -41.722691 -5.4000368 -41.888714 -2.143296 -13.410084 32.211189
15130000000 -25.047558 115.85301 -41.399624 -26.688454 -41.427879 -24.97879 -13.277701 31.38942
15140000000 -26.043503 119.1416 -41.554485 -55.025574 -41.662697 -52.927898 -13.179821 30.620649
15150000000 -25.504824 127.07952 -41.954159 -77.830086 -41.882668 -76.377205 -13.013838 30.249931
15160000000 -25.076944 130.12109 -42.10387 -102.98264 -42.055866 -101.11698 -12.813502 29.912466
15170000000 -23.87767 132.94611 -42.5737 -127.04854 -42.634308 -125.43734 -12.691697 29.997129
15180000000 -23.285873 128.99643 -42.787575 -152.84081 -42.858597 -148.879 -12.668837 30.431255
15190000000 -22.717077 126.53378 -43.884052 -176.7693 -43.411762 -173.08432 -12.7712 30.675989
15200000000 -22.992607 121.41783 -45.063675 162.70049 -44.395489 164.89407 -12.939846 30.42198
15210000000 -23.414604 118.83988 -44.512344 148.44855 -43.888359 147.59879 -13.118345 29.53022
15220000000 -24.525261 120.19775 -44.684898 122.82707 -44.263123 122.11119 -13.286964 28.225048
15230000000 -24.624622 124.82335 -44.290974 103.62232 -43.792034 104.05764 -13.373446 26.776127
15240000000 -24.76827 131.1949 -44.301662 72.489067 -43.791485 72.294998 -13.418895 25.662874
15250000000 -23.616989 132.67297 -45.485947 51.991627 -44.546585 51.173378 -13.417792 24.828823
15260000000 -22.731289 131.87154 -45.689232 27.026403 -45.057407 24.455667 -13.44025 24.565407
15270000000 -21.921883 126.42487 -46.799019 8.8381748 -46.319973 3.4153028 -13.389243 25.108051
15280000000 -21.580917 119.03546 -46.981419 -9.9796219 -46.464115 -13.585175 -13.365001 26.285061
15290000000 -22.009096 113.00847 -47.539932 -28.590155 -47.257999 -34.673168 -13.336358 27.65596
15300000000 -22.769209 108.65963 -46.366852 -47.55904 -46.419788 -52.721832 -13.471688 28.804502
15310000000 -23.825098 109.92237 -46.92297 -73.481995 -47.050793 -77.724617 -13.708603 29.668972
15320000000 -24.19796 115.08583 -47.210175 -91.493073 -46.831612 -97.270569 -13.967861 30.429623
15330000000 -24.073885 121.47565 -46.788311 -122.20419 -47.260193 -127.2002 -14.0774 30.64222
15340000000 -22.97723 122.71792 -48.76886 -140.13823 -48.787659 -142.75116 -14.111462 30.198599
15350000000 -22.207766 119.79877 -48.444687 -152.00682 -48.28923 -160.02498 -14.112881 30.006289
15360000000 -21.864819 111.98132 -47.157215 -171.66908 -48.234196 -179.6207 -14.11697 30.150761
15370000000 -22.143532 105.90022 -46.978649 160.04039 -48.014729 158.21448 -14.077212 30.523201
15380000000 -22.426394 97.934883 -46.930141 136.13185 -47.859486 134.81664 -13.962337 30.312462
15390000000 -23.919703 94.227516 -47.986191 113.76764 -48.655758 114.1929 -13.815489 30.105436
15400000000 -24.965864 93.597618 -47.545521 101.35511 -48.122139 99.309814 -13.6234 30.39229
15410000000 -25.747271 101.65685 -46.689995 72.539856 -47.462463 73.75106 -13.396302 31.779137
15420000000 -25.399456 104.01734 -46.501404 49.469238 -47.26273 49.23629 -13.315237 33.117962
15430000000 -24.859583 107.01301 -46.881092 21.416437 -47.646244 25.962786 -13.395536 34.52602
15440000000 -24.26442 102.71256 -47.472565 0.23283207 -47.528046 1.4756931 -13.624433 35.028748
15450000000 -24.181652 97.390205 -47.858009 -25.175716 -48.580891 -21.474352 -13.841961 34.44973
15460000000 -24.573679 89.898582 -47.929111 -42.807636 -48.182621 -37.096767 -13.965526 32.707615
15470000000 -25.27541 85.625305 -47.566547 -64.928841 -47.368664 -60.564285 -13.964125 30.747179
15480000000 -26.359621 76.736946 -46.699833 -86.081024 -46.694122 -82.139458 -13.908761 29.925941
15490000000 -28.338678 78.197327 -45.617733 -115.66741 -45.194382 -112.53001 -13.75553 30.058239
15500000000 -29.436443 74.850945 -46.457569 -150.66101 -46.276165 -149.31776 -13.679868 30.500465
15510000000 -31.330181 86.826538 -47.370335 -173.21594 -47.342113 -170.85445 -13.633201 31.363543
15520000000 -31.07608 91.198883 -48.730415 159.52486 -48.332058 160.76942 -13.58407 31.889734
15530000000 -30.287918 98.613403 -48.998501 140.67249 -48.931435 144.1097 -13.604948 32.780994
15540000000 -29.5952 91.205879 -49.917 117.87431 -48.962978 123.00755 -13.614635 34.098869
15550000000 -29.569653 85.869514 -49.83622 102.742 -49.371159 100.98369 -13.704795 35.255096
15560000000 -30.130108 68.43483 -49.102726 76.033295 -48.839893 75.387161 -13.848944 36.555141
15570000000 -33.10207 54.778294 -49.714085 49.14616 -49.052895 49.458706 -13.984596 37.196064
15580000000 -36.813572 20.80076 -49.684574 22.918884 -49.586647 21.989628 -14.128192 37.060268
15590000000 -54.384983 -44.691872 -49.982742 -7.3663702 -49.561684 -6.6724329 -14.208265 36.263393
15600000000 -43.392319 -116.1264 -51.984913 -34.575653 -51.669636 -35.94754 -14.253937 35.39286
15610000000 -36.039356 -168.99867 -53.111519 -56.013138 -52.517044 -54.759502 -14.124347 34.900711
15620000000 -36.878067 166.67142 -54.823818 -77.170357 -54.982605 -75.029236 -13.916273 34.804867
15630000000 -37.184605 146.37962 -56.489922 -92.346893 -54.980133 -86.791512 -13.63713 35.047562
15640000000 -45.069702 113.78282 -56.349152 -110.02287 -55.006538 -109.8756 -13.464773 35.659706
15650000000 -50.117161 -53.971737 -57.503326 -117.72682 -56.564095 -124.62433 -13.420598 37.113407
15660000000 -35.652733 -91.43718 -56.032738 -129.00017 -55.715992 -131.85968 -13.429243 38.825989
15670000000 -32.768559 -116.04106 -54.615326 -146.67967 -53.789764 -151.1635 -13.535866 39.906624
15680000000 -29.387749 -122.77998 -54.35738 174.2789 -53.330872 171.1407 -13.658391 40.15369
15690000000 -28.191053 -143.69728 -56.150692 157.07277 -55.443497 151.57562 -13.761618 39.621689
15700000000 -27.952684 -150.44873 -55.712093 140.38411 -54.396839 129.61839 -13.846587 38.86232
15710000000 -28.67984 -160.38118 -57.85722 133.3488 -57.849834 125.4324 -13.919525 38.741932
15720000000 -29.342884 -154.52843 -52.120945 127.88293 -52.370625 118.08543 -13.923717 39.304531
15730000000 -29.82703 -145.81183 -51.015888 93.041771 -51.143875 86.01313 -13.882524 39.476845
15740000000 -28.349367 -137.90172 -48.712933 63.550491 -48.835896 56.84552 -13.785059 39.325577
15750000000 -27.11978 -136.88457 -49.009636 27.877417 -49.103657 21.154314 -13.604981 39.044907
15760000000 -25.526018 -137.13823 -48.633408 -1.6786784 -48.623837 -6.5054688 -13.362534 39.418465
15770000000 -24.719442 -143.83849 -49.032028 -30.7859 -48.819546 -37.665661 -13.057146 41.016872
15780000000 -24.312511 -148.799 -49.821529 -50.427044 -49.798843 -60.27446 -12.858017 43.350655
15790000000 -23.955341 -153.15692 -48.486721 -68.311462 -49.146072 -77.867493 -12.773487 45.770504
15800000000 -24.000429 -155.98962 -47.283676 -95.35508 -47.947205 -100.54795 -12.816393 47.280262
15810000000 -24.189344 -157.55844 -46.492638 -126.36176 -46.86092 -131.60773 -12.92452 47.453377
15820000000 -24.241547 -154.24652 -45.92271 -156.02306 -46.517578 -161.80902 -12.998343 46.237511
15830000000 -23.762981 -151.77621 -45.833179 175.3766 -46.452282 169.98273 -12.919754 44.709431
15840000000 -23.290421 -148.41583 -45.679996 147.13493 -46.403576 144.36455 -12.751064 43.132801
15850000000 -22.507181 -148.87219 -45.335358 120.40349 -45.859398 115.14263 -12.489727 42.683083
15860000000 -21.992313 -148.99101 -45.592628 90.441643 -46.282795 85.956223 -12.123717 42.184345
15870000000 -21.372152 -152.80487 -45.253738 66.951584 -46.55735 62.464573 -11.823856 41.558266
15880000000 -21.476833 -156.54337 -45.203831 38.233868 -46.25296 36.999336 -11.559466 40.989914
15890000000 -21.555756 -158.18822 -45.451691 11.139372 -46.182491 9.4100065 -11.350971 40.841415
15900000000 -21.875648 -159.70723 -46.444603 -12.198409 -47.689781 -11.8535 -11.162042 41.047802
15910000000 -21.999399 -157.22984 -45.812088 -31.955057 -46.566017 -28.482088 -11.023731 41.285004
15920000000 -21.573065 -154.15747 -45.002449 -58.422699 -45.745678 -55.7869 -10.954713 41.226013
15930000000 -20.974588 -152.58328 -44.587082 -85.623108 -45.209641 -83.775108 -10.936481 40.468067
15940000000 -20.184389 -151.91422 -44.257488 -115.05394 -44.993649 -113.42872 -11.027905 38.806713
15950000000 -19.437613 -154.53925 -45.196922 -146.59393 -45.952915 -141.89703 -11.116319 36.841427
15960000000 -19.334549 -157.88969 -45.922909 -168.63776 -46.366566 -163.0217 -11.113006 34.748901
15970000000 -19.412853 -159.04584 -46.591145 172.50586 -46.643837 178.74362 -10.99337 32.315529
15980000000 -19.709661 -158.31723 -45.64933 154.44321 -45.359596 160.06589 -10.806945 29.995855
15990000000 -19.624807 -155.32222 -45.31255 127.76556 -45.100796 133.29993 -10.646474 28.342604
16000000000 -19.439278 -153.5294 -45.542992 100.93327 -44.786331 106.82048 -10.502858 27.780807
16010000000 -18.827496 -151.72391 -45.337158 81.797005 -44.630463 84.276604 -10.408951 27.524361
16020000000 -18.239643 -152.67336 -45.262978 53.452084 -44.682884 55.102119 -10.44628 27.32745
16030000000 -17.7383 -155.02151 -45.596165 30.994747 -44.784752 34.921223 -10.570925 26.553488
16040000000 -17.541327 -157.2713 -45.665672 12.531855 -44.636551 12.842356 -10.77999 25.030794
16050000000 -17.346762 -158.99664 -45.056515 -11.131916 -44.135479 -11.240335 -10.976923 23.105501
16060000000 -17.409889 -157.84529 -44.90633 -32.528332 -43.856575 -35.513638 -11.168535 20.872307
16070000000 -16.990095 -157.44601 -44.621132 -59.466324 -43.642582 -62.44194 -11.327754 18.893745
16080000000 -16.754227 -156.16299 -44.799332 -81.006935 -43.814022 -84.977058 -11.477671 17.137703
16090000000 -16.246607 -155.57704 -44.469681 -104.06802 -43.665749 -109.01167 -11.592636 15.22366
16100000000 -15.877748 -156.70757 -44.494987 -125.69316 -43.957787 -132.22063 -11.683575 13.207171
16110000000 -15.595177 -157.41194 -43.530727 -147.6703 -43.122536 -153.07698 -11.716786 11.557791
16120000000 -15.340453 -158.10201 -43.347099 -175.35837 -43.031971 178.49763 -11.726765 10.648329
16130000000 -15.043903 -159.63779 -43.225517 160.85471 -43.013844 154.23119 -11.782179 11.554525
16140000000 -14.885071 -159.8273 -43.356293 134.58736 -43.193905 127.74504 -11.875938 12.903469
16150000000 -14.470468 -161.82832 -43.879726 111.86211 -43.869274 102.82561 -12.164749 13.864085
16160000000 -14.386242 -162.28136 -44.049591 91.53241 -44.2743 82.773972 -12.593218 13.762218
16170000000 -13.962174 -162.84448 -43.373051 66.713669 -44.036263 60.749855 -13.084204 12.386037
16180000000 -13.71533 -163.21255 -43.871571 44.984993 -44.497654 40.353706 -13.463981 10.297205
16190000000 -13.336313 -163.84259 -43.217812 22.801846 -43.67981 18.493404 -13.629066 8.2549744
16200000000 -13.088133 -163.79695 -42.805027 -4.5178103 -43.561768 -8.9121466 -13.665371 6.7562432
16210000000 -12.684033 -165.29836 -43.264812 -28.468422 -44.146511 -31.755598 -13.692325 5.783062
16220000000 -12.526372 -166.02484 -43.295315 -54.034248 -44.29277 -56.464813 -13.769306 4.9367847
16230000000 -12.276999 -167.90515 -43.940456 -78.34407 -45.014278 -78.678581 -13.846018 4.5585313
16240000000 -12.225918 -168.52397 -44.528893 -99.049271 -45.550106 -98.037582 -13.857162 4.8039746
16250000000 -12.031067 -169.9687 -44.902851 -117.95106 -45.887341 -113.43819 -13.840193 5.9172072
16260000000 -11.866331 -170.34856 -44.473515 -136.64159 -44.881042 -131.25505 -13.883122 7.5768552
16270000000 -11.516503 -171.64207 -44.393185 -159.78297 -44.531776 -154.68138 -14.090508 8.8775425
16280000000 -11.253692 -173.28223 -44.068558 177.68687 -44.09325 -179.03085 -14.533679 9.5423489
16290000000 -10.969979 -174.59799 -44.595093 155.47517 -44.489677 159.70677 -15.070023 8.8356161
16300000000 -10.748075 -175.89653 -44.473099 133.17506 -44.271156 137.03752 -15.443869 6.7392988
16310000000 -10.545124 -177.13579 -44.821037 114.45745 -44.269356 117.61809 -15.601103 3.8631206
16320000000 -10.407881 -177.84273 -44.275959 91.842773 -43.985367 94.074432 -15.607921 1.3194867
16330000000 -10.202849 -178.42281 -44.427322 72.210709 -43.856106 75.261726 -15.577468 -0.70935065
16340000000 -10.046205 -179.03519 -43.771225 51.530949 -42.894009 51.881363 -15.644926 -1.810747
16350000000 -9.7890272 179.87584 -43.628315 25.894775 -42.768181 24.990004 -15.717299 -2.4341104
16360000000 -9.6379185 178.15575 -43.653656 4.9524102 -43.036045 1.4923195 -15.786132 -2.2040806
16370000000 -9.5336475 176.89726 -43.44257 -18.008133 -42.889809 -21.082689 -15.845605 -1.8375181
16380000000 -9.3778639 175.20741 -43.097317 -38.953087 -42.690796 -40.62521 -16.175001 -1.0578912
16390000000 -9.2555618 173.86592 -42.983856 -60.744423 -42.459328 -64.486137 -16.737251 -0.27171066
16400000000 -9.088706 172.88391 -42.164799 -84.159081 -41.832615 -88.671852 -17.536608 -0.77142423
16410000000 -8.8996782 171.87283 -42.050228 -112.59972 -42.052437 -116.77937 -18.267775 -2.9457009
16420000000 -8.6921825 171.01817 -42.427879 -136.92313 -42.375179 -139.59386 -18.870527 -6.538866
16430000000 -8.4335814 170.01785 -42.7775 -158.83011 -42.569572 -161.8911 -19.260349 -9.7882166
16440000000 -8.3143911 168.75348 -42.567207 178.43086 -42.473488 172.87158 -19.641207 -11.428826
16450000000 -8.1769266 167.77507 -42.262695 154.54045 -42.470051 149.25369 -20.072868 -11.318266
16460000000 -8.0930119 167.08757 -42.349167 128.59973 -42.686893 125.65819 -20.566357 -10.834583
16470000000 -7.9442391 166.07613 -42.852264 104.27912 -43.068581 101.80153 -21.024918 -9.9468231
16480000000 -7.8535256 164.8934 -43.13279 82.460884 -43.295208 80.17305 -21.299061 -7.5945249
16490000000 -7.7252336 163.79689 -43.20158 57.623409 -43.221577 55.883804 -21.469358 -2.8689675
16500000000 -7.6147161 162.79871 -43.455307 36.526413 -43.551361 33.735863 -21.722191 4.1227417
16510000000 -7.3999901 161.42999 -43.407085 11.38081 -43.794613 7.7189455 -22.376265 12.248455
16520000000 -7.3250675 160.36261 -44.460995 -12.544277 -45.000748 -12.490359 -23.380888 20.00602
16530000000 -7.0999317 159.33719 -44.887039 -30.471722 -45.155251 -30.890522 -24.622082 24.42034
16540000000 -7.0039158 158.48225 -44.686382 -52.400146 -44.769142 -52.619789 -25.523626 24.048704
16550000000 -6.7868991 157.77403 -45.056355 -75.996834 -45.389992 -77.58622 -25.662605 20.080259
16560000000 -6.6645083 156.70261 -45.17852 -99.448189 -45.42305 -97.649254 -25.155455 17.649418
16570000000 -6.5174928 155.84137 -46.116653 -122.55154 -46.099735 -120.45173 -24.757395 19.027988
16580000000 -6.4424591 154.86247 -46.077652 -138.87689 -45.868866 -138.44765 -24.58436 23.332848
16590000000 -6.3071055 153.8414 -46.377392 -160.97586 -46.144306 -162.0042 -24.527977 27.110544
16600000000 -6.2313981 152.86307 -46.550583 178.05328 -46.623661 177.10014 -24.485638 30.473242
16610000000 -6.0711017 151.93893 -46.74279 158.35248 -46.695671 159.75813 -24.139526 33.647182
16620000000 -5.9373827 150.86842 -46.711781 140.44002 -46.583454 140.88962 -23.611132 37.946705
16630000000 -5.6923962 149.66988 -46.168503 121.98718 -45.745724 120.3549 -23.421778 45.35009
16640000000 -5.5585289 148.28189 -46.114548 95.639397 -46.015247 92.764381 -23.365627 54.832699
16650000000 -5.3707814 147.11304 -46.5215 72.726204 -46.572849 71.010857 -23.718294 63.891285
16660000000 -5.2509217 146.01115 -46.726368 52.458828 -46.723907 49.918583 -24.266779 69.893234
16670000000 -5.1044693 145.12054 -46.660278 31.868086 -46.804562 30.499172 -24.854683 70.281654
16680000000 -4.9752083 144.3112 -46.320866 11.329233 -46.299683 10.193886 -25.012005 66.520676
16690000000 -4.8177633 143.46022 -45.950214 -14.816241 -46.025253 -16.355547 -24.402678 63.362621
16700000000 -4.6736584 142.49541 -46.755432 -38.988579 -46.80447 -40.526836 -23.14575 63.005325
16710000000 -4.4761233 141.26782 -47.314163 -59.372746 -47.591576 -58.807205 -22.029613 63.869003
16720000000 -4.3605814 139.89107 -47.269707 -77.800217 -47.313332 -78.17498 -21.190004 65.864761
16730000000 -4.2020645 138.43878 -46.923439 -97.716393 -46.799732 -98.476067 -20.525169 67.603836
16740000000 -4.0679073 137.08731 -46.702583 -125.68618 -46.755638 -125.57538 -20.03857 68.604431
16750000000 -3.9160101 135.71338 -47.340897 -146.71342 -47.239403 -145.8571 -19.61018 69.769783
16760000000 -3.7925255 134.35481 -47.598602 -171.38487 -47.452381 -170.96281 -19.221045 70.869576
16770000000 -3.6375575 133.12904 -47.910183 170.19003 -47.707996 169.16446 -19.047001 70.637665
16780000000 -3.5129523 132.02542 -48.464622 147.57774 -48.057869 146.52516 -19.206978 69.864532
16790000000 -3.3735781 130.80164 -48.815281 130.1619 -48.454464 130.25815 -19.463276 67.711273
16800000000 -3.2397826 129.70346 -48.454006 111.98997 -47.847042 109.6878 -19.703306 63.71133
16810000000 -3.0839512 128.28542 -48.072834 87.800545 -47.886322 85.599228 -19.71743 58.937813
16820000000 -2.9640057 126.79028 -47.797176 65.649368 -47.31258 62.493969 -19.481535 53.630825
16830000000 -2.8190937 125.01593 -47.96965 38.737896 -47.733376 35.057018 -19.066803 49.580997
16840000000 -2.7353776 123.36231 -48.52084 15.641293 -48.539837 11.676556 -18.650896 46.873276
16850000000 -2.6286104 121.73727 -49.573772 -4.5415702 -49.383995 -9.9708786 -18.373167 46.246712
16860000000 -2.5399766 120.30878 -48.918217 -23.590919 -49.332592 -27.698219 -18.27774 47.272957
16870000000 -2.4181297 119.03403 -49.235332 -45.263702 -49.481548 -47.743828 -18.371601 48.651661
16880000000 -2.2906418 117.81176 -48.736671 -65.412201 -48.773159 -68.220566 -18.877747 49.888706
16890000000 -2.1410184 116.48143 -48.860989 -92.97506 -48.771271 -96.410736 -19.622158 50.597164
16900000000 -2.0123351 115.11393 -49.076534 -121.01647 -49.693348 -124.80376 -20.505936 49.313549
16910000000 -1.8974551 113.44596 -50.055584 -144.04764 -50.846989 -147.80128 -21.431345 45.897846
16920000000 -1.8367676 111.90798 -51.439587 -163.66194 -52.098541 -164.38283 -22.201712 41.979683
16930000000 -1.7681924 110.31347 -51.930107 175.53331 -52.550148 175.86728 -22.648174 38.478443
16940000000 -1.7194822 108.80025 -51.678047 159.60233 -52.406235 157.49896 -22.961603 36.668098
16950000000 -1.6336285 107.26361 -52.393333 134.31389 -53.092823 134.67491 -23.235605 38.028297
16960000000 -1.546977 105.72909 -52.875317 115.70213 -53.411694 115.94092 -23.357853 42.231197
16970000000 -1.4384257 104.14349 -53.591892 95.118469 -53.610188 101.56631 -23.315121 48.343727
16980000000 -1.3362613 102.50031 -54.103806 77.659935 -53.618889 81.615433 -23.186317 55.658428
16990000000 -1.2393104 100.87482 -53.896965 59.761082 -53.438828 58.944458 -23.117666 63.894165
17000000000 -1.1570153 99.311134 -53.535122 36.097023 -53.374889 36.939556 -22.92905 73.276009
