!Keysight Technologies,P9374A,MY57211807,A.19.30.04
!Date: Friday, May 08, 2026 14:29:52
!Correction: S11(C  2-Port  ) 
!S21(C  2-Port  ) 
!S12(C  2-Port  ) 
!S22(C  2-Port  ) 
!S2P File: Measurements: S11, S21, S12, S22:
# Hz S  dB   R 50
13000000000 -18.709076 58.49786 -40.807865 77.042664 -40.734982 76.757866 -13.318986 -74.122978
13010000000 -18.883535 58.044006 -40.271599 55.984341 -40.208927 55.33387 -13.767648 -76.823875
13020000000 -19.219223 58.907383 -39.929737 35.566525 -39.919624 34.004547 -14.258372 -79.839195
13030000000 -19.477463 59.730656 -39.266068 9.2296171 -39.285736 8.1671886 -14.812872 -83.057709
13040000000 -20.116423 61.30088 -39.617325 -16.034338 -39.545158 -17.244682 -15.449328 -86.533646
13050000000 -20.010885 64.99913 -40.278297 -41.953571 -40.246788 -43.033752 -16.171003 -90.476372
13060000000 -19.975723 65.570915 -40.549263 -60.530647 -40.532181 -61.524475 -16.930906 -94.900909
13070000000 -19.715399 65.950264 -40.733055 -81.12571 -40.686394 -82.480492 -17.639902 -100.67361
13080000000 -19.406893 64.424568 -40.375431 -102.02277 -40.36211 -102.34903 -18.285681 -106.31435
13090000000 -19.206512 60.263618 -39.981041 -126.41783 -39.903675 -127.33076 -18.867104 -111.9077
13100000000 -19.633429 59.441151 -40.349079 -150.77461 -40.255203 -151.91945 -19.665869 -117.36787
13110000000 -19.474504 59.179882 -40.709019 -172.31462 -40.595795 -173.98833 -20.651976 -123.89366
13120000000 -19.933468 58.786926 -40.792496 163.19919 -40.79797 162.7498 -21.744127 -132.3963
13130000000 -19.866831 61.321384 -41.28672 144.17525 -41.151588 142.62093 -22.53742 -143.60402
13140000000 -19.76174 63.845898 -40.953896 122.67567 -40.874485 121.69806 -22.89765 -156.3884
13150000000 -19.337204 62.995335 -41.203922 100.02607 -41.155796 98.371315 -23.146112 -169.40906
13160000000 -19.378769 64.09404 -41.349808 77.561028 -41.463749 76.809097 -23.347425 177.27902
13170000000 -19.00329 61.17746 -41.526997 54.674126 -41.40078 53.838661 -23.365566 162.45479
13180000000 -19.358238 58.856609 -41.974243 35.343555 -41.857533 34.947887 -22.738777 147.44196
13190000000 -19.093796 58.121201 -41.81287 15.875567 -41.577839 13.991194 -21.567146 135.70564
13200000000 -19.278519 54.639057 -41.266937 -4.216392 -41.185013 -7.4120121 -20.288742 127.70621
13210000000 -19.387939 54.214989 -40.855213 -30.737211 -40.986973 -32.332184 -19.267969 121.20846
13220000000 -19.47336 52.165283 -41.383797 -55.478199 -41.358253 -56.58873 -18.564045 114.54597
13230000000 -19.671881 53.01284 -41.567692 -79.009659 -41.569569 -80.730011 -17.875551 107.38648
13240000000 -19.641781 54.481937 -42.5592 -99.696999 -42.488747 -102.46384 -17.005432 100.04673
13250000000 -19.341602 54.250042 -42.356861 -118.36094 -42.508045 -120.07095 -15.976302 93.654083
13260000000 -19.271393 54.390774 -42.016926 -139.59105 -42.04752 -140.65269 -15.054777 89.290504
13270000000 -18.850298 52.37075 -42.011421 -164.14545 -41.96608 -165.70366 -14.27274 86.298607
13280000000 -18.809675 48.299324 -41.933197 172.22964 -42.112461 170.61473 -13.664512 83.175644
13290000000 -19.152416 44.584991 -42.175694 146.65085 -42.316818 145.70209 -13.162459 79.241959
13300000000 -19.563517 41.940575 -43.02145 122.66736 -43.025223 122.16796 -12.671979 74.469368
13310000000 -20.17256 40.668774 -43.621006 103.81235 -43.596603 102.40585 -12.090011 69.61158
13320000000 -20.189449 41.39661 -43.710232 82.864212 -43.818047 82.275948 -11.503653 65.693489
13330000000 -20.450851 41.500591 -43.58493 62.643738 -43.514355 62.056484 -10.963005 62.556133
13340000000 -19.998915 43.224087 -43.304508 36.464836 -43.297157 35.770077 -10.490566 59.671387
13350000000 -19.928326 40.703804 -44.439011 10.229531 -44.272968 9.3925457 -10.113526 56.304623
13360000000 -19.567537 39.956703 -45.582748 -6.8015313 -45.517353 -7.6800098 -9.7897921 52.057003
13370000000 -19.653402 35.430283 -45.09565 -25.3433 -45.134155 -24.747585 -9.4456863 47.618145
13380000000 -19.746433 32.549713 -45.373741 -52.715286 -45.271358 -52.071327 -9.0088024 43.556801
13390000000 -20.552671 29.655487 -46.44899 -77.52533 -45.903297 -77.562889 -8.5759954 39.810181
13400000000 -20.705994 29.141966 -48.257542 -93.937737 -47.978828 -97.332512 -8.1922674 36.693195
13410000000 -21.546078 26.422894 -48.289757 -104.9061 -48.046921 -106.98211 -7.9145827 33.642418
13420000000 -21.775826 29.262388 -48.071686 -126.31538 -47.698154 -128.63838 -7.7077284 30.036587
13430000000 -22.074181 27.578766 -48.667034 -143.64926 -48.614788 -148.10197 -7.5383921 25.987734
13440000000 -21.733131 29.917051 -48.547924 -163.68359 -48.543091 -167.08447 -7.3782353 21.787018
13450000000 -21.564125 27.644409 -49.381268 176.44545 -49.469894 171.77287 -7.1671844 17.633142
13460000000 -21.088776 24.944109 -49.785904 159.70638 -49.783115 155.53691 -6.934514 13.839829
13470000000 -21.561167 18.648975 -49.814186 143.68346 -50.351978 140.88782 -6.7521119 10.256371
13480000000 -21.713173 16.980671 -50.119251 129.3343 -50.339397 126.89757 -6.6315994 6.6914063
13490000000 -23.017359 11.864561 -49.642307 113.07021 -49.816082 110.21375 -6.5761271 3.0062692
13500000000 -23.407549 15.254427 -48.73148 98.434715 -49.161125 98.208672 -6.5918512 -0.83313739
13510000000 -24.583843 16.982231 -48.214405 71.944565 -48.494205 71.001686 -6.6079969 -4.549427
13520000000 -24.218834 20.166319 -48.828793 50.896854 -49.024441 50.804245 -6.6025963 -8.1271963
13530000000 -24.549929 20.509476 -47.900513 36.578426 -48.100185 37.068302 -6.6053925 -11.720724
13540000000 -23.706558 18.987906 -47.556561 15.205683 -47.66663 17.506363 -6.6430521 -15.35077
13550000000 -24.010653 14.239799 -47.570267 -3.4800105 -47.344543 -3.3030591 -6.7462955 -18.91927
13560000000 -23.668156 10.051637 -47.21703 -24.851618 -46.952579 -25.668041 -6.8906317 -22.480253
13570000000 -25.221869 6.347043 -46.58416 -42.184231 -46.338043 -42.766701 -7.0201192 -25.897442
13580000000 -25.069035 6.2124357 -45.799213 -69.367897 -45.466961 -70.292168 -7.1362247 -29.042912
13590000000 -26.99872 7.6932325 -45.992779 -94.040237 -45.675709 -94.208939 -7.2253776 -32.126152
13600000000 -26.707712 12.735583 -46.493786 -113.7776 -46.283482 -116.59809 -7.3355823 -35.075001
13610000000 -27.819454 20.434156 -46.326839 -130.19165 -46.167839 -133.51468 -7.507607 -37.856766
13620000000 -26.578819 22.01964 -45.766888 -151.22842 -45.836494 -153.19377 -7.7288728 -40.704453
13630000000 -27.007154 21.714224 -44.914204 -173.60893 -44.915657 -175.56657 -7.9548869 -43.508984
13640000000 -26.170731 16.311203 -45.301399 161.42641 -45.018684 159.03984 -8.1501675 -46.472553
13650000000 -27.481249 10.427746 -45.199223 138.37366 -45.143005 136.02272 -8.3205404 -49.386311
13660000000 -27.214214 9.8402061 -45.67614 118.87043 -45.567127 117.3315 -8.4572449 -52.112553
13670000000 -28.979866 6.0225072 -45.201973 101.87599 -45.064365 98.444122 -8.6147785 -54.585228
13680000000 -29.100582 13.418814 -44.826435 78.770172 -44.72337 75.874474 -8.8111258 -56.788784
13690000000 -29.632978 18.424568 -44.922527 55.2453 -44.683598 51.801941 -9.0237103 -58.742512
13700000000 -28.710049 27.131145 -44.606289 36.459538 -44.673141 32.364971 -9.2453671 -61.182411
13710000000 -27.961607 29.932358 -44.242458 13.268288 -44.631958 10.83581 -9.4709167 -63.897682
13720000000 -26.983379 25.808294 -44.134422 -7.5512338 -44.187183 -10.528891 -9.6877184 -66.804253
13730000000 -27.629234 23.230299 -43.629265 -31.968632 -43.986137 -35.181446 -9.8852539 -69.318718
13740000000 -26.945623 20.056587 -43.855495 -55.681805 -44.380203 -55.811218 -10.065179 -71.522018
13750000000 -28.655022 13.356056 -43.742435 -77.191978 -43.805248 -77.391281 -10.258965 -73.555618
13760000000 -28.896585 15.648553 -44.019112 -99.067741 -44.251732 -100.56845 -10.498557 -75.935608
13770000000 -30.366051 12.069427 -43.753246 -118.16052 -44.17638 -120.03568 -10.785071 -78.778648
13780000000 -30.34864 21.959963 -43.231251 -142.21509 -43.578465 -141.46935 -11.043507 -81.851395
13790000000 -29.557047 24.984625 -43.320316 -168.2195 -43.320541 -165.92757 -11.23982 -84.896133
13800000000 -28.328182 25.37347 -43.749561 172.511 -43.678524 172.5354 -11.363477 -87.323647
13810000000 -27.133148 20.475391 -43.119915 150.43529 -43.320313 150.83752 -11.495538 -89.299339
13820000000 -26.49225 10.447109 -43.24931 126.85186 -43.154224 128.04356 -11.687046 -91.252029
13830000000 -26.828348 7.6612873 -43.241714 103.53363 -43.174149 105.17323 -11.986095 -93.506836
13840000000 -26.519205 -3.4148419 -43.539513 81.038811 -43.290916 81.074852 -12.285077 -96.350433
13850000000 -28.885303 -7.1096058 -43.825092 59.778164 -43.343887 59.13168 -12.55534 -99.654594
13860000000 -29.677019 -3.764694 -43.407093 39.558144 -43.270813 38.935043 -12.748337 -102.86156
13870000000 -30.364138 2.9026704 -43.239338 16.857315 -42.988823 15.681471 -12.892239 -105.76227
13880000000 -29.903124 6.7263212 -43.32336 -7.5078006 -42.920212 -8.1834621 -13.070007 -108.54857
13890000000 -28.133915 8.2996988 -43.620762 -30.672396 -43.13377 -32.901787 -13.327838 -111.54897
13900000000 -27.436472 -4.3711605 -43.596336 -53.746284 -43.243053 -56.487389 -13.611089 -114.87004
13910000000 -27.416021 -7.2203159 -44.137825 -71.784393 -44.011059 -75.543633 -13.846873 -118.54953
13920000000 -26.574709 -19.073889 -43.369484 -93.965607 -43.344845 -97.382767 -13.981862 -122.21058
13930000000 -28.055958 -30.31782 -43.550522 -120.86043 -43.550655 -122.59174 -14.079217 -125.69193
13940000000 -28.830578 -34.415829 -43.751759 -141.89165 -43.83469 -143.85071 -14.264045 -128.82977
13950000000 -30.541653 -41.930222 -44.109215 -164.18611 -43.911026 -167.62651 -14.543912 -131.80629
13960000000 -31.678169 -39.276627 -44.006344 175.67055 -44.107883 172.34068 -14.879851 -135.35666
13970000000 -32.16256 -37.71804 -43.955162 149.97766 -43.975452 147.53369 -15.166562 -139.80525
13980000000 -31.601141 -36.107258 -44.750893 129.1844 -44.704556 125.22846 -15.376331 -145.42473
13990000000 -30.326893 -38.130222 -44.340504 108.67366 -44.735798 104.76533 -15.4759 -151.16826
14000000000 -28.728954 -49.594704 -44.275921 87.762871 -44.840195 84.448944 -15.487592 -156.72552
14010000000 -28.005028 -56.588005 -44.371937 61.935966 -44.739338 59.127731 -15.458858 -161.83818
14020000000 -27.141087 -66.841759 -44.555286 40.231236 -45.227528 40.792206 -15.4384 -166.64691
14030000000 -27.522135 -78.780777 -44.831635 15.856211 -45.075848 15.514588 -15.418342 -171.45636
14040000000 -28.441875 -88.232666 -45.372845 -2.7318873 -45.671661 -3.6550486 -15.392171 -176.44359
14050000000 -29.959742 -91.061104 -45.262302 -19.494125 -45.945724 -19.368502 -15.344687 178.39357
14060000000 -32.083111 -93.175385 -44.491272 -45.215786 -44.788231 -42.182793 -15.264118 173.24986
14070000000 -32.905819 -81.361015 -44.269276 -70.028595 -44.216728 -68.366531 -15.163084 168.16096
14080000000 -32.385818 -86.032822 -44.753109 -97.24144 -44.803955 -95.914619 -15.062426 163.24451
14090000000 -31.441553 -77.169281 -45.451824 -116.70533 -45.291016 -116.60148 -14.99769 158.31291
14100000000 -28.81764 -95.390305 -45.609882 -138.15732 -45.612392 -137.55534 -14.895305 153.19498
14110000000 -28.292276 -105.85223 -45.355881 -161.83081 -45.021214 -160.44089 -14.700603 147.54218
14120000000 -27.407799 -122.40833 -45.771194 172.95467 -45.421818 173.45456 -14.438002 141.54323
14130000000 -27.747177 -131.7159 -46.231937 152.38631 -45.782421 154.83618 -14.118383 136.06938
14140000000 -27.827948 -142.15135 -46.144657 128.55533 -45.714577 128.41231 -13.764074 131.46338
14150000000 -29.75666 -144.85092 -46.339508 103.60975 -45.787086 104.66087 -13.476042 127.17795
14160000000 -29.666904 -143.54228 -47.172215 82.259094 -46.60527 79.631348 -13.236954 122.6698
14170000000 -30.96143 -140.32468 -47.109241 58.157013 -46.529346 57.421543 -13.035656 117.67524
14180000000 -29.910316 -135.42531 -48.138435 34.135918 -47.406792 29.906786 -12.75889 112.51152
14190000000 -29.272409 -136.89151 -48.768456 14.291527 -48.351894 8.3312168 -12.396703 107.50055
14200000000 -27.649731 -142.56836 -49.350254 -5.5750561 -48.990456 -11.843728 -11.981171 102.92453
14210000000 -27.258394 -151.66162 -49.123253 -22.75095 -49.193275 -28.957104 -11.597834 98.789497
14220000000 -26.669052 -156.90187 -49.305984 -50.940701 -49.05481 -56.44714 -11.295347 94.852654
14230000000 -26.491655 -168.00052 -50.936623 -72.144676 -50.758789 -78.682808 -11.049541 90.883301
14240000000 -27.072124 -171.44438 -50.993763 -86.881538 -51.360287 -96.328102 -10.782718 86.777977
14250000000 -27.698395 -176.12959 -51.616829 -107.47502 -51.777042 -115.75671 -10.498078 82.426674
14260000000 -28.687731 -175.37431 -50.645393 -126.07236 -51.563671 -132.23393 -10.218783 78.195839
14270000000 -29.392445 -168.51401 -51.149529 -151.48494 -52.537682 -156.81747 -9.9614735 74.081688
14280000000 -28.861366 -164.73451 -51.272522 -171.39067 -53.008965 -175.83615 -9.7508116 70.023697
14290000000 -27.769779 -163.63509 -52.147236 166.44362 -53.428772 164.3653 -9.5572586 65.721443
14300000000 -27.246077 -168.53145 -53.081406 151.7327 -54.461044 153.08884 -9.3472824 61.136314
14310000000 -26.292154 -174.42458 -51.675217 131.80695 -52.777969 135.66827 -9.109581 56.410877
14320000000 -26.546362 174.52979 -51.405113 107.00896 -53.096043 111.66905 -8.8755369 51.92358
14330000000 -26.687424 171.08293 -51.644218 86.019493 -52.385941 94.489243 -8.6339684 47.85434
14340000000 -27.920418 162.6076 -52.18874 56.041977 -52.240688 64.305969 -8.4481153 43.999512
14350000000 -28.896347 170.27864 -52.633591 35.059978 -52.527298 43.463181 -8.3036213 40.090607
14360000000 -29.582321 175.90424 -53.038387 18.83087 -52.738026 26.84738 -8.2368021 35.869755
14370000000 -28.44137 -176.35724 -53.067856 -10.138433 -52.49506 -2.5333374 -8.2045164 31.312645
14380000000 -27.905268 -179.30377 -53.995144 -34.11274 -53.087341 -28.556931 -8.1676359 26.534582
14390000000 -27.051859 -179.92088 -54.807228 -47.890034 -53.878696 -43.726196 -8.1056643 21.799616
14400000000 -27.086273 172.3615 -54.360806 -75.053276 -53.073021 -68.290359 -8.0156136 17.124233
14410000000 -27.432055 168.91753 -54.829334 -99.966827 -53.223614 -96.181885 -7.9562998 12.605809
14420000000 -27.785061 164.48174 -58.830223 -127.60285 -55.664665 -126.97094 -7.9492807 8.2838163
14430000000 -28.389637 165.23849 -58.741756 -126.49641 -56.639141 -135.26218 -7.9997926 3.9681077
14440000000 -28.813921 168.17415 -55.369064 -142.36526 -54.249069 -150.01019 -8.0832024 -0.37956169
14450000000 -28.271732 173.94066 -57.255276 179.08841 -55.158581 170.6633 -8.2044907 -4.8695493
14460000000 -28.338587 174.97354 -59.906841 142.14476 -57.069599 135.64217 -8.3294563 -9.3960762
14470000000 -27.443171 179.53259 -61.946144 178.92506 -63.279442 128.91603 -8.5031605 -14.07222
14480000000 -26.863718 -179.62538 -58.186298 141.49675 -60.333897 124.57981 -8.7708397 -18.740942
14490000000 -26.554682 177.19908 -58.207775 112.1767 -59.734669 98.861015 -9.051301 -23.437214
14500000000 -26.122055 177.54301 -60.554161 110.21098 -63.091721 84.715179 -9.3434477 -28.702036
14510000000 -26.272503 169.73528 -57.846539 86.547295 -60.83728 75.638718 -9.6060658 -34.136982
14520000000 -27.561691 172.1846 -57.152317 50.735672 -60.460258 48.55743 -9.8386259 -39.223976
14530000000 -27.429993 170.57419 -58.578091 28.77277 -60.91383 24.497677 -10.056752 -43.78146
14540000000 -27.931244 -176.90137 -60.179115 6.6644301 -63.123199 -9.9859629 -10.37289 -47.804489
14550000000 -26.232107 -178.35966 -59.860802 -7.4941339 -65.910439 -7.439424 -10.804145 -51.68372
14560000000 -25.43391 -175.10773 -59.522408 -22.933531 -61.620178 -1.5307621 -11.335952 -56.137501
14570000000 -24.052723 177.46153 -56.900116 -63.98531 -59.325573 -45.982677 -11.924879 -61.438755
14580000000 -24.029758 174.91559 -60.408115 -76.304787 -61.217693 -65.765396 -12.515767 -67.292473
14590000000 -24.029556 167.68533 -60.401279 -120.71988 -65.3339 -100.72152 -13.061515 -73.097
14600000000 -24.745378 171.17465 -58.965355 -133.23663 -60.533844 -107.34545 -13.597911 -78.556213
14610000000 -24.838522 170.2276 -60.650726 -169.45177 -61.078709 -137.73096 -14.129455 -84.226646
14620000000 -24.833401 179.02953 -60.481873 161.43814 -60.198704 -167.04855 -14.762796 -90.779999
14630000000 -23.873154 176.57988 -64.694511 108.75533 -64.528732 160.73955 -15.447837 -97.610924
14640000000 -23.253021 177.57777 -65.191132 101.99512 -63.863422 153.10239 -16.050703 -104.2326
14650000000 -22.511887 172.61195 -65.019287 63.494156 -60.096855 114.10799 -16.572601 -110.41761
14660000000 -22.137768 168.71292 -64.034813 41.733723 -60.771942 69.197777 -17.189318 -116.99935
14670000000 -22.330191 164.88678 -63.45293 -15.210942 -62.274254 28.752733 -18.00548 -124.25381
14680000000 -22.074732 163.39134 -62.519958 -49.325497 -61.835705 -10.014634 -18.930857 -133.20622
14690000000 -22.415716 162.3868 -62.739941 -97.994316 -62.328632 -46.255928 -19.805187 -144.18745
14700000000 -22.071747 163.65959 -60.571339 -115.84055 -59.772202 -97.429726 -20.323158 -156.31354
14710000000 -22.080942 163.0672 -59.830856 -155.46941 -61.286259 -138.22307 -20.330883 -168.27321
14720000000 -21.790012 162.6949 -57.283096 161.62987 -59.041691 179.9306 -20.060366 -179.87784
14730000000 -21.643448 162.5641 -58.935989 117.68137 -61.020275 151.91222 -19.799562 169.51466
14740000000 -20.960917 160.25978 -58.90522 91.258171 -59.134556 122.29394 -19.581581 160.42287
14750000000 -20.917011 156.55272 -61.991001 69.221527 -59.0541 104.93507 -19.433798 152.31227
14760000000 -20.445904 152.83456 -59.653301 68.429207 -57.757813 80.077545 -19.276665 144.11018
14770000000 -20.786966 148.56467 -55.053799 33.566311 -54.450974 46.699665 -18.99115 135.30853
14780000000 -20.592646 145.69539 -55.078888 -15.535576 -54.585163 1.4928358 -18.532938 125.98407
14790000000 -21.191883 145.19968 -57.5686 -48.099957 -55.594711 -24.416695 -17.872265 118.01225
14800000000 -20.934793 146.0076 -61.283249 -53.004833 -56.801231 -42.307945 -17.213453 111.18596
14810000000 -21.077021 148.55133 -58.746971 -60.936653 -54.692097 -60.78014 -16.72205 105.88569
14820000000 -20.19729 147.89247 -56.778923 -99.856659 -54.179462 -102.42033 -16.291372 101.53674
14830000000 -20.003088 145.74449 -58.306713 -135.82907 -55.833317 -129.80495 -15.854562 96.880363
14840000000 -19.679859 140.04366 -62.684719 -154.28246 -56.870224 -155.44534 -15.510969 91.905052
14850000000 -20.296185 136.19643 -59.279354 -145.08992 -56.529629 -161.88864 -15.120028 87.799866
14860000000 -20.377808 132.4926 -60.344254 -161.10275 -57.474682 172.64954 -14.751841 83.608665
14870000000 -21.282278 130.7796 -58.022945 172.50598 -55.940754 152.3114 -14.557455 79.664284
14880000000 -21.23823 130.60303 -58.343952 148.93947 -56.837276 127.39487 -14.485828 75.678787
14890000000 -21.431025 132.13835 -56.875633 135.62575 -56.887466 103.53735 -14.3667 71.075623
14900000000 -20.812218 130.11133 -56.936256 114.64259 -58.866245 80.529259 -14.078153 66.184135
14910000000 -20.61343 130.1747 -55.49131 98.244469 -59.336254 80.524796 -13.710805 61.710758
14920000000 -20.214897 124.615 -54.425976 67.756226 -57.762157 62.833485 -13.329579 58.515961
14930000000 -20.629253 123.97607 -54.775463 40.224449 -57.241455 30.980362 -13.120894 55.910374
14940000000 -20.691826 120.23872 -53.728848 30.698914 -58.061016 35.726341 -13.122128 53.674122
14950000000 -21.199535 121.2598 -51.935921 -0.17062992 -54.654503 7.2122002 -13.20265 50.907822
14960000000 -21.444588 117.22812 -53.265182 -24.555828 -54.72802 -19.39455 -13.286325 47.422569
14970000000 -22.276377 121.37971 -52.028221 -51.559311 -54.060352 -46.359623 -13.263152 43.850708
14980000000 -22.236042 118.0235 -52.503944 -76.219345 -54.527725 -62.326759 -13.241637 40.208797
14990000000 -22.681854 122.07924 -52.00695 -86.346703 -52.860596 -77.119774 -13.302969 37.336712
15000000000 -22.389006 117.30014 -49.971657 -124.7941 -50.532974 -112.02538 -13.471152 34.456646
15010000000 -22.581938 118.94868 -51.334637 -154.27068 -51.785339 -144.01523 -13.697698 31.203945
15020000000 -22.366085 112.82269 -52.242176 179.77727 -52.344627 -166.81265 -13.866185 27.837067
15030000000 -22.793289 114.30651 -53.552902 164.75879 -52.974606 179.84587 -13.811113 25.011383
15040000000 -22.993765 108.41118 -51.923008 149.10777 -51.010975 158.63745 -13.739654 22.558439
15050000000 -23.80728 113.34326 -52.060921 118.26223 -50.273949 128.29417 -13.872495 21.343569
15060000000 -24.099133 112.99537 -53.630192 90.937523 -51.451908 99.627365 -14.228202 21.101152
15070000000 -24.41078 121.455 -52.984604 78.262291 -51.219376 78.251991 -14.727118 20.550564
15080000000 -23.991879 121.75478 -53.025326 56.341743 -51.522942 56.724316 -15.252066 18.920958
15090000000 -23.692739 122.56329 -51.982731 28.177605 -50.059761 31.81218 -15.713381 16.751928
15100000000 -23.988997 117.87901 -53.970516 -6.2980742 -51.337746 -4.8633847 -16.082041 14.461406
15110000000 -24.361797 119.53024 -56.570969 -20.19772 -53.674774 -33.090137 -16.401186 13.768447
15120000000 -24.949173 117.68934 -55.892124 -27.074659 -54.102543 -40.683144 -16.625925 14.160056
15130000000 -25.000914 120.5294 -55.605793 -45.024078 -53.939034 -59.466694 -16.97831 14.384348
15140000000 -25.33773 122.48662 -54.649578 -53.061161 -53.32103 -73.554329 -17.356552 15.500648
15150000000 -24.822849 126.39062 -53.129047 -85.201294 -53.269505 -103.48032 -17.493641 17.199749
15160000000 -24.391726 126.72366 -54.026394 -111.50974 -53.878269 -133.85075 -17.51228 18.832668
15170000000 -23.916073 126.5731 -55.192787 -123.5102 -57.481133 -151.9332 -17.533361 21.307943
15180000000 -23.838072 124.77493 -54.243214 -148.55481 -56.18737 -163.03195 -17.597395 24.147692
15190000000 -23.734543 126.05136 -54.413918 -165.46706 -57.257519 -179.08627 -17.729963 27.774952
15200000000 -23.80739 127.13668 -53.840542 176.12683 -57.052128 165.78857 -17.742508 30.792931
15210000000 -23.332335 125.57522 -52.912128 155.21385 -57.33363 156.60263 -17.729614 31.736151
15220000000 -23.890043 125.23742 -52.579975 126.08823 -55.296883 133.99667 -17.67432 32.280407
15230000000 -23.615194 126.33522 -52.962795 103.22683 -55.254921 112.89683 -17.462303 32.395874
15240000000 -23.770658 127.11069 -53.228336 79.49498 -55.498569 94.172256 -17.170462 32.707321
15250000000 -23.402737 125.97866 -52.579952 52.03854 -54.659081 66.010658 -16.766092 32.632462
15260000000 -23.296915 126.03771 -53.042656 27.904873 -54.364685 51.126965 -16.293423 32.444176
15270000000 -22.751858 125.14628 -54.393124 8.1456671 -54.187855 28.021414 -15.781382 32.22361
15280000000 -22.363029 120.58225 -55.161385 -12.477414 -54.532257 10.211432 -15.332518 32.306049
15290000000 -22.465172 117.17873 -55.66201 -33.263123 -53.195957 -13.917237 -14.951278 32.782112
15300000000 -22.784233 114.38407 -54.497662 -46.45792 -51.979538 -36.576656 -14.728313 32.867752
15310000000 -23.200813 114.59615 -54.523148 -81.082817 -52.933067 -72.17202 -14.56074 32.144894
15320000000 -23.322407 115.77995 -57.134254 -100.69155 -53.57732 -88.37191 -14.453706 30.411398
15330000000 -23.179056 118.35587 -59.426022 -122.87632 -54.672207 -119.91916 -14.314434 28.039532
15340000000 -22.721504 114.9939 -61.611862 -101.70985 -57.588188 -123.97479 -14.084779 25.518429
15350000000 -22.85 115.72175 -56.998688 -126.09682 -54.202564 -143.19661 -13.801217 23.000982
15360000000 -22.580385 108.95895 -57.276443 -143.06715 -55.116768 -160.10931 -13.639982 20.456308
15370000000 -23.150614 107.89627 -55.386475 -153.40776 -54.769676 178.59138 -13.497582 18.176876
15380000000 -23.105406 102.61651 -54.19981 168.9278 -54.111362 148.03302 -13.277271 15.288202
15390000000 -23.949715 102.76273 -57.295467 154.09424 -58.153709 121.59942 -13.035819 12.23256
15400000000 -23.932266 100.01067 -54.508904 151.68808 -57.197906 138.18848 -12.743897 9.8287268
15410000000 -24.436256 101.15185 -52.371689 126.60145 -55.414658 119.67474 -12.541368 7.8210244
15420000000 -24.423326 97.979378 -51.947147 96.057358 -53.436508 88.344147 -12.537201 6.0912147
15430000000 -24.967964 99.164398 -51.799419 73.569641 -54.427265 65.65255 -12.670282 4.0999951
15440000000 -24.892956 97.017227 -50.923313 49.058567 -53.891006 51.62323 -12.806843 0.79307657
15450000000 -25.321564 96.878761 -50.928471 24.287827 -53.103378 32.453873 -12.929242 -4.4059796
15460000000 -25.396919 92.265488 -51.136276 0.33202645 -52.575577 5.2129092 -12.966059 -9.6281509
15470000000 -25.93359 91.397331 -50.688339 -18.707907 -52.327339 -13.561565 -12.876082 -14.102139
15480000000 -26.25214 83.02626 -50.455162 -44.490517 -51.668823 -31.958035 -12.816589 -17.763987
15490000000 -27.842417 84.318367 -50.280426 -65.036217 -50.821117 -53.316891 -12.856144 -20.718615
15500000000 -28.336868 78.809189 -50.195221 -93.382492 -50.342377 -79.795898 -12.934195 -23.977234
15510000000 -29.82678 84.26004 -51.315166 -115.58597 -50.771496 -102.55679 -13.109743 -27.675852
15520000000 -30.131947 83.124573 -50.929062 -129.86407 -50.128292 -122.68644 -13.328098 -31.375008
15530000000 -30.0791 88.870316 -50.119267 -152.10356 -49.828987 -142.70224 -13.56589 -35.328346
15540000000 -30.442886 78.611778 -49.601665 -177.06468 -48.327374 -166.06973 -13.951903 -39.487045
15550000000 -31.722361 80.986008 -50.47403 156.59731 -48.495991 164.59349 -14.413112 -44.0597
15560000000 -33.750763 67.539207 -50.796204 141.3398 -48.766277 140.58308 -14.878431 -49.499493
15570000000 -36.518951 84.646004 -50.002281 120.11059 -48.183998 117.21543 -15.295954 -56.10619
15580000000 -39.569233 70.336266 -49.516918 96.339958 -48.240437 96.30732 -15.610795 -63.033863
15590000000 -39.300194 107.00593 -50.307434 68.203316 -48.359051 66.816437 -15.807295 -69.477203
15600000000 -44.374802 66.140396 -50.484642 51.022289 -48.474503 44.478714 -15.939741 -75.239182
15610000000 -48.224197 137.28409 -50.822472 31.210499 -49.033752 21.670918 -16.173136 -80.258812
15620000000 -50.265522 -76.516838 -49.919346 12.007412 -48.908455 -0.60830408 -16.574665 -84.778862
15630000000 -40.311333 -142.28535 -50.038071 -10.357027 -49.307285 -22.356359 -17.138655 -89.609528
15640000000 -38.703602 -131.24316 -49.377827 -28.964018 -48.764221 -42.311703 -17.871336 -95.444954
15650000000 -36.23872 -154.99782 -49.318039 -50.989758 -49.16835 -69.406807 -18.561859 -103.33382
15660000000 -36.809528 -139.89027 -49.128727 -72.398079 -50.033787 -91.266411 -19.075817 -113.06512
15670000000 -35.010075 -151.87758 -48.212093 -97.342949 -50.070484 -112.70808 -19.16135 -123.08098
15680000000 -34.154762 -122.95096 -47.907986 -124.02573 -50.019093 -131.50037 -18.983603 -132.21324
15690000000 -30.906038 -135.66469 -48.550961 -149.12521 -49.651146 -155.89262 -18.909552 -140.13164
15700000000 -29.314642 -133.48856 -48.798763 -169.16496 -51.043247 -178.396 -18.959772 -146.97211
15710000000 -27.972906 -143.61136 -48.892479 173.04449 -51.457222 169.85814 -18.986887 -153.86423
15720000000 -27.699648 -146.50108 -47.001919 150.15222 -49.609093 151.54111 -18.872866 -160.9109
15730000000 -27.825933 -149.64809 -47.122551 115.17427 -49.166172 122.72404 -18.661613 -167.90546
15740000000 -27.591913 -143.78111 -48.09296 91.415207 -49.606365 96.680046 -18.553871 -174.60065
15750000000 -27.00709 -145.7124 -48.162476 68.797241 -50.008778 76.225655 -18.577509 178.90744
15760000000 -26.092239 -141.83795 -48.135303 44.472004 -50.227478 57.878162 -18.564341 171.46199
15770000000 -25.356476 -147.73492 -48.720818 15.266744 -49.90218 36.184326 -18.265493 162.74402
15780000000 -25.16806 -148.30002 -50.180714 -5.6806912 -50.047653 14.027376 -17.674284 155.36452
15790000000 -24.743505 -150.99051 -50.477089 -22.472645 -49.549809 -4.3616195 -16.836058 150.05043
15800000000 -24.461573 -149.58774 -50.909271 -45.484585 -49.460186 -30.771605 -16.166124 146.61578
15810000000 -23.885677 -149.85663 -50.996429 -68.322777 -49.089104 -54.529655 -15.799264 144.52609
15820000000 -23.196779 -150.03397 -51.309116 -93.938545 -49.235092 -79.466164 -15.665295 142.30724
15830000000 -22.56242 -153.3335 -53.042103 -117.62359 -48.995422 -106.23367 -15.627233 138.94209
15840000000 -22.587818 -154.76636 -53.90786 -130.41725 -49.461441 -133.51151 -15.581482 134.51889
15850000000 -22.632071 -157.65327 -54.225952 -149.06175 -50.625748 -155.78354 -15.40572 129.7516
15860000000 -23.011112 -153.88824 -54.770767 -162.1476 -51.069138 -172.29414 -15.116601 124.91673
15870000000 -22.719482 -152.67075 -53.856766 -179.11778 -50.474712 163.33682 -14.811874 120.51954
15880000000 -22.243296 -148.43147 -54.249973 162.50227 -51.4589 138.49156 -14.460258 116.58914
15890000000 -21.299454 -151.19014 -54.127777 144.76228 -51.797546 113.04772 -14.123365 113.07835
15900000000 -21.054024 -154.78085 -53.249092 126.13721 -52.894711 89.103088 -13.75507 110.27739
15910000000 -20.838757 -157.64023 -52.969799 110.02374 -55.594318 71.351013 -13.409816 107.8476
15920000000 -20.902702 -159.52269 -51.681492 89.013672 -55.213669 65.603134 -13.120171 105.66254
15930000000 -21.018467 -158.72401 -51.369106 60.533134 -54.857128 44.179134 -12.945006 103.58574
15940000000 -20.834425 -155.96864 -52.145412 37.113152 -56.093899 17.075314 -12.856201 101.52765
15950000000 -20.252966 -154.67928 -51.422363 21.028372 -55.9049 11.500936 -12.822998 99.15036
15960000000 -19.869152 -154.43881 -50.599537 -8.1573896 -56.00882 -3.3980696 -12.800363 96.450249
15970000000 -19.443443 -155.33456 -50.754822 -34.716217 -55.505604 -18.593193 -12.739405 93.068245
15980000000 -19.460423 -155.44847 -51.2202 -56.569305 -53.980133 -40.032764 -12.612226 89.377579
15990000000 -19.128313 -153.96704 -50.787857 -79.053673 -54.025436 -59.093117 -12.411717 85.733337
16000000000 -19.051464 -154.45457 -50.396748 -107.03323 -52.209835 -80.181686 -12.157724 82.721542
16010000000 -18.429308 -153.82925 -51.697613 -138.32683 -52.484882 -107.86353 -11.870854 80.518188
16020000000 -18.307608 -156.27495 -52.702 -157.10568 -52.60479 -130.06868 -11.687717 78.685303
16030000000 -17.992182 -157.03363 -52.620537 178.2198 -52.336369 -153.09413 -11.60922 76.830566
16040000000 -18.024944 -158.26434 -54.240135 153.34616 -51.939697 -170.07668 -11.655304 74.47184
16050000000 -17.761616 -157.50478 -54.93882 135.22365 -50.921894 157.9192 -11.718604 71.794411
16060000000 -17.648535 -155.25436 -56.13242 105.43465 -51.379143 129.15953 -11.74777 68.750145
16070000000 -16.866785 -153.89912 -58.632343 98.1689 -52.787792 104.94678 -11.711556 65.775383
16080000000 -16.320721 -154.47951 -58.351387 83.309631 -52.345001 87.299576 -11.692263 62.57935
16090000000 -15.7024 -156.56386 -59.968746 59.622608 -52.744278 58.152798 -11.729892 59.295715
16100000000 -15.684962 -159.34393 -60.55917 64.82531 -53.398106 35.200134 -11.769652 55.926247
16110000000 -15.60461 -160.50497 -60.119179 49.305767 -53.56414 4.9952078 -11.742888 52.248837
16120000000 -15.796025 -160.17152 -58.645027 37.812267 -55.714451 -20.473503 -11.667795 48.893021
16130000000 -15.413923 -158.68025 -56.89822 13.133843 -56.444389 -37.177929 -11.553058 46.45713
16140000000 -15.147424 -158.14244 -57.517586 -3.1961236 -57.892723 -55.359959 -11.504124 44.854877
16150000000 -14.477362 -159.03136 -56.0303 -15.567344 -60.988441 -76.098145 -11.615821 43.111225
16160000000 -14.097116 -160.64189 -54.393074 -40.536236 -63.095665 -76.526672 -11.91778 40.677673
16170000000 -13.602945 -162.84821 -53.351315 -63.01915 -60.478359 -62.402981 -12.272098 37.062801
16180000000 -13.567353 -164.37469 -52.645657 -98.687523 -58.398338 -102.20142 -12.60679 32.355701
16190000000 -13.248981 -165.32375 -54.234074 -121.4702 -61.033699 -119.26614 -12.822316 27.740627
16200000000 -13.233174 -165.26535 -52.363499 -138.15646 -57.146069 -120.27435 -12.988115 23.626091
16210000000 -12.811873 -165.80289 -53.574768 -169.2715 -58.557247 -142.21552 -13.15539 19.819031
16220000000 -12.767337 -166.05446 -53.940556 171.89473 -55.959049 -155.4001 -13.391738 15.882671
16230000000 -12.371191 -166.97084 -52.289654 150.70844 -53.115425 178.31882 -13.72121 11.609694
16240000000 -12.300508 -167.48163 -52.765945 123.30956 -53.234127 149.28476 -14.027606 7.6046772
16250000000 -11.950225 -168.75674 -52.942013 97.428719 -52.239647 121.01694 -14.349873 4.5585718
16260000000 -11.713263 -169.591 -53.331944 64.270386 -52.723869 86.093979 -14.744067 1.9635671
16270000000 -11.276956 -171.81456 -54.710968 43.967297 -53.353222 72.97451 -15.384467 -0.74581188
16280000000 -11.112983 -174.13686 -55.916416 24.729053 -52.724583 47.278854 -16.289085 -4.7766423
16290000000 -10.901296 -176.19179 -56.972851 12.487854 -52.860592 26.215261 -17.329548 -10.651812
16300000000 -10.947885 -177.3051 -56.715172 -7.898458 -52.638771 1.1889524 -18.275063 -18.682018
16310000000 -10.781816 -177.54663 -55.495609 -33.258274 -52.229179 -25.455547 -19.176893 -27.002892
16320000000 -10.689599 -176.60321 -58.430984 -61.46814 -53.434361 -54.002285 -19.817795 -34.199177
16330000000 -10.1967 -176.47694 -59.607849 -63.422638 -54.15826 -76.846146 -20.676628 -42.56292
16340000000 -9.9103165 -177.72905 -59.035763 -72.840851 -54.720516 -103.69536 -21.766645 -50.624523
16350000000 -9.5196447 -179.87633 -56.230606 -97.743431 -54.222992 -113.76851 -22.862505 -60.179836
16360000000 -9.4503546 177.44193 -58.044594 -122.27662 -54.202755 -147.85397 -24.289713 -70.072952
16370000000 -9.421648 175.03352 -58.113384 -134.62553 -55.066811 -172.43303 -25.655949 -82.537766
16380000000 -9.5579863 173.82191 -57.541954 -153.36864 -56.832523 167.48575 -27.36109 -103.14095
16390000000 -9.4438 173.68762 -57.163044 -171.01418 -58.544971 148.5484 -27.60605 -131.54347
16400000000 -9.3114815 173.49161 -56.28196 171.61255 -60.019459 134.84198 -25.908295 -155.85776
16410000000 -8.9234009 173.15216 -54.206726 148.96442 -59.27771 127.62248 -24.090155 -168.22452
16420000000 -8.6328182 172.02586 -54.332024 115.97031 -58.833225 106.06971 -22.601894 -176.32585
16430000000 -8.3013687 170.30551 -54.746239 95.871063 -58.162777 85.807388 -21.662067 176.74719
16440000000 -8.2229567 168.62956 -53.512249 70.210358 -58.69199 63.186005 -20.79353 169.02611
16450000000 -8.079668 167.30499 -54.720394 46.686367 -60.717899 57.113396 -20.047949 162.09987
16460000000 -8.0843754 166.33072 -53.939026 20.740623 -58.915997 35.482323 -19.177183 157.03098
16470000000 -7.9997377 165.45071 -55.157574 1.3341532 -57.962475 28.266212 -18.443253 151.54918
16480000000 -7.9440789 164.82822 -54.579891 -20.533867 -56.16301 -3.1126702 -17.90745 145.71866
16490000000 -7.7833772 163.70828 -54.472588 -42.29546 -56.347565 -18.443392 -17.406464 139.82611
16500000000 -7.7304859 163.25821 -54.649906 -72.279007 -55.719738 -43.439552 -16.59951 134.677
16510000000 -7.4260979 162.17587 -54.356556 -94.480652 -53.745266 -62.87035 -15.713008 130.30084
16520000000 -7.2711997 161.24344 -55.490795 -134.83522 -54.983578 -107.53941 -15.012884 128.07214
16530000000 -6.9572983 159.62003 -57.768311 -145.35347 -55.239201 -116.7588 -14.544497 126.98017
16540000000 -6.8602276 158.22723 -57.507092 -175.94432 -54.523941 -147.65828 -14.263701 124.98201
16550000000 -6.7264919 156.53903 -58.878036 169.18623 -54.733986 -168.9416 -14.187366 121.89895
16560000000 -6.7466488 155.89063 -60.726887 143.34709 -55.385639 167.98656 -14.004049 118.16138
16570000000 -6.6792517 155.24438 -61.092503 118.86025 -55.233578 135.36789 -13.706974 114.48196
16580000000 -6.5943875 155.56059 -67.811287 117.61146 -57.421406 111.04141 -13.351464 111.19603
16590000000 -6.3705721 154.81381 -63.744537 113.20068 -55.624454 93.172218 -13.078716 108.42161
16600000000 -6.1474299 154.05318 -65.246933 112.8481 -57.12986 65.382446 -12.85292 105.63307
16610000000 -5.9095535 152.16125 -61.021919 100.66853 -57.595753 46.119473 -12.630194 102.67403
16620000000 -5.771852 150.448 -61.77903 70.338135 -58.553623 16.846334 -12.294932 99.760658
16630000000 -5.6800876 148.45866 -60.861111 67.11924 -63.561413 -5.5093942 -11.917994 97.540573
16640000000 -5.645052 147.70186 -59.320488 45.962021 -63.116364 -13.594137 -11.572141 96.205482
16650000000 -5.5028033 146.92467 -56.844875 24.010649 -67.000069 -15.42023 -11.400942 94.973915
16660000000 -5.3422718 146.55188 -55.701603 -8.0115118 -62.967907 -10.107578 -11.404037 93.568497
16670000000 -5.1210313 145.76672 -56.099697 -29.648787 -62.812008 -30.057337 -11.506124 91.276878
16680000000 -4.9184513 144.89893 -54.906715 -58.783573 -60.716263 -58.771564 -11.502011 88.123528
16690000000 -4.7282043 143.58008 -55.69223 -85.403404 -60.646946 -72.423752 -11.385106 84.105469
16700000000 -4.605732 142.28062 -55.19162 -114.46823 -60.856621 -90.319221 -11.201809 80.792343
16710000000 -4.4694319 140.8546 -56.379314 -133.43204 -60.558735 -99.286392 -10.963587 78.106674
16720000000 -4.3848147 139.65894 -56.524361 -150.62326 -57.487312 -119.02871 -10.767824 76.066811
16730000000 -4.2304239 138.35036 -55.341518 -172.50111 -55.798447 -148.96603 -10.617464 74.190865
16740000000 -4.1051826 137.10219 -54.52869 157.35783 -54.806839 -176.37657 -10.51499 72.448395
16750000000 -3.9585495 135.78441 -55.375916 122.45216 -54.822414 151.63487 -10.392653 70.64666
16760000000 -3.805531 134.64452 -57.627316 100.70633 -55.34473 126.33119 -10.373319 68.663116
16770000000 -3.635787 133.41174 -57.63055 79.143547 -55.459068 102.08537 -10.384176 66.852318
16780000000 -3.4789779 132.24184 -59.050823 53.710278 -55.361794 80.148613 -10.440802 64.661186
16790000000 -3.3224552 130.87988 -60.401855 40.211994 -55.373562 54.563404 -10.511809 61.993626
16800000000 -3.1950176 129.46017 -60.405243 24.612118 -54.800949 27.10854 -10.558291 58.486557
16810000000 -3.0792644 127.98075 -61.141228 3.5777745 -55.717918 -1.521914 -10.56505 54.798866
16820000000 -2.9877512 126.47102 -63.870449 -20.535967 -58.158207 -30.999743 -10.490937 50.930954
16830000000 -2.887079 124.96229 -63.559616 -8.6497946 -57.68335 -42.271221 -10.370781 47.702259
16840000000 -2.778523 123.63213 -61.178501 -22.841204 -57.913548 -63.995358 -10.206268 45.109989
16850000000 -2.6426449 122.14724 -59.669922 -52.786423 -58.173882 -86.688362 -10.047737 43.156578
16860000000 -2.4993753 120.65826 -59.971218 -71.991714 -59.45385 -115.42678 -9.9615526 41.527607
16870000000 -2.3632751 119.07875 -59.211323 -95.834206 -60.184036 -135.08975 -9.9800196 40.111897
16880000000 -2.2490363 117.59737 -59.380806 -108.27066 -63.164291 -154.91527 -10.100785 38.139988
16890000000 -2.1351752 116.14253 -57.006069 -122.05621 -61.761753 -133.48956 -10.296639 35.437916
16900000000 -2.0460708 114.84355 -55.105461 -149.65092 -59.319363 -160.65623 -10.487741 31.724962
16910000000 -1.9431591 113.44867 -54.968498 175.1239 -58.10677 175.47935 -10.596703 27.557264
16920000000 -1.8672493 112.07407 -54.465862 145.78941 -57.923397 143.90948 -10.582484 23.225121
16930000000 -1.7702721 110.57815 -55.264809 115.75645 -58.49971 116.70403 -10.50958 19.217337
16940000000 -1.697848 108.98314 -56.100876 97.258492 -59.426815 103.36105 -10.414963 15.452947
16950000000 -1.6030883 107.32894 -55.041706 74.208244 -57.39093 84.51474 -10.401076 12.008484
16960000000 -1.5226287 105.62621 -55.637085 45.920601 -57.988853 58.929478 -10.433448 8.636488
16970000000 -1.4343201 104.00092 -55.368656 26.774206 -56.697609 36.572594 -10.51495 5.6619554
16980000000 -1.3484646 102.40308 -55.575947 -2.1780529 -56.26358 10.216793 -10.622642 2.5131781
16990000000 -1.2534845 100.84796 -55.397705 -30.261061 -56.06221 -15.702584 -10.761973 -0.71488035
17000000000 -1.1735063 99.327019 -56.656673 -57.265858 -56.324654 -42.309753 -10.941481 -4.8022923
