!Keysight Technologies,P9374A,MY57211807,A.19.30.04
!Date: Friday, May 08, 2026 14:28:25
!Correction: S11(C  2-Port  ) 
!S21(C  2-Port  ) 
!S12(C  2-Port  ) 
!S22(C  2-Port  ) 
!S2P File: Measurements: S11, S21, S12, S22:
# Hz S  dB   R 50
13000000000 -18.351788 58.762562 -39.48658 117.79948 -39.357044 115.05954 -10.977326 -80.736649
13010000000 -18.606659 56.763531 -38.938019 96.922989 -39.222549 92.851974 -11.279394 -83.81456
13020000000 -19.309988 56.128727 -38.631596 75.300507 -39.074154 74.410645 -11.636835 -87.061699
13030000000 -19.849997 59.005909 -38.68618 49.065845 -38.763466 50.09779 -12.00793 -90.466743
13040000000 -20.3738 62.397175 -38.99316 29.344627 -38.97784 28.13344 -12.441996 -94.254089
13050000000 -19.919733 67.461723 -39.025791 6.100853 -38.937561 4.5433373 -12.899362 -98.24382
13060000000 -19.660213 66.179794 -39.157318 -15.496125 -39.277252 -16.252817 -13.365873 -102.60378
13070000000 -19.498528 64.392456 -39.29694 -34.758987 -39.437901 -34.683929 -13.751919 -107.59608
13080000000 -19.48443 62.007717 -38.90818 -54.952404 -38.79084 -55.247105 -14.0531 -112.69747
13090000000 -19.591944 59.868439 -38.49752 -79.447586 -38.543453 -80.74118 -14.377139 -117.69106
13100000000 -19.842554 60.96825 -38.628555 -103.94505 -38.714561 -104.40262 -14.811577 -122.39275
13110000000 -19.540852 61.102081 -39.093678 -126.83663 -39.104561 -127.11913 -15.345543 -127.18382
13120000000 -19.659575 61.043587 -39.416874 -147.01584 -39.341728 -146.67978 -15.888626 -133.10078
13130000000 -19.350401 60.623222 -39.061096 -165.91875 -39.0541 -166.49687 -16.376301 -140.06686
13140000000 -19.572435 61.097729 -38.820251 171.70116 -38.72506 170.92253 -16.693878 -147.64468
13150000000 -19.484972 60.054916 -38.652046 145.45786 -38.49361 144.89297 -16.987234 -155.33928
13160000000 -19.873886 62.528366 -39.178036 122.98849 -39.120663 121.33881 -17.31937 -162.99908
13170000000 -19.535238 63.280598 -39.322906 102.54422 -39.500919 101.90533 -17.707067 -171.65616
13180000000 -19.277666 62.621449 -39.297039 80.226402 -39.384254 81.808456 -17.909271 178.15236
13190000000 -18.829609 59.965549 -39.189369 57.817505 -38.899307 58.926872 -17.761225 167.57033
13200000000 -18.759323 54.983871 -39.128769 35.124504 -38.792229 34.568089 -17.371391 158.29144
13210000000 -19.088163 51.537369 -39.176914 11.599383 -38.984848 10.463931 -16.953739 150.5183
13220000000 -19.55427 49.835129 -39.311306 -10.684963 -39.015297 -11.558976 -16.703461 143.09323
13230000000 -19.941841 51.042797 -39.720211 -36.923115 -39.363987 -38.269962 -16.517849 134.65926
13240000000 -20.170977 55.155685 -40.256687 -55.256035 -40.114719 -57.168331 -16.177889 125.45296
13250000000 -19.436655 57.223648 -40.285412 -76.60128 -40.226082 -78.109482 -15.48637 116.5327
13260000000 -19.046021 55.925812 -40.115925 -99.673187 -39.906193 -99.86644 -14.676314 109.09503
13270000000 -18.60145 52.596336 -40.617027 -122.56862 -40.196861 -124.68818 -13.966325 103.62247
13280000000 -18.639555 47.145218 -40.814774 -143.59534 -40.482269 -147.73106 -13.413024 98.702324
13290000000 -19.24679 42.6115 -40.731388 -167.46436 -40.860653 -170.09039 -13.011653 93.541885
13300000000 -19.757341 42.149281 -41.351276 169.41437 -41.231209 168.90366 -12.610924 87.791824
13310000000 -20.226599 41.178032 -42.011772 150.00305 -41.612171 147.96555 -12.101082 81.683578
13320000000 -20.280191 42.688503 -41.730881 130.6087 -41.73003 126.56358 -11.538011 76.297089
13330000000 -20.158077 42.121147 -41.633663 106.29439 -41.829651 102.63699 -11.011334 71.7687
13340000000 -19.894716 42.374359 -42.523052 81.04203 -42.871735 79.882942 -10.570637 67.754135
13350000000 -19.84358 39.35405 -43.155525 63.820004 -43.138336 64.448227 -10.20424 63.491535
13360000000 -19.781498 38.30294 -43.385616 45.213375 -43.003838 41.277176 -9.885849 58.477547
13370000000 -19.974365 36.358582 -42.975895 25.97871 -43.340126 21.302338 -9.5368271 53.108253
13380000000 -19.789419 34.601818 -43.168938 2.0673463 -43.537937 0.38186309 -9.1107407 48.145496
13390000000 -20.415545 30.816994 -43.773483 -20.467039 -43.889816 -21.183748 -8.6732922 43.731678
13400000000 -20.428417 30.470716 -44.113926 -38.088177 -44.169968 -41.809589 -8.2815094 40.010197
13410000000 -21.169308 25.048868 -43.671219 -60.58123 -44.367924 -60.044357 -7.9949951 36.481308
13420000000 -21.741663 26.930428 -44.703629 -84.257744 -44.24519 -84.08548 -7.798759 32.503731
13430000000 -22.188477 25.17651 -45.313873 -99.452148 -45.293774 -104.59801 -7.6341543 28.077291
13440000000 -22.18124 28.485603 -44.979919 -117.34013 -45.754189 -121.65459 -7.4769731 23.449154
13450000000 -21.927185 29.947371 -44.806503 -136.55833 -45.408768 -135.79855 -7.2637267 18.765802
13460000000 -21.074747 27.700951 -44.221581 -161.32375 -44.361877 -158.71335 -7.0358663 14.60582
13470000000 -21.329176 20.825888 -45.143272 171.92976 -45.017109 171.51212 -6.844842 10.803737
13480000000 -21.235844 17.303722 -45.862293 154.66017 -46.496838 152.41176 -6.7050118 7.1238041
13490000000 -22.616446 9.3539047 -46.375202 139.37305 -47.076313 142.43657 -6.6040988 3.351167
13500000000 -23.440487 11.988573 -46.087933 122.81216 -45.717377 126.83043 -6.5845761 -0.71616662
13510000000 -25.023706 14.347944 -45.501503 100.9374 -45.077412 100.849 -6.5802798 -4.7211752
13520000000 -24.769299 21.738394 -45.497051 79.272728 -45.639729 77.23381 -6.574472 -8.4623222
13530000000 -24.650257 23.521162 -45.615089 56.741146 -45.555954 61.217758 -6.5606194 -12.118636
13540000000 -23.594515 21.283175 -46.324631 35.28027 -45.934551 38.539433 -6.5503397 -15.843021
13550000000 -23.567692 15.3022 -46.317719 22.904533 -45.797749 23.511423 -6.5986195 -19.632477
13560000000 -23.376667 8.1221828 -45.344284 -3.2501175 -44.946739 -0.53885758 -6.6818204 -23.557373
13570000000 -25.301376 4.3809352 -46.414036 -25.599663 -45.49168 -23.665779 -6.7661209 -27.342308
13580000000 -25.336172 5.3760657 -46.395653 -43.601437 -45.415466 -44.933681 -6.846415 -30.778847
13590000000 -27.290878 7.1472735 -46.835663 -62.828732 -46.088844 -64.907272 -6.8891931 -33.945187
13600000000 -26.764534 15.109385 -46.914288 -77.652802 -46.123863 -81.722046 -6.9292803 -37.034813
13610000000 -27.289322 22.043497 -45.872562 -96.646225 -45.101612 -102.9705 -7.0533595 -40.173157
13620000000 -26.484987 19.641127 -45.786495 -118.85066 -45.149246 -124.97046 -7.2279525 -43.293816
13630000000 -27.218208 21.340672 -45.04517 -140.75276 -44.786373 -147.83824 -7.4049993 -46.513275
13640000000 -26.313934 15.249075 -45.270477 -168.05531 -45.283573 -174.16713 -7.5626206 -49.840702
13650000000 -27.649462 12.088094 -46.150421 172.57201 -45.900272 167.63289 -7.6720691 -53.124592
13660000000 -27.185175 11.659763 -46.114784 154.76826 -46.177383 147.54619 -7.7659874 -56.241768
13670000000 -28.580366 7.9691653 -46.352955 137.77914 -46.570049 130.21205 -7.8863201 -59.120655
13680000000 -28.6479 10.39361 -45.025101 121.52295 -45.985378 113.89203 -8.0379066 -61.7141
13690000000 -29.621077 15.057642 -44.362377 94.111656 -45.394348 91.412834 -8.2054205 -64.309441
13700000000 -29.297283 24.791115 -44.262344 70.972076 -44.622253 69.091087 -8.3971367 -67.180298
13710000000 -28.19462 32.722874 -44.549484 43.731049 -45.086212 39.126637 -8.5850058 -70.202415
13720000000 -27.072386 26.594666 -44.882938 21.237879 -46.111393 19.321947 -8.7534389 -73.254425
13730000000 -27.534792 27.368618 -45.808895 2.6634169 -46.620705 3.0481267 -8.9101639 -76.213486
13740000000 -26.624466 20.433306 -45.426586 -14.467343 -46.123428 -13.759068 -9.0631399 -78.903946
13750000000 -28.023184 12.163978 -45.147446 -34.49963 -45.776821 -32.201721 -9.2570543 -81.609024
13760000000 -28.835318 11.556552 -44.536972 -58.929699 -44.944885 -55.818592 -9.4947367 -84.413277
13770000000 -30.759754 9.9982424 -44.64378 -83.594063 -45.076305 -81.030449 -9.7234535 -87.485916
13780000000 -31.049267 21.058409 -44.71442 -104.45935 -45.075859 -103.09899 -9.9087324 -90.818794
13790000000 -29.533756 30.243685 -45.192753 -130.35507 -45.610737 -124.92049 -10.04475 -94.191238
13800000000 -28.142412 23.945679 -45.590187 -149.23409 -45.496082 -143.81125 -10.158043 -97.051781
13810000000 -27.094631 22.318977 -45.338642 -173.3024 -45.056095 -168.01674 -10.286023 -99.429802
13820000000 -26.270681 9.8058548 -46.195431 170.21765 -45.61541 171.74562 -10.466071 -101.60384
13830000000 -26.794508 6.6044669 -45.64407 149.38762 -45.341469 149.61479 -10.698359 -104.11607
13840000000 -26.717815 -5.2005839 -45.783356 126.12966 -45.65744 127.51357 -10.939404 -107.37812
13850000000 -28.888195 -5.4655313 -45.760506 106.09942 -45.233532 109.84 -11.147657 -110.9837
13860000000 -29.748177 -4.8594556 -45.861591 83.654655 -44.75135 85.278915 -11.316512 -114.52309
13870000000 -30.221392 4.2140231 -45.650192 60.448383 -44.952526 59.395592 -11.460536 -117.62568
13880000000 -29.846865 4.8331938 -45.863163 34.918797 -45.210457 34.573166 -11.618538 -120.47306
13890000000 -28.261896 7.4911294 -47.100555 14.016202 -45.931629 13.506093 -11.800433 -123.65563
13900000000 -27.603245 -5.7832189 -47.235752 -2.3093989 -46.275852 -7.732008 -12.02548 -127.13266
13910000000 -27.682032 -5.2656002 -46.915161 -20.817837 -46.365246 -26.940405 -12.187674 -130.75899
13920000000 -26.712946 -18.246429 -46.339211 -44.696514 -45.973953 -47.848721 -12.262752 -134.40443
13930000000 -28.071859 -28.180094 -46.660664 -69.818222 -46.31459 -74.252747 -12.329824 -137.68378
13940000000 -28.729036 -32.969353 -47.242332 -89.461151 -46.839771 -96.433502 -12.440569 -140.84979
13950000000 -29.952198 -39.828419 -47.251171 -111.12078 -47.114487 -120.99978 -12.644759 -143.84492
13960000000 -31.064823 -42.725567 -47.090553 -133.86935 -48.144573 -140.02673 -12.892362 -147.51379
13970000000 -32.073769 -40.161579 -47.728413 -158.93423 -48.132629 -158.00383 -13.109474 -151.81253
13980000000 -32.139168 -40.522892 -49.125694 -179.4919 -49.090466 176.88094 -13.232594 -156.81776
13990000000 -30.653872 -36.85318 -48.992104 167.09088 -49.23946 159.75215 -13.253958 -161.84628
14000000000 -29.010935 -50.695534 -48.472408 147.91843 -49.660507 141.10782 -13.225287 -166.59261
14010000000 -28.458868 -54.089546 -48.219173 120.06165 -49.842148 123.65546 -13.160892 -170.80663
14020000000 -27.265177 -64.627457 -48.954521 95.353004 -48.982552 99.651268 -13.100485 -174.96339
14030000000 -27.298267 -75.994629 -50.811584 74.685776 -50.50753 72.454994 -13.092739 -179.05513
14040000000 -28.298859 -86.276718 -51.027672 60.3321 -51.662071 57.034885 -13.050022 176.85413
14050000000 -29.040121 -89.583138 -51.199623 47.188976 -51.742393 49.307312 -12.97396 172.52785
14060000000 -31.439184 -98.592064 -50.378185 28.059895 -50.64793 28.971436 -12.900286 168.11101
14070000000 -33.182789 -85.965073 -50.071106 2.7336128 -49.996078 3.9341097 -12.832185 163.79601
14080000000 -33.086216 -89.890556 -50.489082 -21.205236 -50.974064 -20.481207 -12.768003 159.72528
14090000000 -31.977509 -76.604164 -51.393379 -44.304695 -51.320499 -39.698849 -12.705402 155.51222
14100000000 -29.342129 -93.311806 -52.526176 -59.397991 -52.27462 -55.642818 -12.641663 150.91032
14110000000 -28.515659 -102.35233 -52.034649 -73.278023 -51.649414 -68.271416 -12.528769 146.09354
14120000000 -27.413666 -118.87515 -51.57835 -94.902664 -50.739029 -93.40947 -12.36334 141.08189
14130000000 -27.229631 -128.70805 -51.671577 -119.03889 -50.79015 -118.92376 -12.109575 136.34952
14140000000 -27.314262 -142.64316 -52.556103 -137.8201 -51.694023 -138.1779 -11.849143 132.08083
14150000000 -29.341797 -147.10251 -52.752037 -154.02898 -52.566326 -156.66531 -11.644889 128.06865
14160000000 -29.762712 -147.06523 -52.647152 -173.33296 -52.1064 -173.65717 -11.496066 123.96116
14170000000 -31.399235 -140.03539 -52.738148 159.08112 -51.008751 159.41965 -11.375788 119.58377
14180000000 -30.059649 -135.33591 -55.250778 140.74458 -53.695419 129.53835 -11.192691 114.88798
14190000000 -29.353346 -136.99057 -54.816059 135.2412 -55.010494 125.89648 -10.931535 110.20452
14200000000 -28.038101 -141.34918 -55.214981 122.00571 -54.439693 110.06331 -10.618592 105.78729
14210000000 -26.970972 -149.43292 -53.263191 101.45425 -53.410435 90.070412 -10.335255 101.64028
14220000000 -26.480045 -158.78934 -53.149536 76.411491 -54.067905 67.408104 -10.099757 97.692474
14230000000 -26.704542 -168.27612 -54.005474 59.291847 -55.933727 54.270473 -9.922925 93.68486
14240000000 -27.241028 -170.95963 -54.680149 38.197365 -54.859791 37.24464 -9.7366657 89.618416
14250000000 -27.54303 -173.67799 -54.898693 29.1733 -55.231068 21.766188 -9.5299597 85.415817
14260000000 -28.369743 -175.75076 -53.681469 17.520294 -56.19297 11.090324 -9.3170156 81.231758
14270000000 -29.070503 -169.45813 -52.241631 2.3381355 -53.869156 4.2702909 -9.1271849 77.155609
14280000000 -28.975346 -169.02942 -51.515636 -29.218309 -53.127846 -20.585167 -8.9783545 72.962753
14290000000 -28.124756 -162.9944 -52.098225 -48.757721 -52.851803 -40.122654 -8.8545141 68.612785
14300000000 -27.354773 -168.9135 -52.174309 -64.924194 -52.125603 -58.557411 -8.7226171 64.022804
14310000000 -26.833252 -173.75984 -51.686882 -76.912079 -51.595116 -73.270203 -8.5636482 59.330124
14320000000 -26.868319 178.03317 -50.557434 -100.85462 -49.882717 -95.089493 -8.3639631 54.895794
14330000000 -26.403448 175.10783 -50.058678 -123.4632 -49.522816 -122.04613 -8.1444607 50.581516
14340000000 -27.247509 164.80481 -50.183853 -141.78078 -49.242344 -140.99733 -8.0118465 46.443726
14350000000 -28.056728 166.87335 -50.053802 -160.59538 -49.673004 -164.85022 -7.9381857 42.447063
14360000000 -29.846939 168.31728 -48.094109 -179.95763 -48.544418 -179.52988 -7.924284 38.288021
14370000000 -29.22699 -178.2887 -48.177696 151.71365 -47.749157 158.65492 -7.9295335 33.822567
14380000000 -28.694279 -177.53247 -47.950405 132.61586 -46.605774 130.41856 -7.9075341 29.061697
14390000000 -27.176645 -175.30174 -47.803379 109.64262 -47.308983 103.74561 -7.8779116 24.016041
14400000000 -26.831669 176.78844 -47.266609 91.039345 -47.48959 86.207619 -7.8591986 19.118839
14410000000 -26.737326 171.1418 -46.827301 70.310661 -46.646362 71.836945 -7.8327785 14.541126
14420000000 -27.039621 163.87242 -46.21442 43.689457 -45.411987 40.653721 -7.8548489 10.071924
14430000000 -27.874496 159.0246 -46.105087 21.979303 -46.112679 14.009268 -7.9089642 5.7960835
14440000000 -29.579556 160.70514 -45.66013 0.33951214 -46.439323 -4.61655 -7.9811783 1.2169257
14450000000 -29.444403 174.67337 -45.565014 -24.744539 -46.316082 -24.447115 -8.1294193 -3.3879368
14460000000 -28.525709 -177.06204 -45.450848 -48.53265 -45.601677 -45.01263 -8.2805223 -8.0550127
14470000000 -26.873056 -177.3373 -45.764347 -68.483109 -44.990452 -67.489525 -8.4795017 -12.744878
14480000000 -26.112858 179.65581 -45.718056 -88.657295 -45.181721 -94.55616 -8.7366734 -17.493641
14490000000 -26.209349 173.7426 -44.557491 -110.86694 -45.039181 -115.81532 -9.0217867 -22.552994
14500000000 -26.287754 173.69106 -44.679234 -138.3011 -45.075466 -138.62157 -9.3187351 -28.06497
14510000000 -26.799364 167.9682 -44.885891 -161.10236 -44.908195 -160.36423 -9.5736027 -33.72794
14520000000 -27.9403 174.73515 -45.282928 175.71541 -44.802742 176.93324 -9.7648726 -39.426849
14530000000 -27.771374 174.66156 -45.436195 158.59975 -44.87244 154.32816 -10.003242 -44.440804
14540000000 -27.197577 -173.65858 -44.492954 138.61519 -44.825741 133.94211 -10.28769 -48.715218
14550000000 -25.67849 -179.88133 -43.909584 111.5565 -44.242435 113.19515 -10.685586 -53.05788
14560000000 -25.475275 -179.7332 -44.379776 82.425423 -43.968464 82.389603 -11.200276 -57.842865
14570000000 -24.680708 175.37584 -45.254311 62.652542 -44.424854 58.979218 -11.745776 -63.531307
14580000000 -24.459044 176.77046 -45.280594 44.193508 -45.51395 35.657417 -12.283168 -69.928772
14590000000 -24.177132 171.37032 -44.672543 26.268061 -45.63168 24.001839 -12.781137 -76.428452
14600000000 -24.203142 173.30019 -43.916862 2.5066168 -44.137527 5.1005898 -13.229566 -83.005043
14610000000 -24.410526 169.51353 -43.507557 -25.215685 -43.252903 -26.363638 -13.762563 -89.588829
14620000000 -24.511278 175.58444 -44.28265 -54.871891 -43.859112 -59.077099 -14.293765 -96.541473
14630000000 -24.000057 172.87325 -45.703163 -73.420677 -46.238945 -81.555573 -14.77547 -103.80669
14640000000 -23.933636 175.57298 -45.337528 -88.154167 -46.511395 -87.41272 -15.131723 -111.11366
14650000000 -23.215796 175.55728 -44.470196 -109.5499 -44.409275 -104.98982 -15.500341 -118.6669
14660000000 -22.172989 173.60173 -43.921211 -136.64496 -43.351601 -137.3817 -16.01852 -125.60453
14670000000 -21.907503 168.17813 -44.342171 -164.34146 -44.519199 -167.79912 -16.60383 -132.87991
14680000000 -21.36447 163.29871 -45.148106 171.87331 -45.913986 170.68405 -17.227425 -141.67149
14690000000 -22.019688 158.69704 -45.822605 154.50806 -46.071259 158.90926 -17.667801 -151.8732
14700000000 -22.184364 159.49878 -45.235329 133.47604 -44.9487 137.95494 -17.820635 -163.04442
14710000000 -22.74568 161.03767 -45.752331 110.54907 -45.007622 111.06429 -17.704834 -174.09174
14720000000 -22.292561 164.31551 -45.198418 90.003174 -45.073856 85.233177 -17.536263 176.69958
14730000000 -21.860197 165.7822 -45.14954 65.108391 -46.162785 63.040344 -17.185102 168.85872
14740000000 -20.811338 163.66295 -45.194809 39.655521 -45.907513 46.097145 -16.899765 161.35977
14750000000 -20.294405 158.28047 -46.134838 12.756101 -45.516586 19.927471 -16.735542 154.58562
14760000000 -19.953543 150.81784 -47.119747 -2.5285764 -45.469765 -3.530869 -16.650745 147.47185
14770000000 -20.747982 144.60678 -46.354153 -22.05282 -45.836052 -27.808979 -16.537691 139.88512
14780000000 -20.952578 143.40822 -46.131916 -47.502728 -46.455082 -52.668045 -16.341846 131.94791
14790000000 -21.683918 145.32169 -46.230038 -75.831131 -46.482594 -72.564232 -15.952367 125.19826
14800000000 -21.089115 148.99786 -47.929268 -100.05334 -46.896526 -92.840256 -15.440426 119.17484
14810000000 -20.875517 149.79906 -48.565491 -111.11076 -46.175411 -117.11064 -14.944672 113.74986
14820000000 -20.025518 148.66116 -47.530315 -128.75685 -46.853374 -143.27823 -14.638744 108.33943
14830000000 -19.749187 144.91574 -46.068668 -157.858 -47.2313 -163.46602 -14.496279 103.79074
14840000000 -19.633385 138.48161 -47.432209 165.30363 -47.234779 170.60791 -14.235603 99.940079
14850000000 -20.401655 134.3027 -49.262966 144.61237 -47.504566 142.7753 -13.910381 95.6978
14860000000 -20.738243 132.26755 -51.412186 129.66656 -49.291157 118.47488 -13.647196 91.616158
14870000000 -21.529945 132.71378 -50.033527 125.37556 -50.237972 100.27167 -13.489409 87.586517
14880000000 -21.053669 133.13843 -48.622211 96.220825 -51.365189 83.630295 -13.529545 83.066612
14890000000 -21.0697 131.52048 -48.408447 70.505684 -49.742962 73.483101 -13.594134 78.578201
14900000000 -20.625954 128.94835 -49.314781 38.141216 -48.963467 38.373955 -13.456163 74.282082
14910000000 -20.75886 128.62839 -50.819984 19.407137 -49.53693 8.2227325 -13.077006 69.866112
14920000000 -20.379444 124.07275 -49.88063 0.17472501 -51.932743 -22.589474 -12.768888 65.976913
14930000000 -20.864895 123.21627 -50.746277 -31.773901 -55.033443 -37.207245 -12.548768 62.885689
14940000000 -20.937048 121.64111 -52.446262 -59.338982 -53.610325 -39.947754 -12.660544 60.225399
14950000000 -21.175541 123.55523 -54.581932 -74.52829 -53.973232 -74.022469 -12.883881 58.046848
14960000000 -21.096863 119.59193 -53.716862 -76.483551 -54.786442 -85.331322 -12.998079 55.547592
14970000000 -21.782793 119.9627 -52.29348 -109.5974 -55.927891 -111.58915 -12.9555 51.662361
14980000000 -22.152941 114.9177 -52.870209 -139.66556 -57.012596 -113.83691 -13.029075 47.690834
14990000000 -22.983889 119.92334 -54.778522 -176.64328 -53.749535 -139.65503 -13.182793 44.391342
15000000000 -22.810844 117.47929 -56.783981 179.2583 -53.234428 -178.55171 -13.500146 41.569874
15010000000 -22.801924 120.49951 -55.066391 148.96274 -55.893456 135.78056 -13.795707 38.909496
15020000000 -22.591084 114.87922 -56.890972 117.64503 -63.443867 130.95981 -13.94048 35.688385
15030000000 -22.582664 116.83435 -60.697502 53.913822 -63.994602 150.31648 -13.905881 32.322231
15040000000 -22.554972 109.87553 -72.060898 102.0339 -57.013859 120.93495 -13.949496 29.039427
15050000000 -23.237724 110.64166 -63.238823 110.0927 -57.95845 78.829979 -14.247075 28.633602
15060000000 -24.234049 108.91857 -62.400192 44.695438 -61.188812 30.232464 -14.56995 29.069628
15070000000 -24.93704 119.74107 -65.172371 20.768612 -69.617561 14.542509 -15.045351 28.944952
15080000000 -24.413748 122.94743 -74.273872 -106.10502 -66.223396 84.333473 -15.660772 27.171993
15090000000 -23.700415 125.70868 -73.848351 78.674644 -63.725998 4.7644773 -16.351439 25.392429
15100000000 -23.640512 120.42232 -73.82663 -168.79747 -64.967163 -92.755104 -16.855536 23.893078
15110000000 -23.969221 118.59724 -65.525803 120.24569 -63.879414 156.50734 -17.254887 23.594587
15120000000 -24.80839 116.0405 -62.390827 84.531998 -60.40239 78.518738 -17.529741 24.300663
15130000000 -25.043406 118.34933 -60.802902 69.266289 -62.674805 25.503691 -17.915539 24.801111
15140000000 -25.69779 121.04538 -56.877041 24.028351 -63.365528 15.695207 -18.353251 26.164036
15150000000 -25.204926 128.54373 -60.112293 -20.250505 -71.571472 23.382128 -18.63686 29.320818
15160000000 -24.306971 129.41202 -61.745403 -17.074083 -59.857964 10.515521 -18.513582 33.2234
15170000000 -23.43338 127.5023 -58.551712 -8.8957977 -57.587395 -9.9480076 -18.291019 35.69659
15180000000 -23.489927 121.84659 -53.650414 -49.946854 -55.392521 -51.842297 -18.320507 38.75663
15190000000 -23.907276 123.16487 -53.199173 -97.683563 -56.418991 -92.313606 -18.495165 43.076965
15200000000 -24.300392 125.15736 -58.186443 -128.55801 -58.760128 -92.463875 -18.43018 48.235157
15210000000 -23.929405 127.91962 -60.687241 -119.88602 -56.277802 -114.48378 -18.097757 50.462875
15220000000 -23.82164 130.69336 -54.178837 -118.0414 -54.902737 -119.18593 -17.855045 50.434547
15230000000 -23.034571 128.21516 -51.144928 -169.02812 -51.479488 -157.79329 -17.696466 49.717003
15240000000 -23.196886 126.16853 -52.90237 156.82704 -52.294773 173.86151 -17.478189 50.095886
15250000000 -22.958927 122.73083 -55.062069 133.52145 -52.32806 139.70258 -16.978054 50.395607
15260000000 -23.438885 119.72955 -54.916008 127.2242 -53.337456 124.91354 -16.344473 49.277416
15270000000 -23.714632 122.06469 -53.482983 112.7459 -52.677269 110.5238 -15.783382 48.08757
15280000000 -23.31579 123.88753 -51.390705 85.549881 -50.29248 92.361511 -15.261007 47.32222
15290000000 -22.635328 123.85801 -52.54414 55.200142 -49.712971 60.110527 -14.855738 47.12291
15300000000 -22.144686 119.58334 -52.622425 39.63892 -49.629875 29.133135 -14.612352 46.992363
15310000000 -22.229006 114.85851 -51.541683 23.320864 -51.224224 5.2906895 -14.415211 46.643761
15320000000 -22.514185 111.64703 -50.220314 -2.3253291 -51.267075 -5.7308626 -14.266089 44.822834
15330000000 -23.262535 111.25596 -50.630322 -30.713671 -50.190392 -28.283863 -14.129715 42.023041
15340000000 -23.535807 111.2233 -50.877602 -53.320675 -48.911701 -55.006306 -14.015048 38.696133
15350000000 -23.802067 116.53054 -51.366161 -69.122421 -49.831177 -86.682106 -13.865257 36.105431
15360000000 -23.247536 113.94302 -50.254089 -84.631569 -50.885082 -101.48849 -13.70259 33.53307
15370000000 -22.940817 115.22086 -49.304096 -111.7522 -50.831337 -120.39994 -13.564021 30.724726
15380000000 -22.139975 105.5776 -48.6931 -136.98204 -49.173347 -137.22212 -13.388257 27.143934
15390000000 -23.058928 99.601593 -49.961586 -165.81625 -48.75563 -168.11993 -13.24033 23.71978
15400000000 -23.722527 94.183655 -50.485096 -170.38126 -50.810356 167.47748 -12.993086 20.936708
15410000000 -24.889961 97.084518 -47.80872 166.09328 -50.236885 157.12585 -12.818209 18.548788
15420000000 -25.184616 97.561653 -47.14035 134.00581 -49.317329 138.12263 -12.855099 16.538679
15430000000 -25.236908 102.08724 -48.091766 101.0487 -48.12326 107.17522 -13.036491 14.650715
15440000000 -24.903038 99.589027 -50.409454 82.590645 -49.994141 76.87175 -13.292326 11.187368
15450000000 -24.916941 98.868217 -49.663342 73.36097 -51.049187 64.881706 -13.559599 5.985168
15460000000 -24.911222 91.020058 -48.647049 51.676868 -51.216679 54.028065 -13.746408 0.36148825
15470000000 -26.089643 88.030602 -47.505791 28.034216 -48.476124 40.209068 -13.753921 -4.8120036
15480000000 -26.727207 82.278786 -47.12999 -0.99868208 -46.701168 7.6369834 -13.724284 -9.4390125
15490000000 -28.33449 87.723915 -48.142868 -28.924328 -47.162643 -29.023342 -13.842943 -13.542714
15500000000 -28.045034 85.460976 -48.844681 -47.376541 -48.879662 -52.659344 -14.096771 -17.312214
15510000000 -28.581179 85.396049 -48.433796 -64.959785 -49.956005 -64.914383 -14.385479 -21.039757
15520000000 -28.953909 76.41819 -48.426655 -87.799194 -48.715984 -78.214516 -14.657804 -25.211151
15530000000 -30.675003 77.028641 -48.954144 -109.30974 -47.750843 -103.66298 -15.024069 -29.787046
15540000000 -32.310925 73.319603 -48.333942 -125.88213 -47.759888 -130.9081 -15.545483 -35.247528
15550000000 -33.341232 88.693893 -47.766289 -148.7233 -48.141487 -148.44112 -16.290253 -41.463226
15560000000 -34.528423 82.568588 -47.132912 -173.40059 -47.352844 -169.46909 -17.069164 -48.316978
15570000000 -34.695049 101.45105 -47.266602 157.8822 -46.976753 164.03618 -17.670826 -56.65284
15580000000 -34.717953 79.67791 -48.022621 134.68208 -46.965374 137.27644 -17.982153 -66.666718
15590000000 -36.870514 77.459534 -48.565933 117.49965 -47.215454 113.91644 -18.167818 -76.995972
15600000000 -39.757465 25.659781 -47.962154 94.395454 -48.170181 87.577591 -18.335257 -86.053963
15610000000 -47.423084 -77.037071 -48.601772 72.235245 -49.18594 75.973946 -18.591839 -93.474648
15620000000 -40.0252 -107.60995 -48.886154 52.325062 -47.957134 56.939102 -18.887691 -100.40497
15630000000 -36.241909 -153.6124 -48.488171 33.30019 -47.136948 32.041275 -19.389603 -108.58001
15640000000 -37.917992 -155.81644 -47.923534 7.7975669 -46.829945 3.6145785 -19.889874 -119.0647
15650000000 -36.788483 -169.68088 -48.436646 -15.20695 -48.136017 -23.962545 -20.181427 -132.2448
15660000000 -39.448406 -146.69812 -48.758865 -36.967228 -48.849464 -40.384529 -19.959057 -146.14833
15670000000 -36.688641 -144.2767 -49.218964 -58.532215 -48.823952 -59.643951 -19.305984 -157.25841
15680000000 -33.907997 -115.45023 -48.87402 -74.263206 -48.129734 -81.620308 -18.475512 -165.36823
15690000000 -30.065247 -130.53539 -48.414833 -98.471375 -48.671143 -106.53778 -17.770336 -172.39717
15700000000 -28.569939 -137.03288 -48.421989 -119.88998 -49.134438 -125.85558 -17.295204 -178.97968
15710000000 -28.045639 -146.56781 -48.76902 -144.2084 -49.048698 -145.60756 -16.908789 174.94115
15720000000 -27.970198 -147.35823 -48.857876 -163.16051 -48.787308 -164.70413 -16.474302 169.09247
15730000000 -27.927534 -147.79068 -48.336376 175.38731 -48.814034 170.36061 -16.023314 163.94743
15740000000 -27.304977 -143.3591 -47.859024 148.94078 -48.371441 146.36243 -15.674271 158.84065
15750000000 -26.811712 -146.47949 -49.35218 123.41332 -49.286526 118.71311 -15.383764 153.4496
15760000000 -26.21372 -144.46591 -49.136982 106.38944 -50.31646 106.42732 -15.084669 147.44249
15770000000 -25.619116 -148.30931 -49.684196 86.553185 -49.502945 84.934563 -14.598801 141.38701
15780000000 -25.435141 -148.14243 -49.183346 70.39119 -49.633156 67.319229 -13.998391 136.42004
15790000000 -25.056475 -149.97815 -48.241432 42.680321 -49.048401 40.079174 -13.383259 133.3795
15800000000 -24.507446 -146.60646 -48.709057 15.702653 -49.939854 16.581722 -12.843336 131.44438
15810000000 -23.392494 -147.7562 -49.194084 -9.6316929 -49.649479 -4.9927568 -12.539523 129.68352
15820000000 -22.819174 -151.56001 -50.242218 -25.348827 -49.919582 -24.012701 -12.419376 127.45617
15830000000 -22.376324 -155.57358 -49.533318 -49.127491 -49.589268 -46.694958 -12.388907 124.63604
15840000000 -22.73381 -157.89081 -50.182652 -74.336487 -49.447098 -76.560852 -12.275514 121.12924
15850000000 -23.213127 -158.49825 -50.871681 -96.539635 -51.289932 -100.11914 -12.121174 117.19792
15860000000 -23.298409 -151.37212 -51.76672 -113.46481 -51.620888 -110.0335 -11.892819 113.53079
15870000000 -22.700281 -150.14095 -50.817631 -133.02621 -50.720665 -131.36702 -11.640538 110.0513
15880000000 -22.001177 -147.14249 -51.815956 -153.45184 -50.869713 -159.88008 -11.353749 107.00534
15890000000 -21.004446 -150.93489 -51.185226 -174.22646 -51.703087 -179.99811 -11.078028 104.08259
15900000000 -20.743402 -155.8203 -50.953312 159.73363 -51.277721 158.27805 -10.814748 101.82434
15910000000 -20.834288 -160.10811 -51.991203 134.64127 -52.361919 135.6837 -10.569042 99.76107
15920000000 -21.092503 -161.34891 -52.948582 122.40378 -52.588879 118.34192 -10.390093 98.091965
15930000000 -21.449892 -158.43272 -52.154129 95.764175 -53.154789 91.140694 -10.277811 96.347229
15940000000 -20.939854 -153.68787 -53.312431 74.349846 -54.363235 72.930588 -10.243665 94.509201
15950000000 -20.173525 -153.23032 -52.588142 53.330326 -53.656944 58.48069 -10.258333 92.358459
15960000000 -19.669542 -153.64957 -54.574951 27.256371 -55.024815 36.345627 -10.273376 89.804764
15970000000 -19.257225 -155.52753 -55.489754 12.756794 -54.777515 20.268042 -10.25497 86.806938
15980000000 -19.282427 -156.61972 -54.668438 -8.3607216 -53.83596 -2.1508634 -10.176383 83.691559
15990000000 -19.20783 -155.98038 -55.920113 -25.380302 -54.386578 -28.011887 -10.017708 80.634659
16000000000 -19.280252 -155.01385 -55.708763 -40.84898 -55.135414 -40.471485 -9.8373547 78.055672
16010000000 -18.695663 -153.38618 -55.041195 -67.215202 -54.034012 -63.75845 -9.6789446 76.204964
16020000000 -18.345285 -154.48521 -56.423164 -88.43927 -54.50248 -93.215408 -9.5807209 74.733032
16030000000 -17.827511 -155.63434 -58.637703 -110.07985 -57.588261 -113.83853 -9.5671005 73.336189
16040000000 -17.730623 -158.33125 -58.691429 -103.56432 -57.749531 -116.32833 -9.6065159 71.380737
16050000000 -17.715387 -158.72064 -57.096493 -124.243 -56.446609 -137.81555 -9.7113695 68.991089
16060000000 -17.582535 -156.05133 -55.899155 -148.07918 -57.007004 -156.44257 -9.7927456 66.454559
16070000000 -17.011497 -155.0972 -55.718834 179.18678 -56.035755 178.46405 -9.8358068 63.809822
16080000000 -16.509159 -154.32996 -57.206772 168.40303 -56.811054 155.1394 -9.8643923 61.003643
16090000000 -15.832441 -155.3134 -56.594318 144.39311 -58.111801 130.66594 -9.9511452 58.132252
16100000000 -15.584509 -158.40807 -55.989361 128.49767 -58.22155 126.57046 -10.024035 55.138569
16110000000 -15.490355 -160.09766 -56.138 100.87435 -56.991695 103.7234 -10.066991 52.174038
16120000000 -15.618899 -161.09578 -56.138702 78.589561 -55.783127 79.615768 -10.006403 49.528774
16130000000 -15.484221 -159.74512 -57.913246 58.282169 -58.264591 43.955399 -9.9417925 47.564228
16140000000 -15.235809 -158.34698 -58.187275 42.10038 -61.897572 35.740688 -9.9425383 46.162682
16150000000 -14.569902 -158.77469 -57.037121 25.068384 -58.907986 38.664112 -10.107819 44.675529
16160000000 -14.071905 -160.01357 -57.758171 5.9706612 -57.799129 19.395391 -10.450686 42.932968
16170000000 -13.597457 -162.77141 -55.888161 -23.430737 -56.96714 -13.117779 -10.825806 40.153019
16180000000 -13.478843 -164.39355 -58.166725 -57.878479 -59.166393 -40.925179 -11.199403 36.354706
16190000000 -13.235514 -165.66904 -60.745369 -70.112503 -60.550522 -55.971577 -11.459381 32.246811
16200000000 -13.283848 -165.78351 -63.22113 -91.918411 -62.562431 -65.766914 -11.706591 28.317198
16210000000 -12.949233 -165.6001 -66.08506 -82.588234 -61.046879 -67.440521 -11.959309 25.112265
16220000000 -12.78127 -165.18999 -62.222126 -71.952057 -59.565369 -81.883377 -12.249613 21.978592
16230000000 -12.278576 -166.39862 -59.483757 -109.71507 -57.150814 -109.11507 -12.570186 18.91427
16240000000 -12.16014 -167.61844 -60.44759 -134.82413 -57.34243 -130.18011 -12.922403 15.697078
16250000000 -11.87954 -169.59315 -61.039722 -149.96237 -55.974583 -157.98489 -13.352983 13.340662
16260000000 -11.756873 -170.66576 -70.306145 -165.0463 -60.866135 159.90184 -13.848835 11.884579
16270000000 -11.437353 -172.11719 -59.55093 -138.02776 -60.508884 -165.35732 -14.559487 10.557684
16280000000 -11.247188 -173.53754 -57.139912 -166.35818 -57.993362 165.77087 -15.504947 8.3791046
16290000000 -10.946972 -175.01707 -54.971851 160.55444 -57.090282 135.36232 -16.701477 4.4017987
16300000000 -10.833094 -176.23349 -56.144825 128.68079 -57.260773 116.18574 -18.015966 -0.81925797
16310000000 -10.573623 -177.33682 -57.012924 121.48172 -60.084015 94.625145 -19.262646 -6.7890081
16320000000 -10.524096 -177.7695 -53.127869 104.10394 -56.188545 96.171707 -20.404499 -12.419088
16330000000 -10.245613 -178.03452 -52.492897 68.112221 -55.317989 65.890381 -21.895452 -18.684561
16340000000 -10.094333 -178.41203 -52.476921 41.27507 -54.404377 44.336369 -23.945435 -22.802191
16350000000 -9.7195816 -179.48029 -53.135307 19.892487 -55.657101 18.089252 -26.283373 -27.161314
16360000000 -9.525239 178.532 -53.507393 2.008424 -56.556889 7.8218689 -30.082428 -29.773624
16370000000 -9.3599787 176.24336 -52.538418 -16.241222 -54.369656 -3.553349 -37.131557 -28.676588
16380000000 -9.3656282 174.28905 -51.823929 -33.920078 -52.554909 -18.552572 -42.895477 129.14656
16390000000 -9.2944937 173.05313 -50.87204 -64.540497 -50.909924 -53.222843 -30.806446 141.99362
16400000000 -9.2407722 172.48296 -51.060921 -84.19117 -50.901302 -79.246407 -25.933388 145.01208
16410000000 -9.0221338 172.16103 -50.571995 -112.23593 -50.871502 -107.7928 -23.17384 145.37714
16420000000 -8.7988348 171.92044 -50.951351 -128.5296 -51.375195 -116.90524 -21.552549 144.6554
16430000000 -8.3965769 171.08414 -50.224087 -158.10466 -49.671661 -146.91452 -20.326952 142.06654
16440000000 -8.1858683 169.32352 -51.588852 -176.71404 -50.078018 -171.43147 -19.190714 138.30331
16450000000 -8.025383 167.51253 -51.229118 165.19119 -50.023182 168.76894 -18.182255 133.97995
16460000000 -8.020359 166.28125 -50.814095 150.76341 -49.405865 150.66672 -17.367561 130.76688
16470000000 -7.9515967 165.26213 -49.322605 126.08993 -47.904484 125.02993 -16.612589 127.7458
16480000000 -7.9472418 164.29012 -49.026764 97.711983 -47.977417 97.652664 -15.934619 124.12852
16490000000 -7.8286986 163.82253 -49.131992 76.61055 -47.995575 74.003365 -15.20277 119.71768
16500000000 -7.7131724 163.34457 -48.692646 51.300167 -47.739292 48.258926 -14.432977 116.09268
16510000000 -7.4121761 162.22867 -48.88089 26.285721 -47.93898 23.467781 -13.686815 113.72467
16520000000 -7.265347 160.94077 -50.68013 6.5721087 -49.099567 0.16806819 -13.077214 112.914
16530000000 -7.0005059 159.48972 -49.387905 -8.1572733 -48.480995 -16.280329 -12.706093 111.95563
16540000000 -6.9215136 158.31674 -49.085762 -32.07613 -48.301273 -41.499542 -12.498137 110.41229
16550000000 -6.7505002 157.03561 -48.456928 -53.499203 -48.066326 -62.508362 -12.391167 107.62522
16560000000 -6.7136106 156.24947 -48.023232 -79.638687 -47.934502 -87.884178 -12.19247 104.3949
16570000000 -6.5759435 155.4624 -47.884789 -104.67605 -48.099525 -111.70657 -11.91471 101.16644
16580000000 -6.5337481 154.88126 -47.920105 -128.85844 -48.354443 -135.98061 -11.605797 98.543732
16590000000 -6.3628898 154.35582 -48.612164 -152.36363 -48.658115 -158.90581 -11.363042 96.155426
16600000000 -6.2168536 153.45697 -48.540077 -169.97603 -49.299561 -179.90344 -11.128338 93.775764
16610000000 -6.0079374 152.20981 -48.083267 166.76019 -49.105385 160.96855 -10.906429 91.14666
16620000000 -5.8596683 150.9248 -48.246685 146.05455 -48.939457 141.23538 -10.595648 88.840797
16630000000 -5.6458936 149.33868 -47.714054 125.2617 -48.821503 121.73209 -10.290526 87.13475
16640000000 -5.5532408 147.89287 -47.620426 99.207787 -48.554966 96.790131 -10.033163 86.379738
16650000000 -5.4138579 146.66498 -47.506401 76.917053 -48.28326 76.498528 -9.9114304 85.40313
16660000000 -5.3308253 146.015 -47.44841 49.320011 -48.392975 49.698841 -9.9335499 84.107346
16670000000 -5.1513286 145.38812 -47.559402 28.594114 -48.275501 30.290865 -10.02775 81.634872
16680000000 -4.991704 144.73163 -47.831879 2.2128425 -48.687847 2.7025928 -10.059922 78.53083
16690000000 -4.7656717 143.82961 -48.336452 -19.355282 -49.136414 -17.6073 -9.9735575 75.077423
16700000000 -4.6148062 142.48918 -48.502457 -39.690758 -49.110306 -34.229137 -9.8192568 72.268173
16710000000 -4.4312792 141.05766 -48.369678 -62.158173 -48.635799 -56.7906 -9.6119213 69.96299
16720000000 -4.3531871 139.52759 -48.096893 -82.723 -47.946335 -78.921501 -9.456831 68.167015
16730000000 -4.2242112 138.20195 -47.873604 -109.33213 -47.736279 -106.71761 -9.3235188 66.540047
16740000000 -4.1233115 137.06772 -48.106396 -138.12863 -48.246769 -132.56963 -9.2416143 64.9757
16750000000 -3.9539199 135.89563 -49.566952 -160.19441 -48.874969 -154.43311 -9.1536789 63.603794
16760000000 -3.8002036 134.68893 -49.660877 -179.41893 -48.743782 -176.70485 -9.1418314 62.044621
16770000000 -3.6157262 133.35675 -50.354382 161.91974 -49.486176 160.08517 -9.1785145 60.364422
16780000000 -3.482631 132.03477 -49.358116 142.48735 -49.259914 143.03339 -9.2775621 58.333797
16790000000 -3.3370917 130.71298 -49.666653 114.65523 -48.738106 117.72335 -9.3890429 55.894791
16800000000 -3.2379825 129.44093 -49.778011 93.084991 -48.906067 93.424629 -9.4487324 52.796799
16810000000 -3.0989008 128.17828 -50.789337 70.31868 -49.752678 67.136383 -9.4523621 49.416039
16820000000 -2.9799509 126.70632 -50.444019 51.102081 -49.6227 47.066795 -9.390234 45.92136
16830000000 -2.8469994 125.08235 -50.795055 27.344059 -50.03627 22.921078 -9.2741346 42.900414
16840000000 -2.7434161 123.53273 -50.893139 9.2443743 -50.393719 4.1107874 -9.1403341 40.434193
16850000000 -2.6178818 121.87645 -50.411949 -15.905566 -50.134651 -21.102362 -9.0256071 38.737892
16860000000 -2.5225091 120.40158 -50.716167 -42.93861 -50.246166 -45.462364 -8.966383 37.412766
16870000000 -2.4000895 119.00098 -51.586636 -65.441055 -50.863628 -72.309662 -9.0194302 36.395576
16880000000 -2.2812362 117.73182 -52.345032 -81.97937 -51.975952 -91.991852 -9.1432247 34.902348
16890000000 -2.1408117 116.35904 -51.813808 -99.958961 -52.206905 -106.39925 -9.3609467 32.61116
16900000000 -2.0299706 115.01394 -51.196102 -126.27122 -51.285595 -130.96501 -9.5570946 29.160765
16910000000 -1.9153064 113.48499 -51.416832 -154.05055 -51.489136 -159.19952 -9.7178164 25.222595
16920000000 -1.8437302 111.97847 -51.924149 -178.99574 -52.090546 176.41687 -9.7463846 21.183102
16930000000 -1.7697873 110.39632 -53.107498 157.51579 -53.289219 149.59744 -9.7158289 17.40955
16940000000 -1.712316 108.89854 -53.732697 138.00487 -54.596001 134.18375 -9.6295729 13.920438
16950000000 -1.6191578 107.32108 -53.349953 121.27573 -53.987167 120.05692 -9.6301527 10.746588
16960000000 -1.5341125 105.71638 -52.944458 95.701477 -53.595943 91.715897 -9.6602077 7.7975311
16970000000 -1.4309601 104.07438 -52.918255 68.472672 -53.623329 65.154343 -9.7704058 5.1610074
16980000000 -1.3431627 102.45209 -53.86414 40.092716 -54.880249 39.204453 -9.9151697 2.5888071
16990000000 -1.2476481 100.84477 -54.975388 20.270716 -55.622005 18.034777 -10.105253 -0.13173263
17000000000 -1.1708754 99.309616 -54.593597 0.20131505 -56.109627 -2.2510176 -10.333035 -3.5338771
