!Keysight Technologies,P9374A,MY57211807,A.19.30.04
!Date: Friday, May 08, 2026 14:27:52
!Correction: S11(C  2-Port  ) 
!S21(C  2-Port  ) 
!S12(C  2-Port  ) 
!S22(C  2-Port  ) 
!S2P File: Measurements: S11, S21, S12, S22:
# Hz S  dB   R 50
13000000000 -18.752329 58.083683 -42.400486 117.22703 -42.494999 113.01148 -10.186761 -87.216743
13010000000 -19.11833 59.281376 -41.687069 97.467827 -41.849064 93.789925 -10.459707 -90.665039
13020000000 -19.091755 59.008465 -41.358593 74.723053 -41.581676 73.058365 -10.787158 -94.310608
13030000000 -19.598806 60.88113 -40.80788 49.549149 -40.976978 49.677299 -11.128002 -98.001488
13040000000 -19.829336 61.918282 -40.923515 25.125214 -40.937881 23.404358 -11.50516 -102.06993
13050000000 -19.804623 65.227463 -41.3834 -0.39062378 -41.566528 -2.6467776 -11.926436 -106.46673
13060000000 -19.681396 63.382763 -42.217915 -21.975506 -42.493385 -23.06547 -12.347042 -111.22199
13070000000 -19.818567 63.32621 -42.98135 -36.424103 -43.243195 -36.094532 -12.664176 -116.5309
13080000000 -19.833944 62.067165 -41.957306 -52.370266 -42.016479 -52.571148 -12.92674 -121.78252
13090000000 -19.796427 62.135899 -41.230267 -78.507668 -41.228523 -78.396881 -13.210356 -126.78512
13100000000 -19.664663 61.990448 -40.860401 -102.55375 -40.895264 -102.36876 -13.566313 -131.62317
13110000000 -19.436478 61.802135 -41.492435 -130.35211 -41.485069 -129.40324 -14.003044 -136.71323
13120000000 -19.541142 60.694332 -42.3456 -152.18451 -41.963318 -150.54596 -14.428373 -142.80908
13130000000 -19.319202 60.445885 -42.596306 -168.88142 -42.28463 -168.43431 -14.753927 -149.71617
13140000000 -19.544065 60.669437 -42.225414 173.05322 -41.966557 171.04498 -14.978416 -156.70076
13150000000 -19.512758 60.226158 -41.621838 146.19627 -41.525963 145.4314 -15.190701 -163.64348
13160000000 -19.856039 62.072212 -42.480659 123.0526 -42.390297 124.35812 -15.433392 -170.65634
13170000000 -19.492685 63.496841 -42.550312 105.72965 -42.106651 104.6655 -15.707315 -178.6478
13180000000 -19.306871 61.499756 -42.394604 83.744263 -42.010334 83.392181 -15.826892 172.20596
13190000000 -18.888872 59.072361 -41.948315 60.36375 -41.545006 57.951649 -15.681761 162.94234
13200000000 -19.157795 54.979267 -42.212986 35.942127 -41.831459 33.513271 -15.396238 154.98677
13210000000 -19.227739 54.116909 -42.62178 11.688724 -42.328506 8.3922386 -15.072961 148.25804
13220000000 -19.455671 52.472858 -42.716576 -8.0872269 -42.995144 -10.588086 -14.873634 141.56108
13230000000 -19.395742 51.991047 -43.146328 -33.109894 -43.182888 -33.219891 -14.747884 133.87383
13240000000 -19.838625 52.929329 -43.926807 -50.262348 -43.81184 -50.093842 -14.52555 125.60386
13250000000 -19.276976 54.352501 -43.502594 -69.230659 -43.41116 -71.188713 -14.026464 117.45281
13260000000 -19.414913 53.23571 -43.239872 -90.745377 -43.378948 -92.787933 -13.40134 110.38108
13270000000 -18.998882 51.945805 -43.154964 -115.06898 -43.210464 -115.47261 -12.834929 104.76777
13280000000 -19.201929 48.826443 -43.039341 -140.37646 -43.526749 -141.95061 -12.40922 99.779846
13290000000 -19.290955 47.440933 -44.050026 -167.2812 -44.411823 -166.18176 -12.091831 94.81601
13300000000 -19.35977 44.948132 -45.156174 172.21872 -45.512848 175.84502 -11.735558 89.169594
13310000000 -19.543879 41.224819 -45.635895 159.82027 -45.553661 162.21603 -11.303772 83.05706
13320000000 -19.921839 39.11198 -44.937664 138.89899 -45.157875 140.76421 -10.835249 77.503937
13330000000 -20.273148 39.036674 -44.680145 113.69772 -44.536823 116.15166 -10.41576 72.939392
13340000000 -20.254654 40.320621 -45.579025 88.937798 -45.567989 89.126541 -10.042591 68.914474
13350000000 -20.3095 40.209072 -46.311871 68.034904 -46.013958 69.634499 -9.7396574 64.617699
13360000000 -20.001249 40.140934 -46.66634 52.835953 -46.632927 52.038292 -9.4689503 59.544277
13370000000 -19.945021 39.082634 -46.542419 31.988266 -46.656887 33.201832 -9.1805735 54.034786
13380000000 -19.475706 35.467323 -47.425488 11.526711 -46.339931 13.647008 -8.8122463 48.986156
13390000000 -20.109928 30.432003 -47.372276 -4.4702168 -46.507305 -7.3076501 -8.416666 44.561512
13400000000 -20.417377 28.346851 -47.399876 -24.691172 -46.656464 -31.570528 -8.0441122 40.823071
13410000000 -21.3501 24.911531 -47.468998 -46.759945 -47.410168 -52.410152 -7.7887077 37.220001
13420000000 -21.829699 27.240257 -47.707687 -65.342949 -47.272984 -70.598328 -7.6286726 33.265152
13430000000 -22.085764 26.42992 -47.991608 -83.405937 -48.38401 -90.783409 -7.4924498 28.908611
13440000000 -22.030142 27.585499 -47.5019 -100.15781 -48.050549 -105.53657 -7.3633585 24.269756
13450000000 -22.027046 29.352184 -47.168056 -124.6003 -47.651131 -126.6488 -7.1860218 19.596418
13460000000 -21.16544 27.047691 -47.56131 -147.98557 -47.523865 -150.66953 -6.9755268 15.443484
13470000000 -21.440989 19.915308 -47.986668 -166.86847 -47.983463 -171.16084 -6.8024907 11.53527
13480000000 -21.70323 17.691505 -48.074017 174.50432 -48.540657 169.21246 -6.6720519 7.8479156
13490000000 -22.790146 13.356657 -48.217812 156.72499 -49.27969 155.62866 -6.5854712 4.0187798
13500000000 -23.146347 15.888832 -47.818695 134.62436 -48.219036 141.20578 -6.5766149 -0.051818486
13510000000 -23.887611 15.606252 -48.317825 114.74377 -48.079807 118.13358 -6.5831208 -4.0719676
13520000000 -24.293398 14.547917 -48.146797 94.447075 -47.484829 99.657387 -6.5945811 -7.8460245
13530000000 -24.901335 18.514809 -48.140522 77.281303 -46.9748 79.000175 -6.606545 -11.503438
13540000000 -24.512163 17.713627 -47.885273 57.620228 -47.424686 53.33934 -6.6185751 -15.229428
13550000000 -24.230864 18.651714 -47.559998 41.203552 -47.608131 37.713112 -6.6854744 -19.084806
13560000000 -23.922102 11.612973 -47.523426 13.70019 -46.938679 13.436333 -6.7905264 -23.108465
13570000000 -24.939178 11.773631 -47.340591 -3.689667 -46.935677 -6.1629276 -6.8919458 -26.951914
13580000000 -24.60317 7.8464932 -47.098553 -27.056728 -46.881962 -28.987982 -6.9832296 -30.536638
13590000000 -25.782358 6.0208507 -47.53783 -46.388645 -47.196426 -52.384464 -7.0470967 -33.770721
13600000000 -26.624681 4.3228722 -47.818825 -63.211235 -47.854412 -68.771942 -7.1163492 -36.903488
13610000000 -28.48193 16.39303 -46.309845 -79.183159 -46.975166 -84.964272 -7.2686567 -39.967567
13620000000 -27.877396 22.916553 -45.609543 -108.71043 -46.205235 -111.17426 -7.4738698 -43.136089
13630000000 -26.865032 28.525043 -45.618797 -134.19843 -46.149158 -136.89247 -7.6919951 -46.319351
13640000000 -26.074923 16.534922 -46.458733 -159.32436 -47.224724 -161.48561 -7.8789825 -49.662388
13650000000 -27.145206 13.521654 -46.949181 178.12297 -47.387012 -179.6557 -8.0340271 -53.038277
13660000000 -26.989105 10.436775 -47.475163 164.75134 -47.921516 166.58527 -8.1761589 -56.236526
13670000000 -28.173218 6.0623307 -46.849625 145.92647 -46.832359 146.85785 -8.3425303 -59.096867
13680000000 -29.055571 5.5269294 -46.261185 126.96004 -46.574253 125.06544 -8.51999 -61.679798
13690000000 -30.581474 19.209028 -45.505905 100.32013 -45.823589 101.20914 -8.7356806 -64.213417
13700000000 -28.647463 29.940405 -45.684391 75.683723 -45.698143 77.72789 -8.9625301 -66.904999
13710000000 -27.504375 29.371012 -45.869869 49.085392 -45.920124 51.228775 -9.1902571 -69.84874
13720000000 -27.069052 21.184099 -47.142395 27.607691 -46.468407 28.667898 -9.4087658 -72.795959
13730000000 -28.731771 23.831844 -47.39024 10.373165 -47.11137 8.2688751 -9.6253538 -75.552673
13740000000 -27.285763 25.335003 -47.129951 -3.5340707 -46.898201 -8.1918373 -9.8319492 -78.005966
13750000000 -28.119846 18.938814 -46.307686 -26.772928 -46.223518 -29.115816 -10.078632 -80.461166
13760000000 -28.14222 15.707265 -46.042843 -51.820126 -45.682346 -54.748955 -10.361475 -83.141121
13770000000 -29.836439 12.238486 -45.733044 -76.56292 -45.851898 -79.474915 -10.659508 -86.194832
13780000000 -29.720478 17.090364 -46.606339 -102.89577 -46.470451 -105.29313 -10.901045 -89.474297
13790000000 -29.72274 19.381762 -47.016636 -124.19267 -46.929459 -127.89243 -11.068187 -92.730545
13800000000 -29.025023 20.538982 -47.791016 -143.13139 -47.585941 -144.67366 -11.192754 -95.400978
13810000000 -28.368633 23.700356 -47.334805 -163.37262 -47.418507 -167.52858 -11.346881 -97.513084
13820000000 -26.488869 16.889442 -47.628574 178.95415 -47.886185 176.22014 -11.583138 -99.355522
13830000000 -26.438593 10.463824 -46.72015 156.98708 -47.368488 152.29895 -11.887864 -101.53539
13840000000 -26.119497 -3.4236495 -46.75621 128.59662 -47.564732 128.31967 -12.188347 -104.39854
13850000000 -28.716976 -7.4024363 -47.717705 106.60341 -47.62394 107.81116 -12.46432 -107.84164
13860000000 -29.645079 -4.3054504 -48.019333 84.418922 -47.840618 83.426018 -12.679689 -111.20329
13870000000 -29.654821 3.9302874 -48.561203 67.137032 -48.678928 64.361717 -12.869621 -114.20612
13880000000 -29.544519 0.06982886 -48.150261 44.61618 -48.335888 42.948956 -13.043932 -116.84089
13890000000 -28.641689 5.2299223 -48.146801 23.09968 -48.526485 22.246027 -13.271295 -120.0527
13900000000 -28.074242 -7.7722945 -48.539742 -2.3265598 -48.690891 -2.4203675 -13.530753 -123.55229
13910000000 -28.089872 -4.4515257 -48.664146 -21.277908 -49.072895 -21.245667 -13.73097 -127.19274
13920000000 -27.029387 -17.895351 -48.718445 -43.813099 -49.400146 -44.854919 -13.852508 -130.64487
13930000000 -28.497326 -23.538084 -49.329803 -67.540512 -49.627213 -63.809917 -13.93607 -133.6078
13940000000 -28.530762 -27.990038 -50.011623 -86.255836 -49.561958 -83.881348 -14.067001 -136.48428
13950000000 -29.00219 -33.531658 -49.180702 -107.02561 -49.185295 -109.75665 -14.322245 -139.55258
13960000000 -29.445215 -48.024094 -49.799084 -134.08549 -50.101017 -127.82721 -14.645784 -143.24135
13970000000 -32.316597 -48.483067 -50.108109 -153.73669 -49.631535 -148.86037 -14.955966 -147.77461
13980000000 -32.615093 -47.583366 -50.45211 176.97395 -50.45303 -179.84518 -15.118011 -153.09801
13990000000 -31.716644 -33.686832 -51.075958 157.32269 -51.159294 166.69449 -15.142722 -158.61684
14000000000 -29.051991 -47.962353 -52.203373 136.64923 -50.460434 145.07349 -15.096645 -163.89383
14010000000 -28.273716 -53.115604 -53.311428 116.88238 -50.707508 118.76867 -15.000733 -168.45416
14020000000 -27.221273 -65.057884 -52.423321 99.482918 -51.356335 90.736275 -14.920547 -172.84323
14030000000 -27.476494 -74.808182 -53.762394 71.341026 -52.8806 65.080688 -14.9003 -177.20816
14040000000 -27.879297 -87.035469 -55.542332 59.719021 -54.771851 54.372784 -14.852553 178.55351
14050000000 -29.980688 -91.164955 -55.019989 53.19149 -52.905083 44.221684 -14.750715 173.94316
14060000000 -31.7889 -90.752609 -53.274796 30.491755 -52.52747 8.6523008 -14.651304 169.03416
14070000000 -32.250828 -79.385864 -52.9636 -9.3641901 -53.417953 -22.596882 -14.557199 164.35576
14080000000 -30.890829 -88.697266 -54.987999 -36.815121 -56.740444 -51.823135 -14.43959 159.89832
14090000000 -31.392061 -90.614418 -56.822239 -50.977737 -58.20842 -66.891502 -14.332945 155.31093
14100000000 -29.919065 -104.87755 -57.075806 -69.911255 -60.058205 -94.248207 -14.223656 150.30592
14110000000 -30.057957 -106.02887 -57.46204 -90.198074 -64.347794 -85.056442 -14.067351 145.07465
14120000000 -28.662678 -117.1774 -58.224945 -117.77253 -61.792759 -90.382843 -13.830635 139.80042
14130000000 -27.937881 -123.38125 -57.608082 -131.82159 -59.414555 -106.38911 -13.485307 134.83563
14140000000 -27.567156 -135.62213 -58.276474 -176.76102 -59.57946 -154.77937 -13.131573 130.40654
14150000000 -28.592941 -137.51192 -64.449486 120.97707 -66.489075 177.64307 -12.873106 126.22329
14160000000 -28.120768 -147.72166 -73.456482 84.417389 -69.65049 -155.98096 -12.672499 122.05052
14170000000 -30.369453 -146.3465 -72.770378 10.201492 -68.014977 -141.55959 -12.488217 117.56518
14180000000 -30.25841 -147.69058 -65.155922 -59.305664 -66.730125 -146.72324 -12.21271 112.57798
14190000000 -31.037001 -137.44844 -59.161366 -114.56511 -62.192448 -160.56343 -11.890168 107.69873
14200000000 -28.523472 -139.27605 -60.279907 -168.45042 -62.911674 149.14395 -11.506872 103.29744
14210000000 -27.189936 -144.81183 -61.25943 -174.34979 -72.586998 144.82533 -11.152218 99.273712
14220000000 -26.180717 -158.68195 -59.04118 169.68883 -65.102867 -164.32483 -10.862235 95.407974
14230000000 -27.032871 -166.41417 -56.764744 151.00116 -59.413181 161.69276 -10.630214 91.483986
14240000000 -26.763903 -169.52429 -55.046703 123.60037 -58.518555 133.21683 -10.393365 87.417221
14250000000 -27.574287 -173.53525 -54.946831 88.356438 -57.264202 111.0955 -10.12935 83.242271
14260000000 -28.005569 -175.40479 -56.615574 61.359791 -56.520287 96.723557 -9.862442 79.048531
14270000000 -29.185854 -169.24673 -56.672173 60.411263 -53.649353 76.869911 -9.6265078 75.084175
14280000000 -28.320324 -168.77788 -55.668591 44.437874 -52.843681 51.081764 -9.4232798 71.039116
14290000000 -27.930517 -166.40762 -54.183769 30.044842 -52.336018 27.980202 -9.2441359 66.757057
14300000000 -27.600809 -175.00845 -52.74683 1.9023874 -50.93972 5.3034291 -9.0625706 62.170383
14310000000 -27.926748 -174.49287 -52.625397 -11.136792 -50.124897 -20.23106 -8.8578005 57.574505
14320000000 -27.296728 -176.95465 -50.882626 -33.133129 -49.974171 -44.34613 -8.6223526 53.214119
14330000000 -26.396872 177.70644 -49.8549 -59.573292 -49.582302 -70.62542 -8.3755999 49.105953
14340000000 -27.037407 168.12857 -49.442585 -80.487442 -49.417542 -89.561241 -8.1974335 45.159714
14350000000 -27.663876 169.51552 -48.804348 -97.911453 -48.866425 -106.90122 -8.0716457 41.197372
14360000000 -28.861761 169.00343 -46.748447 -122.90952 -46.900726 -130.5163 -8.0197525 37.093689
14370000000 -28.533985 175.58514 -45.790707 -152.20734 -46.782822 -160.40579 -7.9884338 32.659252
14380000000 -28.889723 174.72238 -45.645992 179.46539 -46.690334 175.59398 -7.9440031 28.006247
14390000000 -28.350204 -176.70107 -46.149036 153.84259 -47.170624 151.87488 -7.8832111 23.171825
14400000000 -27.584528 -179.40331 -46.015522 132.52225 -46.936123 133.61726 -7.8296404 18.45746
14410000000 -26.629318 174.21643 -45.676537 115.38919 -46.351444 117.76182 -7.774684 14.054245
14420000000 -27.42943 165.46477 -44.655277 88.94062 -45.200539 91.21888 -7.7589426 9.6769819
14430000000 -27.666641 163.59064 -44.603783 63.316517 -44.846535 66.559036 -7.7991476 5.4240379
14440000000 -29.151888 164.76434 -44.70739 38.455986 -44.540577 41.028572 -7.8675709 1.0792556
14450000000 -27.903246 174.00841 -44.464844 17.592646 -44.316322 19.139797 -7.9739389 -3.4058504
14460000000 -28.44157 171.50085 -44.355652 -6.7409191 -43.900566 -6.4883671 -8.102478 -7.9236531
14470000000 -27.776144 179.92722 -44.102131 -30.045254 -43.983749 -29.807348 -8.2737417 -12.408121
14480000000 -26.786812 -178.88086 -44.772926 -50.879425 -44.556183 -51.8424 -8.5083647 -16.845945
14490000000 -26.513334 175.24937 -44.065815 -71.124283 -43.786648 -71.349266 -8.7630415 -21.581366
14500000000 -26.817301 176.35085 -43.680065 -95.189217 -43.210388 -95.922806 -9.0350256 -26.866331
14510000000 -26.832546 173.68365 -43.518032 -117.02847 -42.990253 -119.59424 -9.3105326 -32.439083
14520000000 -27.207668 179.50821 -42.989902 -139.64879 -43.109818 -143.75455 -9.5391397 -37.520653
14530000000 -26.312386 173.50105 -42.764671 -166.06877 -42.868805 -167.52744 -9.7378798 -41.992764
14540000000 -26.95632 176.0294 -42.806213 169.59053 -42.645634 168.24838 -9.9939661 -46.045921
14550000000 -26.535511 175.21381 -43.223949 147.46954 -42.809746 144.82216 -10.368782 -50.047375
14560000000 -26.390453 -177.80988 -43.377857 126.30081 -43.237648 120.8573 -10.86713 -54.409107
14570000000 -24.834139 -179.76257 -42.86404 106.80772 -43.173756 102.21369 -11.414396 -59.465416
14580000000 -24.120636 178.77176 -42.500023 82.546715 -42.582863 79.529984 -11.964264 -64.999245
14590000000 -24.056379 171.23206 -41.987972 58.755939 -42.15007 55.747791 -12.473603 -70.492691
14600000000 -23.988783 174.14276 -42.051937 32.899548 -42.176125 30.050398 -12.927707 -75.9617
14610000000 -24.074862 167.73709 -41.954781 8.1202545 -42.320141 4.6896524 -13.474405 -81.89019
14620000000 -24.829082 173.31868 -42.520031 -18.30496 -43.002182 -19.545982 -14.079889 -88.095062
14630000000 -24.479076 174.21411 -43.058964 -37.286312 -43.453636 -36.050655 -14.669084 -94.477699
14640000000 -23.640331 179.83542 -42.486809 -58.250881 -42.669941 -59.80899 -15.140815 -100.75474
14650000000 -22.485428 175.13354 -42.45422 -81.554184 -42.669243 -84.085869 -15.56988 -107.12584
14660000000 -21.893517 168.69727 -42.270832 -105.57056 -42.87949 -107.80426 -16.15843 -113.11848
14670000000 -22.46582 163.19899 -42.443905 -131.75882 -43.155048 -129.34256 -16.889219 -119.0608
14680000000 -22.227224 165.05916 -42.992508 -152.6059 -43.122784 -149.63948 -17.736269 -126.4587
14690000000 -22.377167 162.12355 -42.794048 -174.29451 -42.636528 -173.98254 -18.548218 -135.72813
14700000000 -22.141874 165.52911 -43.149982 160.89423 -43.081913 161.01146 -19.166466 -146.7341
14710000000 -21.731596 163.45415 -43.857029 140.26825 -43.726025 140.62874 -19.417171 -158.48592
14720000000 -21.664749 162.12207 -43.860382 122.00478 -43.471107 121.43742 -19.413414 -169.56981
14730000000 -21.382177 160.72348 -43.599915 101.11637 -43.172993 100.60918 -19.193907 -179.48451
14740000000 -21.178701 157.54312 -42.872528 77.59552 -42.42207 74.637047 -19.019691 171.77774
14750000000 -21.341719 156.29233 -43.103806 49.800903 -42.845577 47.520515 -18.944674 163.94012
14760000000 -20.801071 154.90468 -43.621979 26.669416 -43.272247 23.617243 -18.953878 156.23026
14770000000 -20.65448 150.6152 -43.991467 7.4929738 -43.755562 5.7650819 -18.873383 147.77859
14780000000 -20.369259 147.22131 -43.865391 -14.925739 -43.558239 -19.051031 -18.630104 137.89159
14790000000 -20.91116 144.02364 -43.766155 -37.301708 -43.928429 -43.212437 -18.201616 128.80769
14800000000 -21.052219 146.16225 -43.868118 -57.456543 -44.296158 -62.27602 -17.685028 121.36596
14810000000 -20.751429 148.5013 -43.291283 -81.348816 -43.883915 -83.969513 -17.116476 115.69978
14820000000 -20.194067 145.72795 -43.308331 -108.33086 -43.519276 -110.4417 -16.617186 110.2726
14830000000 -20.254253 144.62659 -43.650116 -134.92894 -43.949123 -138.2412 -16.234102 105.01467
14840000000 -19.8862 140.85164 -44.749771 -157.804 -45.468941 -161.16629 -15.869227 99.979652
14850000000 -20.309084 136.78882 -45.225285 -177.80777 -45.931488 -176.80794 -15.513483 95.45829
14860000000 -20.380682 133.15388 -45.262539 160.50003 -45.824615 163.45177 -15.200814 91.472992
14870000000 -21.350626 130.8952 -45.499817 140.28297 -45.577137 144.12321 -15.012657 87.790131
14880000000 -21.266815 132.78529 -45.543671 119.0243 -45.277409 120.9269 -14.924134 83.503014
14890000000 -21.000259 132.71408 -45.195351 97.52964 -45.225033 98.368126 -14.859334 78.190582
14900000000 -20.544613 128.07556 -45.455452 69.683372 -45.205223 74.091629 -14.646589 72.522392
14910000000 -20.852228 127.6089 -45.764111 48.304192 -44.696037 50.148232 -14.310757 67.310776
14920000000 -20.571299 124.46574 -45.872669 22.122696 -44.958401 20.364414 -13.93024 64.053085
14930000000 -20.767443 125.52191 -46.924919 -3.0207856 -46.507496 -4.2153163 -13.561112 61.609627
14940000000 -20.571657 121.81255 -47.88287 -16.425419 -47.318283 -18.981018 -13.494618 58.884621
14950000000 -21.097534 120.12604 -46.854748 -35.000393 -45.962494 -36.75885 -13.633543 55.99662
14960000000 -21.621017 117.8848 -46.313408 -62.893913 -45.527737 -68.523796 -13.808853 52.8577
14970000000 -22.224033 121.54288 -46.408825 -89.623016 -46.104282 -97.516701 -13.831986 49.276192
14980000000 -22.250956 119.01554 -47.528767 -114.51968 -47.432266 -121.07014 -13.861962 45.838581
14990000000 -22.383228 121.45815 -47.609905 -133.16847 -47.893307 -140.98651 -13.887217 42.374783
15000000000 -22.448208 116.64217 -47.467018 -157.13037 -47.761974 -165.17601 -14.122673 38.71249
15010000000 -22.445646 118.78057 -47.289581 178.07887 -48.101299 173.05975 -14.42773 34.953857
15020000000 -22.429316 111.36026 -47.583851 148.34987 -48.088387 143.51164 -14.624036 31.411541
15030000000 -23.026573 112.6363 -48.550503 118.82927 -49.914494 115.42807 -14.556298 28.303173
15040000000 -23.486986 110.47341 -50.486923 93.906418 -50.980263 100.36691 -14.443794 25.61816
15050000000 -23.681484 116.26051 -51.358707 82.60202 -50.895111 81.866257 -14.560619 24.421728
15060000000 -23.81893 116.19786 -50.691635 59.630482 -51.216061 52.671555 -14.940136 23.936407
15070000000 -23.651299 118.41579 -49.623711 38.098251 -51.457092 41.421425 -15.589339 23.720831
15080000000 -24.305508 117.59174 -49.32119 8.243022 -49.537922 18.274355 -16.275602 22.499004
15090000000 -23.994886 122.46655 -49.974388 -27.37252 -49.420856 -24.332338 -16.90873 20.061718
15100000000 -24.283981 119.15462 -51.317951 -58.054859 -50.637077 -59.127235 -17.416222 17.204571
15110000000 -24.251619 121.17947 -54.119091 -87.342995 -54.093723 -86.723488 -17.911474 15.775813
15120000000 -24.797085 118.72436 -54.588596 -93.744118 -54.755905 -87.743973 -18.327311 16.127247
15130000000 -24.709883 120.34433 -54.439182 -119.46864 -53.279331 -117.93636 -18.733488 16.635359
15140000000 -25.140532 119.97231 -54.086552 -143.19318 -53.104034 -146.3703 -19.221983 17.49514
15150000000 -25.206783 123.83314 -52.448463 -169.07281 -52.910671 -178.2751 -19.601618 20.257141
15160000000 -24.934633 129.12868 -53.457436 146.2645 -54.467987 149.56975 -19.69532 24.386723
15170000000 -23.795351 129.25513 -54.379017 113.17416 -54.277458 120.0484 -19.60747 28.48575
15180000000 -23.449526 126.47918 -57.283134 94.310722 -54.617931 91.843475 -19.721521 32.706524
15190000000 -23.359238 123.65933 -56.745823 79.750732 -56.711693 72.722977 -20.004747 38.320301
15200000000 -23.953671 124.08834 -54.409615 53.195446 -54.226688 47.040207 -20.096605 44.639694
15210000000 -23.774797 124.63155 -52.856358 15.41601 -53.288143 10.663556 -19.871483 48.083302
15220000000 -24.139553 128.00658 -53.448456 -20.179464 -53.549694 -25.753637 -19.662281 48.452766
15230000000 -23.517088 127.18146 -54.080463 -54.478233 -53.55724 -55.805935 -19.489241 48.910587
15240000000 -23.660433 128.1042 -55.315319 -70.180847 -54.919518 -73.976379 -19.105026 49.660702
15250000000 -23.201174 126.02661 -55.113216 -86.685432 -54.972416 -95.726112 -18.510555 49.934559
15260000000 -22.972466 124.77597 -51.807953 -111.5102 -52.697727 -116.38434 -17.789276 49.642555
15270000000 -23.001736 121.11751 -52.394543 -149.89189 -52.149426 -150.91013 -17.049931 48.530464
15280000000 -22.88283 122.46401 -51.318447 -171.52406 -51.584492 -176.95757 -16.41783 48.025333
15290000000 -22.604141 119.69267 -50.973038 158.56375 -51.665211 155.47266 -15.920488 48.168159
15300000000 -22.347612 117.382 -50.959957 135.22754 -51.640457 133.96431 -15.615181 48.665291
15310000000 -22.716602 112.12749 -51.008713 111.19195 -51.461838 114.57436 -15.333318 48.724049
15320000000 -23.350031 113.345 -49.571228 90.320839 -49.578224 91.297752 -15.149897 47.022594
15330000000 -23.59074 116.91749 -49.470463 62.641296 -49.530624 63.100117 -15.000178 43.963985
15340000000 -22.88237 116.54284 -49.260357 40.806278 -49.419476 43.042362 -14.838057 40.523407
15350000000 -22.931898 115.54571 -48.332905 20.258924 -48.337322 19.464052 -14.615301 37.509724
15360000000 -22.631975 110.53545 -47.357414 -5.7130775 -47.543629 -4.9225631 -14.405687 34.804047
15370000000 -23.074997 109.11765 -47.067635 -34.590839 -46.774334 -31.826025 -14.227665 31.92914
15380000000 -22.683041 104.05283 -47.261261 -57.393349 -46.849422 -56.565395 -14.015563 28.451233
15390000000 -23.662806 99.468864 -46.832375 -79.533264 -46.36528 -79.463448 -13.763818 24.922119
15400000000 -24.235809 97.506256 -46.656696 -99.607758 -46.059898 -101.93363 -13.472619 21.614941
15410000000 -24.813877 101.55297 -45.879265 -123.35338 -45.312126 -126.22578 -13.29238 19.232176
15420000000 -24.578581 100.47494 -45.156994 -147.34592 -44.757618 -151.47647 -13.281409 17.560827
15430000000 -24.474352 99.568771 -44.893894 -173.03578 -45.046562 -178.24947 -13.427736 15.63272
15440000000 -24.984623 94.447121 -44.981697 164.45737 -45.112823 162.20786 -13.65104 11.906964
15450000000 -25.710064 97.814835 -44.315548 140.1013 -44.047268 137.16907 -13.899935 6.0863552
15460000000 -25.25955 94.815994 -44.2178 120.61056 -44.2048 115.14893 -14.097793 -0.054770421
15470000000 -25.777245 91.435219 -43.096653 95.872017 -43.572651 90.383247 -14.091977 -5.1383181
15480000000 -26.097664 82.892357 -42.647453 68.54422 -43.329758 66.296265 -13.976418 -9.5341415
15490000000 -27.931242 82.337227 -42.915638 41.084068 -43.30727 40.32951 -14.015687 -13.887526
15500000000 -28.234043 80.573235 -43.234974 20.328938 -43.397804 19.273745 -14.236765 -18.076082
15510000000 -29.395773 79.968987 -42.654297 -2.8925967 -43.041714 -3.7210608 -14.516914 -21.981827
15520000000 -31.000937 79.918762 -42.719147 -26.382448 -42.917336 -25.456799 -14.749175 -26.300211
15530000000 -30.928282 92.959282 -42.285488 -48.229256 -42.400223 -47.849152 -15.083955 -31.217403
15540000000 -30.294508 86.801292 -42.114906 -72.68837 -42.019619 -72.8937 -15.577256 -36.455605
15550000000 -30.615055 82.909065 -41.796513 -95.80307 -41.816437 -95.775368 -16.230112 -42.637745
15560000000 -32.496899 65.814621 -41.551582 -122.61533 -41.463089 -121.92681 -16.887274 -49.863686
15570000000 -37.053326 74.333916 -41.83567 -146.8119 -41.803432 -148.08975 -17.377697 -59.052238
15580000000 -39.456226 73.020027 -42.030167 -170.99828 -41.895081 -170.83653 -17.641584 -69.003143
15590000000 -40.644512 93.677742 -42.142738 168.05661 -41.836693 166.62892 -17.782179 -78.460037
15600000000 -49.977722 64.209145 -41.931694 144.81215 -41.886028 142.02533 -17.844711 -86.767746
15610000000 -48.750763 155.39061 -41.781139 123.11132 -41.967205 122.48723 -17.988028 -94.292511
15620000000 -47.126137 -138.92615 -42.012287 101.00247 -41.816437 99.373566 -18.24367 -101.20298
15630000000 -43.350395 -156.39607 -41.533894 77.822159 -41.471603 76.098846 -18.622858 -108.79328
15640000000 -39.118492 -128.80051 -41.330643 52.273251 -41.365273 50.558155 -19.065308 -118.24117
15650000000 -36.363049 -150.42172 -41.645298 28.659027 -41.686249 27.36318 -19.32436 -130.13336
15660000000 -35.999962 -148.55135 -41.765186 5.9126272 -41.606728 5.6751246 -19.191666 -142.67691
15670000000 -36.740955 -152.07307 -41.812725 -17.895748 -41.524651 -19.012732 -18.616863 -153.26317
15680000000 -33.513382 -121.74351 -42.071362 -41.647091 -42.145172 -43.723381 -17.881851 -161.39011
15690000000 -31.081472 -131.00081 -42.439037 -62.975445 -42.286259 -63.548683 -17.265894 -168.07748
15700000000 -28.381317 -136.44817 -42.226757 -82.33976 -41.948418 -84.01532 -16.839975 -174.52982
15710000000 -28.595798 -145.8604 -41.850658 -106.50748 -41.731316 -109.30778 -16.530783 179.37323
15720000000 -27.510674 -144.24182 -41.95488 -131.43011 -41.929787 -133.7075 -16.149502 173.59889
15730000000 -27.651421 -149.48756 -42.372555 -155.89343 -42.373726 -155.91501 -15.730623 168.4296
15740000000 -27.243595 -146.89537 -42.81469 -177.61983 -42.622322 -179.60043 -15.406111 163.45999
15750000000 -27.5331 -148.55988 -43.035534 163.12038 -43.045776 159.52222 -15.191642 158.20679
15760000000 -26.651781 -141.56017 -42.711769 142.37289 -42.950459 140.9968 -14.980322 152.38501
15770000000 -25.70574 -143.53064 -42.693687 119.38006 -42.624611 119.06833 -14.574991 146.1497
15780000000 -24.8423 -146.2888 -42.730663 97.208855 -42.667824 95.090813 -14.006737 140.91891
15790000000 -24.690355 -148.82234 -42.69648 73.77327 -42.867001 73.094383 -13.371027 137.44009
15800000000 -23.650967 -149.28229 -42.945232 51.937458 -42.849625 51.744621 -12.845373 135.24594
15810000000 -23.476538 -153.05331 -42.888977 28.258974 -42.539333 26.561338 -12.555705 133.5278
15820000000 -23.159456 -155.70425 -43.294453 4.1475396 -43.26757 0.94368309 -12.435505 131.48409
15830000000 -23.525328 -155.97763 -43.645779 -17.141249 -43.983902 -19.03134 -12.391468 128.66908
15840000000 -23.32876 -151.998 -43.798935 -38.172638 -43.662361 -38.214584 -12.301329 125.11298
15850000000 -22.800043 -150.68613 -44.001209 -58.596371 -43.653107 -60.646317 -12.183225 121.25714
15860000000 -22.148018 -151.38077 -43.478455 -80.183578 -43.640789 -82.365402 -11.993496 117.66862
15870000000 -22.16135 -153.37325 -43.770012 -106.5518 -43.737003 -107.47807 -11.760004 114.15955
15880000000 -21.832682 -152.99541 -44.52354 -125.68558 -44.257 -127.30049 -11.498577 110.80063
15890000000 -21.648588 -154.40468 -44.417469 -147.28479 -44.561314 -151.90779 -11.233853 107.7345
15900000000 -21.364786 -156.30981 -44.402313 -169.36916 -44.710709 -170.45967 -10.950769 105.28753
15910000000 -21.482252 -156.5235 -44.882442 168.5993 -44.83149 166.88719 -10.695017 103.27413
15920000000 -20.880304 -155.48839 -44.647423 147.66351 -44.903908 146.38916 -10.494199 101.57664
15930000000 -20.603868 -156.79182 -45.313137 123.73225 -45.38512 124.56424 -10.386021 99.816193
15940000000 -20.33769 -158.09198 -45.513355 104.27245 -45.377117 104.25848 -10.358219 98.032654
15950000000 -20.510017 -157.56479 -45.592625 81.959267 -45.372021 79.310516 -10.374968 96.008186
15960000000 -20.298988 -153.96809 -45.987789 60.029865 -45.990891 59.188126 -10.389835 93.484688
15970000000 -19.5256 -152.4274 -46.323402 41.66053 -46.438931 40.370338 -10.402851 90.538475
15980000000 -19.0989 -154.2139 -46.17149 21.121479 -45.955334 21.338627 -10.350352 87.317436
15990000000 -18.866899 -155.37698 -46.068333 -0.93058598 -45.82906 -1.3887259 -10.208719 84.1436
16000000000 -18.921082 -156.46239 -46.180004 -23.257944 -45.868942 -25.498737 -10.022288 81.336678
16010000000 -18.658064 -155.87337 -46.828217 -43.87426 -46.325268 -46.354042 -9.8407793 79.406929
16020000000 -18.253746 -156.43616 -46.496891 -68.87207 -46.537556 -69.33223 -9.7039042 77.896774
16030000000 -18.193029 -156.81583 -47.033989 -88.450378 -46.740955 -90.147476 -9.6644611 76.416008
16040000000 -18.03446 -156.31448 -46.919006 -107.33643 -47.063633 -110.21004 -9.7195349 74.432175
16050000000 -17.55003 -155.83879 -46.884697 -131.46683 -46.935242 -132.98799 -9.8481436 72.20192
16060000000 -17.20257 -156.03699 -47.479168 -152.29811 -47.72266 -153.27492 -9.9295759 69.857338
16070000000 -16.818869 -156.17578 -47.918503 -174.33495 -47.887119 -172.45149 -9.9705925 67.158058
16080000000 -16.451857 -156.26207 -47.614166 168.62556 -47.611713 168.12737 -10.017437 64.243744
16090000000 -16.035074 -156.84096 -48.285675 147.88339 -48.180218 147.13411 -10.121822 61.240768
16100000000 -15.835929 -158.89841 -47.390064 127.41618 -47.201061 127.61892 -10.218941 58.104263
16110000000 -15.827959 -159.0844 -47.881161 103.73063 -47.47303 103.8137 -10.25675 55.025509
16120000000 -15.69802 -158.12416 -47.694817 82.885391 -47.381294 78.881859 -10.185364 52.217205
16130000000 -15.122061 -157.51204 -48.425598 57.148727 -48.092819 54.909775 -10.090292 50.098774
16140000000 -14.772134 -159.1806 -49.110668 41.980778 -49.125504 35.727093 -10.068582 48.643585
16150000000 -14.435678 -161.4566 -48.834949 26.484745 -49.357117 24.698408 -10.24534 47.258354
16160000000 -14.331747 -161.90178 -47.817955 2.7614045 -47.983257 2.1989465 -10.603936 45.657017
16170000000 -13.814226 -162.42221 -48.009903 -21.936333 -47.8522 -25.097147 -10.996935 42.992676
16180000000 -13.589762 -163.94853 -48.000927 -48.887783 -48.352371 -49.79195 -11.4012 39.264263
16190000000 -13.365196 -164.64255 -48.894547 -74.02636 -49.057392 -75.543396 -11.671915 34.918518
16200000000 -13.16314 -164.29785 -50.37656 -98.587425 -50.469929 -97.810349 -11.956121 30.640728
16210000000 -12.722425 -165.58803 -51.839046 -111.52564 -51.988274 -115.22475 -12.231934 27.148777
16220000000 -12.655912 -166.19087 -51.734951 -118.67364 -51.398991 -117.60897 -12.543516 23.850067
16230000000 -12.371 -167.69066 -49.927528 -140.80127 -49.908451 -141.76457 -12.841347 20.777758
16240000000 -12.317769 -167.46121 -50.050064 -167.78856 -50.28022 -167.22113 -13.151487 17.360229
16250000000 -11.919072 -168.68694 -50.093498 168.60637 -49.785114 168.80014 -13.545261 15.016907
16260000000 -11.663115 -170.12762 -51.895058 137.08087 -51.54187 138.63364 -14.040587 13.419472
16270000000 -11.333667 -172.64302 -54.007359 129.90042 -52.993259 128.69563 -14.786496 12.144547
16280000000 -11.294808 -174.22882 -53.677826 121.89779 -53.323444 112.38869 -15.821466 9.8901482
16290000000 -11.021743 -175.11922 -52.616417 108.93855 -52.914513 104.85065 -17.106627 5.9092674
16300000000 -10.870718 -176.24809 -52.231953 85.207092 -52.20343 83.891808 -18.466246 0.086594358
16310000000 -10.668917 -177.19203 -52.892494 62.072514 -52.107101 60.055477 -19.743074 -7.0841274
16320000000 -10.546426 -176.64687 -52.079929 55.37191 -52.305382 49.302921 -20.929949 -14.008889
16330000000 -10.093316 -177.32996 -50.870064 25.834148 -50.611347 21.265181 -22.406132 -21.38047
16340000000 -9.8812599 -178.93083 -50.851452 0.74769938 -51.118088 -5.8424454 -24.326805 -26.949329
16350000000 -9.6991844 179.16096 -51.488968 -28.275879 -52.220306 -30.497107 -26.557098 -34.292736
16360000000 -9.6704721 177.68153 -54.338627 -42.540382 -55.185261 -40.802303 -30.124733 -41.631763
16370000000 -9.5309658 176.46858 -52.436443 -41.737808 -53.03159 -41.018463 -36.565018 -60.525291
16380000000 -9.421031 175.05714 -51.611191 -57.743992 -51.652775 -57.502651 -39.64957 -175.69447
16390000000 -9.2936544 173.71776 -49.603683 -82.028519 -49.877468 -83.346954 -30.125313 159.37903
16400000000 -9.180934 173.04378 -48.619785 -111.38151 -49.138126 -113.01003 -25.58049 156.56178
16410000000 -8.9200478 172.45081 -49.487675 -144.77133 -49.417667 -142.3288 -22.841063 155.621
16420000000 -8.6555977 171.43515 -51.369293 -165.20625 -50.993156 -163.70242 -21.2106 154.22115
16430000000 -8.3926821 169.92867 -51.19508 -174.90424 -51.38068 -175.96275 -20.103056 151.38205
16440000000 -8.3274231 168.75493 -51.584549 167.82343 -51.059673 170.67421 -19.070036 147.33101
16450000000 -8.1284924 168.07355 -50.310066 150.19492 -49.500496 151.6433 -18.147604 142.79083
16460000000 -8.0046005 166.75777 -49.93499 135.16737 -49.307701 129.00005 -17.348505 138.99963
16470000000 -7.9434738 165.37688 -48.126587 108.79192 -48.052338 104.41748 -16.672787 135.61443
16480000000 -7.9421926 164.56079 -48.271698 81.923691 -48.379601 77.323494 -16.02013 131.75552
16490000000 -7.7986069 164.00688 -48.11911 55.839184 -48.198364 55.093227 -15.347317 127.17986
16500000000 -7.649528 163.17564 -48.841427 37.692936 -48.688053 33.616215 -14.557048 123.46682
16510000000 -7.4211264 161.88553 -48.605324 15.833456 -48.648415 10.629696 -13.788916 120.7893
16520000000 -7.2830982 160.8456 -49.117153 -3.9019945 -49.588692 -7.025435 -13.162738 119.83376
16530000000 -7.0135484 159.51727 -48.290752 -20.34145 -48.528866 -22.903082 -12.783137 118.98872
16540000000 -6.9037728 158.2032 -47.524292 -41.787521 -47.959282 -42.271233 -12.568261 117.61534
16550000000 -6.7740855 156.88599 -46.42168 -67.209053 -46.49374 -68.718269 -12.465489 115.02917
16560000000 -6.7632227 156.21121 -46.307327 -99.054352 -46.808273 -99.699478 -12.28499 111.8143
16570000000 -6.6322408 155.92606 -47.418865 -124.63001 -47.545921 -123.28461 -12.016861 108.53365
16580000000 -6.4800415 155.45573 -47.9589 -143.31569 -47.71859 -143.27599 -11.720356 105.71104
16590000000 -6.2926679 154.25139 -48.193298 -161.29784 -47.967236 -163.01768 -11.46649 103.26369
16600000000 -6.1973996 153.24542 -47.363461 177.31844 -47.472076 177.17122 -11.236125 100.85757
16610000000 -5.9908795 152.15178 -47.277035 154.39493 -47.253143 153.95383 -10.998927 98.345276
16620000000 -5.8456216 150.50557 -47.270508 130.87808 -47.208904 131.54128 -10.677451 95.911156
16630000000 -5.7087331 148.94609 -47.416985 106.91801 -47.03334 107.81261 -10.369222 94.200645
16640000000 -5.6498566 148.00157 -47.600178 83.873215 -47.36314 83.397751 -10.106668 93.276146
16650000000 -5.4391637 147.40576 -48.341553 64.271149 -47.660839 62.222069 -9.9715052 92.412361
16660000000 -5.2613707 146.34766 -47.894341 45.193562 -47.662621 41.068485 -9.9710388 91.187874
16670000000 -5.0843792 145.30074 -47.719906 23.669249 -47.662544 21.481903 -10.052432 88.883148
16680000000 -4.9747486 144.4334 -47.538639 -2.411052 -47.375294 -3.5177958 -10.081905 85.739777
16690000000 -4.7739496 143.67073 -47.744934 -24.860941 -47.681473 -26.406956 -10.023771 82.282051
16700000000 -4.6236506 142.35297 -47.814468 -46.040558 -47.679279 -46.622276 -9.8581829 79.362144
16710000000 -4.464994 140.99657 -48.10643 -69.022163 -47.746979 -71.121765 -9.6656437 76.864746
16720000000 -4.4000144 139.65431 -48.340923 -90.862473 -48.223206 -93.618629 -9.4888201 75.066582
16730000000 -4.2270775 138.54024 -48.243584 -111.86844 -48.121693 -114.10492 -9.3528576 73.30674
16740000000 -4.0795889 137.13963 -48.163662 -132.90694 -48.381855 -136.45357 -9.255784 71.821411
16750000000 -3.9381597 135.72966 -47.994392 -155.08446 -48.335995 -157.317 -9.1621532 70.30217
16760000000 -3.8152919 134.5145 -47.730743 -177.26118 -47.910229 -179.68158 -9.1496038 68.782249
16770000000 -3.6387792 133.49652 -48.177814 157.6116 -48.388233 155.72795 -9.17171 67.077522
16780000000 -3.4613099 132.19223 -48.365108 135.78151 -48.424942 133.92668 -9.2653341 65.12854
16790000000 -3.318222 130.70206 -48.204491 113.99506 -48.550163 111.20909 -9.3731651 62.58659
16800000000 -3.2258332 129.31956 -48.439014 88.489677 -48.457359 87.728989 -9.455945 59.580055
16810000000 -3.1095855 128.11041 -49.335808 69.995438 -49.713276 66.718529 -9.4587679 56.098274
16820000000 -2.9951174 126.70845 -49.27491 48.463749 -49.678829 46.44379 -9.4294319 52.485439
16830000000 -2.8633232 125.10442 -49.03054 27.491989 -49.416962 27.573315 -9.3239908 49.253651
16840000000 -2.7631457 123.61475 -48.393238 4.1134019 -48.640678 3.9787269 -9.2129936 46.627464
16850000000 -2.6255085 122.11093 -48.670383 -25.840044 -48.581818 -25.713049 -9.0871544 44.715145
16860000000 -2.4936249 120.55015 -49.49728 -50.215481 -49.303619 -49.901882 -9.0271254 43.22007
16870000000 -2.3655632 118.9306 -50.227509 -71.880867 -50.287693 -73.563591 -9.0500383 42.163574
16880000000 -2.2723968 117.48311 -50.916267 -91.832191 -51.016129 -91.175995 -9.1815453 40.575794
16890000000 -2.1648681 116.24606 -50.878532 -108.07648 -50.720211 -106.74702 -9.3946037 38.304329
16900000000 -2.0483105 115.03452 -50.253811 -131.90369 -50.063141 -129.79723 -9.6098242 34.876659
16910000000 -1.9277312 113.55376 -50.298977 -156.66281 -49.69519 -158.5519 -9.7957106 31.006878
16920000000 -1.8532763 112.07479 -50.649685 175.05148 -50.675571 174.50961 -9.8476133 26.72061
16930000000 -1.7638792 110.5503 -51.830631 150.9872 -51.39505 151.42783 -9.8577681 22.726635
16940000000 -1.6928889 108.93325 -53.038044 135.40445 -52.127773 131.27385 -9.8033676 18.92239
16950000000 -1.6079822 107.25868 -52.575306 118.65868 -51.972149 113.65411 -9.8261843 15.501908
16960000000 -1.5347452 105.60433 -52.177475 93.405411 -52.246452 87.975403 -9.8514242 12.351254
16970000000 -1.4436229 104.04517 -52.298286 71.01059 -52.225075 67.988075 -9.9644136 9.4295063
16980000000 -1.3471893 102.46818 -52.551731 46.601349 -52.202709 42.951988 -10.113811 6.7273636
16990000000 -1.2500916 100.8521 -52.86517 23.099075 -52.660328 16.054306 -10.315494 3.8816824
17000000000 -1.1743875 99.31852 -52.81543 -1.0310835 -53.31234 -8.9699736 -10.56673 0.39789951
