!Keysight Technologies,P9374A,MY57211807,A.19.30.04
!Date: Friday, May 08, 2026 14:30:33
!Correction: S11(C  2-Port  ) 
!S21(C  2-Port  ) 
!S12(C  2-Port  ) 
!S22(C  2-Port  ) 
!S2P File: Measurements: S11, S21, S12, S22:
# Hz S  dB   R 50
13000000000 -18.860914 55.931126 -40.006554 55.038612 -39.474949 60.59166 -12.289813 -82.101097
13010000000 -19.358118 57.659931 -39.464836 34.39872 -38.986286 38.917171 -12.693496 -85.237747
13020000000 -19.524221 60.410339 -39.320061 11.233224 -38.876575 14.671918 -13.103209 -88.437103
13030000000 -19.571104 63.086422 -39.050217 -13.282685 -38.540813 -8.2513475 -13.535547 -92.027412
13040000000 -19.675863 63.252605 -39.442863 -36.648563 -38.666809 -32.199245 -14.03208 -95.938202
13050000000 -19.625269 64.828453 -39.876926 -59.239071 -38.797009 -56.168457 -14.598116 -100.14966
13060000000 -19.460188 63.612011 -40.288567 -77.643768 -39.042141 -77.993546 -15.178586 -104.91444
13070000000 -19.823553 61.052151 -40.029079 -97.113434 -39.070499 -98.754105 -15.671259 -110.37569
13080000000 -19.993862 62.321098 -39.53339 -119.07297 -38.84948 -120.4208 -16.083967 -115.82946
13090000000 -19.849598 62.201038 -39.302029 -144.29909 -38.544083 -144.22797 -16.492527 -121.29652
13100000000 -19.745695 63.305153 -39.815105 -167.65797 -38.698456 -169.64345 -17.035698 -126.53322
13110000000 -19.14007 62.117332 -40.072292 171.76941 -39.144749 166.23862 -17.701235 -132.64035
13120000000 -19.406488 58.581947 -40.182392 150.55698 -39.578007 144.35225 -18.378462 -139.97601
13130000000 -19.535402 59.326736 -40.079491 129.21909 -39.740177 124.12622 -18.853121 -148.39391
13140000000 -19.807247 60.435215 -40.09391 107.81748 -39.757965 102.30459 -19.095482 -157.45134
13150000000 -19.74472 61.188374 -39.818199 85.922424 -39.869431 78.859077 -19.309919 -166.00516
13160000000 -19.861074 64.967171 -40.234272 62.153286 -40.208611 56.477833 -19.544104 -174.97314
13170000000 -19.18869 64.621826 -40.190849 42.340939 -40.598457 35.367348 -19.784042 174.6427
13180000000 -18.880651 61.219013 -40.446491 19.617283 -41.12888 15.420489 -19.71921 162.86978
13190000000 -18.791208 56.860081 -40.44062 0.59382367 -40.924362 -2.0801339 -19.237776 151.86639
13200000000 -19.072062 53.091904 -39.952915 -22.12611 -40.537758 -24.377409 -18.506903 143.17334
13210000000 -19.49852 51.351879 -40.053562 -44.251404 -40.625774 -46.683022 -17.837442 135.79179
13220000000 -19.964685 51.802204 -40.233761 -67.750221 -40.741604 -68.847862 -17.449623 128.77162
13230000000 -19.959528 55.383068 -40.17025 -89.953995 -40.802811 -90.602913 -17.021021 120.93791
13240000000 -19.477844 56.783634 -40.461292 -112.03802 -41.193886 -110.12717 -16.461626 112.48043
13250000000 -19.043871 55.610355 -40.470024 -133.16428 -41.100441 -130.80501 -15.653572 105.01261
13260000000 -18.803728 53.310246 -40.537472 -154.86841 -40.826088 -150.8134 -14.816811 99.335243
13270000000 -18.788261 48.962677 -40.308132 -177.6143 -40.421307 -174.32372 -14.086252 95.202675
13280000000 -19.153385 46.323883 -40.435688 159.12154 -40.534027 161.29146 -13.539764 91.103348
13290000000 -19.655807 44.379837 -40.68708 135.10141 -40.707596 139.14825 -13.097897 86.410561
13300000000 -19.811403 44.940208 -40.942421 113.94409 -40.909477 116.08514 -12.660522 80.959053
13310000000 -20.083082 42.929459 -41.377338 91.276176 -41.332268 95.6558 -12.125608 75.378242
13320000000 -19.876394 43.897861 -41.578636 71.673988 -41.189781 75.037758 -11.554115 70.807617
13330000000 -19.904615 40.398083 -41.457531 49.795918 -41.042477 52.376396 -11.012507 67.200714
13340000000 -19.858955 40.777569 -41.69817 25.995487 -41.208393 29.522512 -10.526651 63.743835
13350000000 -20.080481 37.800823 -42.119827 3.0901613 -41.147568 5.430872 -10.166291 59.82399
13360000000 -19.913042 39.71957 -42.500519 -16.189112 -41.730347 -18.638924 -9.866787 55.143055
13370000000 -19.996424 36.106594 -42.568501 -37.611252 -42.307858 -38.560471 -9.5382748 50.278728
13380000000 -19.788666 35.525093 -43.356674 -59.658672 -42.371494 -59.830189 -9.1197014 45.768982
13390000000 -20.3361 30.014706 -43.238743 -78.984383 -42.768642 -82.88707 -8.6842775 41.691856
13400000000 -20.565241 30.786617 -43.402687 -101.06771 -43.381016 -102.57699 -8.2908115 38.152275
13410000000 -21.12952 25.185644 -44.066593 -121.43328 -43.431095 -122.2826 -8.0099878 34.693119
13420000000 -21.852566 27.455702 -44.27145 -140.21149 -43.978512 -145.21315 -7.8178124 30.790203
13430000000 -22.190056 26.917395 -44.619587 -158.98503 -44.358192 -162.91904 -7.6617918 26.538855
13440000000 -21.833727 30.101645 -44.340477 179.56198 -44.115196 177.40179 -7.5007081 22.143351
13450000000 -21.562565 28.073393 -45.203346 158.97406 -44.702965 152.47362 -7.2709975 17.779209
13460000000 -21.145777 24.479853 -45.416241 142.36255 -45.745411 136.3987 -7.0310569 13.700303
13470000000 -21.64361 18.767628 -45.632 125.07642 -45.779686 119.70808 -6.8503881 9.8816204
13480000000 -21.825203 17.760803 -45.174381 107.99659 -45.715893 102.32782 -6.7302814 6.1220951
13490000000 -22.902433 12.406629 -44.946041 88.507416 -45.865696 84.956314 -6.6671929 2.3108056
13500000000 -23.495886 15.630922 -44.337055 69.308998 -45.401131 68.953506 -6.6700888 -1.6252263
13510000000 -24.296793 17.957359 -44.205757 46.897419 -44.833317 46.724628 -6.6563616 -5.5222206
13520000000 -24.099014 18.716604 -44.40221 23.490173 -45.219723 24.807009 -6.6313438 -9.3611259
13530000000 -24.445251 19.377676 -44.389473 7.0796466 -45.027195 8.2682753 -6.6268616 -13.170957
13540000000 -23.877073 16.861521 -44.381088 -13.263666 -44.991489 -8.86271 -6.6481881 -16.943277
13550000000 -24.391129 15.032753 -43.870335 -31.401396 -44.0709 -28.446627 -6.7327647 -20.636415
13560000000 -23.756512 10.587942 -43.546013 -55.291706 -43.63192 -53.253719 -6.842906 -24.346464
13570000000 -25.423826 7.3429804 -43.43314 -75.324509 -43.759197 -72.679085 -6.9422288 -28.010443
13580000000 -24.968317 9.018012 -43.241142 -98.117027 -43.269375 -93.68457 -7.0296092 -31.463711
13590000000 -26.68207 8.4325762 -42.90358 -119.91105 -43.177525 -115.50783 -7.1097236 -34.818329
13600000000 -26.314182 11.133041 -43.320831 -143.26888 -42.998341 -138.48625 -7.1963787 -37.928364
13610000000 -27.770351 18.440556 -43.393307 -163.45457 -42.913235 -158.60521 -7.348228 -40.970932
13620000000 -26.870819 19.562004 -43.403866 176.23315 -42.406925 178.76175 -7.5412412 -44.052586
13630000000 -27.268808 23.307821 -42.980934 155.26462 -42.504112 155.26695 -7.7374554 -47.170784
13640000000 -26.134594 16.061386 -42.988342 134.61296 -42.427467 135.95927 -7.9130592 -50.499847
13650000000 -27.711788 10.800234 -42.968895 111.8797 -42.097973 113.24426 -8.0602007 -53.685772
13660000000 -27.422003 11.956848 -42.98671 90.960876 -42.182854 89.033272 -8.1791945 -56.602463
13670000000 -28.543297 7.737987 -43.011532 69.212471 -42.283581 66.833382 -8.3144369 -59.317558
13680000000 -28.994209 12.467162 -42.839531 50.017075 -42.433102 45.337242 -8.4934053 -61.828388
13690000000 -29.624849 18.524235 -42.900898 27.785759 -42.752117 25.132191 -8.6972418 -64.227158
13700000000 -28.645428 27.908632 -42.545143 8.1776505 -42.203857 6.6813426 -8.9183378 -66.972786
13710000000 -27.608673 27.748348 -42.417709 -15.176093 -42.018459 -19.62011 -9.128294 -70.005524
13720000000 -27.109512 23.40815 -42.4842 -37.326893 -42.571388 -41.745937 -9.3254843 -73.077705
13730000000 -27.846275 22.923626 -42.65403 -61.713539 -42.816959 -62.231564 -9.5111208 -75.853874
13740000000 -27.293947 19.719494 -42.976528 -81.02964 -42.833874 -81.157776 -9.6726055 -78.295296
13750000000 -29.001518 14.201746 -42.985596 -96.272812 -42.565151 -100.15573 -9.864645 -80.638748
13760000000 -29.130688 18.274403 -42.298561 -119.26703 -42.195705 -123.18485 -10.089752 -83.311813
13770000000 -30.023743 16.694189 -42.206429 -142.26498 -42.574894 -146.33945 -10.35245 -86.373154
13780000000 -29.975863 23.301355 -42.224854 -165.298 -42.967999 -164.12442 -10.589426 -89.590111
13790000000 -28.499557 24.633413 -42.374207 174.14571 -42.248329 176.82683 -10.735612 -92.72197
13800000000 -27.992666 17.332733 -42.367416 155.27676 -41.757385 154.26042 -10.825614 -95.430923
13810000000 -27.649979 17.03956 -42.072399 133.45308 -41.776478 130.99579 -10.963943 -97.770515
13820000000 -27.0121 8.3007412 -42.150997 110.31995 -42.036003 109.46752 -11.171431 -99.884651
13830000000 -27.559324 8.6913929 -41.960285 91.341286 -41.661053 89.966805 -11.457183 -102.30871
13840000000 -27.145933 -0.40377268 -41.719711 68.954292 -41.605476 66.632553 -11.726776 -105.21396
13850000000 -28.743034 0.19749711 -41.746815 47.003803 -41.269722 46.180138 -11.928102 -108.72147
13860000000 -28.859135 -1.078138 -41.391335 26.041462 -41.003365 21.110069 -12.08953 -112.17171
13870000000 -29.589321 2.662051 -41.169655 3.6858706 -41.415848 0.10895824 -12.210714 -115.24372
13880000000 -29.00341 0.025511872 -41.003609 -19.134138 -41.001995 -20.453943 -12.382388 -118.0118
13890000000 -28.834789 2.9913936 -40.842751 -43.138386 -40.635845 -45.198814 -12.621151 -120.89259
13900000000 -28.046831 -6.6721063 -41.035355 -67.712326 -40.757626 -70.687202 -12.831768 -124.17574
13910000000 -28.041574 -3.7697885 -41.527328 -87.087067 -41.443661 -92.05191 -12.996271 -127.92374
13920000000 -26.647552 -16.915796 -40.971794 -107.50865 -41.168621 -111.98589 -13.09522 -131.55098
13930000000 -28.038887 -27.87262 -40.835529 -131.017 -41.211437 -134.30559 -13.172258 -134.94281
13940000000 -28.563242 -34.039547 -40.624855 -154.49643 -40.982975 -155.56317 -13.30784 -137.92741
13950000000 -30.285561 -41.149876 -40.800022 -178.08815 -40.837406 178.44843 -13.5477 -140.86325
13960000000 -31.586428 -43.151836 -40.917187 158.70813 -41.376316 155.52632 -13.833195 -144.47495
13970000000 -33.209538 -35.261684 -41.143169 136.00276 -41.671223 134.25461 -14.07891 -148.86713
13980000000 -31.411779 -30.269207 -41.149448 115.28519 -41.671391 112.95219 -14.206127 -154.01627
13990000000 -29.531643 -36.365623 -40.884445 90.950806 -41.702766 90.543961 -14.241872 -159.07025
14000000000 -27.921368 -50.770447 -41.370331 68.244301 -41.665951 70.420631 -14.209715 -163.7498
14010000000 -27.62524 -63.162571 -41.510712 44.698856 -41.840157 43.531078 -14.157142 -168.2765
14020000000 -27.506985 -71.177155 -41.902378 23.810238 -42.692478 24.41873 -14.146253 -172.54457
14030000000 -28.065947 -83.785202 -41.91008 3.9997439 -42.3978 6.4118567 -14.138633 -176.71988
14040000000 -30.058212 -88.565674 -41.882988 -17.348146 -42.044159 -15.644588 -14.096845 178.82176
14050000000 -31.013884 -82.498009 -41.992596 -40.971924 -42.09935 -40.900078 -14.054954 174.28279
14060000000 -31.762316 -77.554077 -41.880009 -63.719246 -42.309391 -63.10244 -13.991635 169.82764
14070000000 -30.983276 -77.071365 -41.979298 -86.98317 -42.295048 -84.245621 -13.912275 165.33679
14080000000 -30.262228 -86.826508 -42.203926 -109.30318 -42.418842 -107.70919 -13.855123 160.90175
14090000000 -30.152189 -93.059937 -42.363464 -134.41066 -42.757225 -130.89824 -13.813621 156.48369
14100000000 -29.692307 -108.54937 -43.084518 -155.21637 -42.969761 -148.73604 -13.752793 151.94319
14110000000 -29.668871 -110.20116 -43.22646 -176.80988 -42.882385 -173.93979 -13.619613 146.91422
14120000000 -28.709705 -122.542 -43.552341 162.6203 -43.272144 165.88849 -13.438986 141.66499
14130000000 -28.905834 -126.43045 -43.634956 142.58914 -43.304241 144.54131 -13.189201 136.60791
14140000000 -28.001326 -132.08145 -43.631584 117.44231 -43.420067 121.69717 -12.939812 132.10071
14150000000 -28.780796 -138.62129 -44.047577 97.048546 -43.2761 100.60784 -12.740054 128.07494
14160000000 -28.336699 -142.31975 -44.22295 75.027641 -43.439335 76.817337 -12.56081 123.96778
14170000000 -29.97571 -149.0186 -44.334034 53.310913 -43.529995 54.090488 -12.408464 119.34552
14180000000 -30.382441 -143.04126 -44.921898 28.565554 -44.139114 29.910307 -12.191857 114.26944
14190000000 -30.149632 -139.12083 -45.635315 7.8466206 -44.363697 7.9467587 -11.888666 109.26673
14200000000 -28.332033 -139.17987 -46.362125 -7.9223504 -44.700962 -12.127863 -11.553254 104.66826
14210000000 -27.434978 -148.0524 -46.277058 -27.597532 -45.072155 -34.903526 -11.252 100.66276
14220000000 -26.458088 -153.97548 -46.147545 -46.593044 -45.091412 -55.27647 -10.994678 96.877983
14230000000 -26.108873 -166.35065 -45.915947 -67.903191 -45.295002 -79.61377 -10.789286 92.84568
14240000000 -26.556099 -173.15498 -46.112286 -92.956161 -45.649548 -103.26679 -10.581077 88.609337
14250000000 -27.677607 179.10339 -46.428619 -113.11765 -46.477554 -125.12608 -10.355103 84.235703
14260000000 -29.579655 -175.31837 -46.722702 -135.89362 -46.725761 -146.96884 -10.110392 79.950394
14270000000 -29.575378 -165.63762 -47.144871 -155.28659 -47.695866 -168.97986 -9.8911009 75.708588
14280000000 -28.835968 -161.68848 -47.2519 -178.45767 -47.691193 171.94986 -9.7147818 71.557388
14290000000 -27.203941 -161.69452 -47.93589 159.37926 -48.479511 147.69492 -9.552494 67.16256
14300000000 -26.744225 -170.87061 -48.215633 140.59329 -49.35709 126.99496 -9.3770409 62.505459
14310000000 -26.238358 -177.10661 -48.78109 124.41527 -50.349224 105.36788 -9.1706381 57.683475
14320000000 -26.753836 169.95651 -48.192493 101.77554 -50.987221 90.564415 -8.9523439 53.123089
14330000000 -27.413162 170.65685 -48.502926 75.273956 -51.342373 73.899261 -8.7305899 48.871681
14340000000 -28.742163 164.34174 -49.540714 53.484615 -52.495296 51.211258 -8.5655231 44.806831
14350000000 -28.890345 179.02286 -50.483398 32.649242 -53.234158 38.957695 -8.4536982 40.782299
14360000000 -28.680422 178.62195 -52.308472 15.70815 -54.990482 26.151112 -8.3906069 36.45248
14370000000 -27.580042 -177.99153 -52.256763 4.4425793 -54.333248 21.070141 -8.359169 31.653446
14380000000 -27.551071 175.57301 -51.876312 -13.571074 -53.128311 7.5351229 -8.3288431 26.705976
14390000000 -27.149132 177.04095 -52.101311 -30.400007 -52.514267 -13.515695 -8.2784748 21.78401
14400000000 -27.579666 167.81078 -52.669239 -57.008026 -52.929363 -29.542362 -8.2004814 16.914263
14410000000 -28.242289 169.03932 -54.278679 -64.179131 -51.785713 -37.990208 -8.1508741 12.361162
14420000000 -28.746365 168.02972 -53.212482 -69.017799 -49.208595 -58.138947 -8.1332235 7.9037881
14430000000 -28.151974 173.48679 -51.452953 -86.449821 -48.710247 -88.752808 -8.1747561 3.3744059
14440000000 -28.072664 170.16644 -51.060715 -116.42159 -49.140137 -114.65534 -8.2714224 -1.2189556
14450000000 -27.579901 173.28249 -52.593071 -128.9212 -49.928185 -127.76379 -8.3926563 -5.89151
14460000000 -27.732054 172.03438 -50.763103 -139.91444 -48.281506 -146.50677 -8.5114889 -10.564094
14470000000 -27.402533 174.46477 -48.847866 -164.94179 -47.198799 -169.23607 -8.6769943 -15.379904
14480000000 -27.242882 177.43019 -49.376225 167.3696 -47.40078 163.05692 -8.8908091 -20.181149
14490000000 -27.201128 175.75015 -49.155445 149.7782 -46.862305 138.57159 -9.1548586 -25.231295
14500000000 -26.818804 -179.60774 -48.697906 127.82813 -47.466602 116.63696 -9.4265919 -30.635267
14510000000 -26.440977 174.65324 -48.908138 110.20347 -47.505737 96.37693 -9.6552382 -36.192276
14520000000 -26.926586 176.22063 -47.810478 90.610123 -47.30265 76.753517 -9.8448925 -41.348843
14530000000 -27.07568 171.06874 -47.579567 66.275505 -47.015022 52.348362 -10.018532 -46.064087
14540000000 -27.335859 -177.79399 -47.173512 43.915966 -47.733189 32.234177 -10.293626 -50.229134
14550000000 -26.078024 179.37885 -47.008942 23.842005 -47.132427 13.915833 -10.665874 -54.472004
14560000000 -25.383045 -177.02936 -46.647961 2.825506 -47.020103 -8.6754541 -11.139135 -59.258354
14570000000 -24.31389 174.66327 -45.877239 -22.572557 -46.79686 -31.123779 -11.650847 -64.855469
14580000000 -24.299812 175.42567 -45.88472 -45.584133 -46.741909 -50.720959 -12.111113 -70.875061
14590000000 -24.193287 167.06621 -46.463085 -66.970695 -47.123463 -74.662376 -12.560868 -76.88456
14600000000 -25.017511 172.33212 -45.519588 -88.638496 -46.868656 -94.55027 -12.974566 -82.360611
14610000000 -25.088377 171.4369 -45.752689 -109.98503 -46.680008 -116.04942 -13.419516 -87.896324
14620000000 -24.73959 -178.02603 -44.985184 -132.72163 -47.078396 -135.97229 -13.895008 -93.983444
14630000000 -23.614286 178.93828 -44.708019 -156.89919 -46.513832 -153.81889 -14.324018 -100.43388
14640000000 -22.619972 177.57661 -44.759132 178.77348 -46.038551 -175.16228 -14.730124 -107.19111
14650000000 -22.179617 170.362 -44.565876 152.97655 -45.813557 160.1483 -15.10831 -113.49936
14660000000 -21.938917 165.50993 -44.986519 129.60155 -45.537254 134.50636 -15.595705 -119.68073
14670000000 -22.741243 160.23073 -45.524387 108.24651 -46.153431 114.08649 -16.208012 -126.01089
14680000000 -22.631451 162.60333 -45.24556 87.755852 -45.923252 95.205254 -16.838936 -133.25026
14690000000 -23.15106 163.9579 -45.003712 65.988693 -45.268227 71.895508 -17.406725 -141.70847
14700000000 -22.25703 168.30835 -45.208862 39.805435 -45.734554 47.540844 -17.699522 -151.25639
14710000000 -21.925205 167.593 -45.472858 19.5917 -45.472542 28.302151 -17.828609 -160.7328
14720000000 -20.922918 164.76428 -45.7257 -1.8343933 -45.329529 7.7034621 -17.78442 -169.92476
14730000000 -21.040125 159.92886 -45.362438 -24.525484 -44.439053 -16.516603 -17.707024 -178.45059
14740000000 -20.682554 155.3611 -45.473019 -48.888256 -44.299305 -42.611465 -17.67667 173.61246
14750000000 -21.420059 153.24146 -45.765461 -73.876762 -44.352062 -68.175858 -17.718065 166.45494
14760000000 -20.787306 151.58299 -46.279922 -95.386406 -44.848984 -93.667381 -17.777706 159.3866
14770000000 -21.516653 148.87643 -46.851158 -117.37555 -45.558281 -113.31543 -17.805714 151.35849
14780000000 -20.704382 149.98344 -47.089928 -133.87769 -45.503204 -133.30138 -17.712429 143.32428
14790000000 -21.088654 147.61253 -47.264755 -154.04163 -45.250607 -152.36185 -17.336834 135.45
14800000000 -20.410818 148.11366 -47.154636 -172.25961 -45.324146 -176.57648 -16.855328 128.08415
14810000000 -20.634964 145.61847 -46.452282 164.93765 -44.684391 161.00493 -16.480438 121.85716
14820000000 -20.123306 145.4837 -46.642963 143.13803 -45.210903 135.153 -16.16708 116.37553
14830000000 -20.443159 143.26424 -46.380993 117.60048 -45.043358 111.82588 -15.96156 110.91103
14840000000 -19.956167 141.34071 -47.004242 98.574638 -45.421803 86.417839 -15.759211 105.59267
14850000000 -20.466263 137.28586 -47.219944 78.207344 -46.498489 64.741234 -15.435525 100.72889
14860000000 -20.239645 134.92975 -46.772652 57.930672 -46.606274 44.459053 -15.181814 96.025459
14870000000 -21.022234 130.50633 -46.989033 36.195442 -46.993252 22.725525 -15.00634 91.948227
14880000000 -20.992535 130.35277 -46.375626 17.764402 -46.942142 4.4743609 -14.953356 87.321297
14890000000 -21.410442 128.91238 -45.916161 -4.946157 -46.777332 -12.84027 -14.954033 82.112976
14900000000 -21.160042 129.6904 -45.49218 -31.543798 -45.936012 -40.161339 -14.769373 76.536758
14910000000 -21.023882 130.97969 -46.057209 -58.638641 -46.198776 -70.495682 -14.48484 71.085335
14920000000 -20.24367 127.76362 -45.712837 -78.901192 -47.320496 -93.913277 -14.183373 67.154106
14930000000 -20.381008 125.21988 -46.378231 -104.63034 -48.262135 -108.98248 -13.947868 64.317047
14940000000 -20.235792 120.58606 -46.539845 -124.5977 -48.037189 -128.70477 -13.912889 61.371956
14950000000 -20.927351 117.83477 -46.136993 -146.5081 -48.184269 -148.99522 -14.104657 57.894249
14960000000 -21.687614 114.38673 -46.282276 -173.20668 -48.011608 -172.80611 -14.283014 54.15451
14970000000 -22.946449 120.19371 -46.275059 164.16986 -48.166954 165.68591 -14.32698 50.04496
14980000000 -22.734224 120.97477 -46.49263 139.35933 -48.128887 143.39635 -14.324583 46.152222
14990000000 -22.652525 126.52341 -47.219021 112.74796 -48.446835 116.46365 -14.416113 42.736046
15000000000 -21.910254 120.8968 -48.247379 95.575562 -49.466183 99.782173 -14.634166 39.025299
15010000000 -21.839754 118.7961 -47.609028 77.71656 -48.46661 77.264709 -15.007925 35.127388
15020000000 -21.754099 108.50142 -47.112041 53.352947 -49.254005 56.042244 -15.268263 31.181208
15030000000 -23.136707 108.33801 -46.590122 21.269695 -48.643791 31.497396 -15.313984 27.388065
15040000000 -23.715767 106.46634 -47.854248 -4.1617637 -48.567051 12.388566 -15.320966 24.692316
15050000000 -24.676453 115.47648 -48.866043 -28.357651 -48.92276 -18.751854 -15.506499 23.431005
15060000000 -24.363958 119.82656 -49.382324 -50.020489 -49.331303 -39.079731 -15.91613 22.870073
15070000000 -23.714554 126.10339 -49.767979 -68.290932 -49.505615 -59.974533 -16.607517 21.740332
15080000000 -22.935755 121.51775 -50.247246 -91.840164 -49.338894 -84.332771 -17.439512 20.108217
15090000000 -23.159729 118.01018 -49.483761 -116.21983 -49.633675 -109.31964 -18.031422 17.656511
15100000000 -23.870024 112.87336 -49.393982 -146.99699 -49.405502 -135.93527 -18.632595 14.383101
15110000000 -25.22312 114.07881 -50.900997 -175.19031 -50.258656 -157.65971 -19.226242 13.693136
15120000000 -25.958679 120.02825 -52.331577 156.03587 -50.176903 172.20081 -19.71385 14.329534
15130000000 -25.427906 126.53481 -53.285576 136.18636 -51.225147 147.11292 -20.382618 16.168068
15140000000 -24.738134 127.43095 -54.866108 112.8605 -51.29599 128.13954 -20.930622 19.050188
15150000000 -24.159817 126.08497 -54.491623 89.065231 -51.376186 95.492958 -21.161957 21.399673
15160000000 -24.093117 124.51324 -57.408016 57.418682 -52.479027 66.21656 -21.448568 24.398779
15170000000 -23.843269 124.15327 -58.237766 35.197449 -54.302113 36.437931 -21.503794 29.877748
15180000000 -24.04081 122.68587 -59.673271 23.276873 -54.936302 34.194778 -21.530855 36.317879
15190000000 -24.051107 126.05172 -59.976051 -5.6403074 -53.183945 8.313735 -21.457186 43.675369
15200000000 -23.934698 128.34874 -58.277748 -30.322987 -51.899246 -35.839207 -21.180546 48.810665
15210000000 -23.190008 126.53227 -60.149677 -88.224403 -54.049641 -80.377518 -21.020142 51.677017
15220000000 -23.775251 124.49352 -63.97681 -123.17007 -58.373978 -111.92334 -20.765661 53.398903
15230000000 -23.741062 125.04372 -67.015266 155.00732 -60.440777 -119.49632 -20.340137 53.883244
15240000000 -24.105042 127.28291 -73.068413 88.71637 -59.117882 -139.89098 -19.786705 53.96981
15250000000 -23.508039 129.01016 -67.627205 -29.706963 -60.11578 -174.41437 -19.104868 53.770885
15260000000 -22.997793 127.31046 -76.512161 168.3925 -58.608822 140.90923 -18.357969 52.316181
15270000000 -22.435041 124.9976 -74.822044 81.985779 -60.937267 119.63411 -17.693085 50.774406
15280000000 -22.09543 119.19333 -69.802429 34.664764 -59.860367 90.310135 -17.081785 50.120106
15290000000 -22.391237 114.66176 -66.361649 -41.284904 -58.793037 60.878536 -16.529371 50.06686
15300000000 -22.988247 111.70325 -65.303741 -71.064262 -56.975441 14.156568 -16.105328 49.874992
15310000000 -23.693182 114.19267 -67.907196 -129.76668 -58.424786 -28.351437 -15.803214 48.520515
15320000000 -23.699224 117.17371 -69.567375 143.63464 -61.452034 -55.925442 -15.674084 46.035801
15330000000 -23.293755 122.5293 -81.716995 157.33759 -59.732746 -59.156322 -15.536744 42.867657
15340000000 -22.37719 116.95682 -66.53038 37.574081 -60.753403 -85.66449 -15.348413 39.730713
15350000000 -22.574121 115.62461 -64.139755 -29.515137 -59.737309 -98.964699 -15.042005 36.630123
15360000000 -22.2439 108.2593 -59.170853 -64.674484 -55.572029 -117.13671 -14.810965 33.321377
15370000000 -23.097143 105.53101 -57.284756 -121.34254 -54.156754 -159.58974 -14.666284 30.018921
15380000000 -23.022499 100.63556 -58.851528 -155.61465 -54.19191 165.96878 -14.51236 26.162697
15390000000 -24.375969 100.56791 -60.106335 -163.56575 -57.405975 136.64227 -14.294856 22.475504
15400000000 -24.241751 100.6003 -56.582115 -172.69453 -55.291882 136.68117 -13.98614 19.042297
15410000000 -24.583988 102.76484 -53.547146 159.55156 -54.269836 113.89284 -13.774781 16.223417
15420000000 -24.393276 98.027802 -50.268318 126.84096 -52.365372 85.794632 -13.770753 13.848674
15430000000 -25.059486 101.74567 -49.729351 87.745415 -51.990116 55.576313 -13.946384 11.302985
15440000000 -24.530283 97.599525 -49.637688 55.413059 -51.718918 30.854151 -14.184367 7.1907449
15450000000 -25.275122 97.158653 -50.104519 30.286814 -51.943195 3.1309886 -14.396256 1.3654567
15460000000 -25.054827 92.060242 -49.935856 10.236152 -52.60466 -16.476509 -14.483217 -4.9269705
15470000000 -26.095327 89.385994 -48.325642 -16.36904 -51.47287 -36.424423 -14.423879 -10.623408
15480000000 -26.186136 84.177948 -47.9673 -39.375607 -51.412331 -56.959915 -14.407668 -15.087749
15490000000 -27.688927 81.377686 -46.859524 -66.582863 -50.560894 -81.233719 -14.435081 -19.175095
15500000000 -28.424139 77.463356 -46.604603 -95.720245 -50.719719 -103.35524 -14.590852 -23.591558
15510000000 -30.068102 81.761559 -46.524895 -124.61805 -50.319633 -131.08992 -14.869914 -28.402733
15520000000 -30.935404 80.761032 -46.719238 -147.97986 -50.150269 -149.63622 -15.153816 -33.346321
15530000000 -31.060089 95.598122 -46.174557 -173.88475 -49.923721 -175.23383 -15.455967 -38.681343
15540000000 -30.363131 86.780769 -45.999767 162.37263 -49.833942 166.62225 -15.913662 -44.33466
15550000000 -30.875965 88.88765 -45.848179 134.1826 -48.965595 147.31593 -16.399611 -50.918613
15560000000 -31.33449 70.362579 -46.236404 110.21734 -48.474728 120.66647 -16.885794 -59.007896
15570000000 -34.956429 70.994736 -45.705585 83.995483 -47.857002 94.973167 -17.283539 -68.476227
15580000000 -37.346115 44.836742 -46.06876 59.044704 -48.157139 70.317299 -17.496059 -77.803558
15590000000 -48.827656 93.609947 -45.825478 34.657856 -47.744411 48.679489 -17.483284 -86.494408
15600000000 -66.183945 100.38679 -45.434635 9.7286539 -47.209476 23.54723 -17.462061 -94.207977
15610000000 -41.106972 179.97137 -45.727501 -20.827425 -47.328575 -2.4826791 -17.507401 -100.9494
15620000000 -48.335213 172.92526 -46.495644 -48.023296 -47.288483 -28.778913 -17.724401 -108.11189
15630000000 -40.695469 -170.8367 -47.409523 -69.888977 -48.111412 -47.67733 -18.071053 -116.12437
15640000000 -45.744446 -138.76263 -47.36953 -87.795639 -47.393131 -66.205681 -18.387636 -125.43382
15650000000 -37.726116 -136.08105 -47.359764 -111.95643 -46.979355 -90.643822 -18.477083 -136.15228
15660000000 -36.304089 -129.53833 -47.326813 -140.08299 -46.332375 -116.64428 -18.19487 -146.50832
15670000000 -33.208549 -146.48938 -48.228138 -166.55443 -46.404972 -142.01544 -17.630146 -155.41434
15680000000 -34.152069 -136.50996 -49.637348 168.47754 -46.871559 -169.78598 -17.043781 -162.98018
15690000000 -31.414003 -136.40103 -50.2579 153.8389 -46.908524 169.10803 -16.66869 -169.35379
15700000000 -29.961542 -133.24731 -50.517441 130.45413 -47.448299 145.46457 -16.418785 -175.14923
15710000000 -28.265528 -138.71158 -50.930859 108.18099 -47.052826 123.57256 -16.11347 179.10124
15720000000 -27.209013 -142.31326 -52.725609 85.72123 -47.502369 99.021378 -15.751736 173.27182
15730000000 -26.729778 -147.48341 -53.387043 77.767807 -47.681892 75.777283 -15.394789 167.76747
15740000000 -26.723701 -152.18222 -52.883289 62.823807 -47.621906 53.632256 -15.14735 162.49684
15750000000 -27.346436 -153.61417 -52.185432 39.11042 -47.588387 26.656321 -14.984426 157.38562
15760000000 -27.711388 -146.48317 -53.068794 24.669012 -48.724777 3.6383257 -14.754364 151.97804
15770000000 -26.495071 -140.76636 -53.715435 12.34814 -49.308235 -14.517682 -14.370111 146.06625
15780000000 -25.239258 -140.73412 -52.512615 -2.4340048 -49.561508 -35.499863 -13.850241 141.17255
15790000000 -24.069418 -144.61574 -51.438026 -19.523966 -49.811634 -56.766544 -13.295803 137.3945
15800000000 -23.29705 -149.60655 -50.144871 -43.29472 -49.713253 -77.85257 -12.894243 134.8558
15810000000 -23.102522 -154.15085 -49.506439 -65.484367 -51.266624 -100.9135 -12.679613 132.99223
15820000000 -23.148264 -157.1604 -48.776363 -89.058334 -50.776939 -112.41553 -12.578851 130.60321
15830000000 -23.374369 -157.01677 -48.066032 -113.15558 -49.943974 -134.52313 -12.54746 127.35347
15840000000 -23.384857 -154.60716 -47.642735 -141.11005 -50.103733 -158.64825 -12.48671 123.49554
15850000000 -23.210243 -152.77176 -47.83511 -165.19318 -50.703228 176.605 -12.340505 119.60697
15860000000 -22.736124 -148.79015 -47.62534 172.32893 -51.081093 162.86292 -12.128541 115.84696
15870000000 -22.057789 -150.9283 -47.00552 148.00056 -50.651314 141.9641 -11.894728 112.38878
15880000000 -21.809469 -151.08459 -46.718018 120.9575 -51.215736 120.43478 -11.665419 109.11727
15890000000 -21.334543 -153.60292 -46.482105 92.968132 -50.459591 100.24146 -11.455079 106.20094
15900000000 -21.236965 -156.44612 -46.774441 65.113892 -50.593132 76.622475 -11.226666 103.62241
15910000000 -21.035048 -156.76627 -47.299725 41.028858 -51.114525 55.87466 -11.033379 101.39026
15920000000 -20.888121 -159.09114 -47.480446 11.46773 -51.030678 34.634556 -10.866966 99.356277
15930000000 -21.009863 -158.42937 -47.970551 -14.494003 -50.958 9.7011223 -10.773897 97.336594
15940000000 -20.711983 -156.55447 -48.518833 -43.992065 -51.957672 -15.87944 -10.740048 95.324081
15950000000 -20.431677 -155.66655 -49.540646 -69.031853 -52.710541 -30.689447 -10.748466 93.020226
15960000000 -20.145615 -153.5562 -49.954159 -98.46019 -52.608028 -52.119602 -10.745918 90.458244
15970000000 -19.441998 -153.32698 -51.670765 -125.28909 -52.650196 -67.116547 -10.738393 87.377037
15980000000 -19.345007 -153.67297 -53.122231 -155.96268 -52.79565 -89.601685 -10.681305 84.149704
15990000000 -18.711044 -153.72623 -54.963604 179.6162 -52.092762 -107.54033 -10.567364 81.044991
16000000000 -18.767485 -156.88806 -57.143688 152.16388 -51.404964 -134.39839 -10.413399 78.516258
16010000000 -18.485855 -156.26607 -58.78038 118.22715 -52.071037 -161.92055 -10.234203 76.504532
16020000000 -18.664865 -158.49496 -63.809502 63.330593 -52.515316 178.14102 -10.135782 74.711723
16030000000 -18.481176 -155.86411 -66.385323 -10.760732 -52.347858 155.13522 -10.139787 72.815529
16040000000 -18.152739 -155.31836 -61.879852 -91.908867 -53.170128 131.59442 -10.235625 70.62471
16050000000 -17.571636 -154.87706 -58.695351 -136.78293 -52.6805 108.43961 -10.336783 68.167191
16060000000 -17.225298 -154.63293 -55.929409 -176.97334 -53.473186 82.302513 -10.387182 65.399673
16070000000 -16.51437 -154.88365 -54.787209 150.96921 -53.714973 56.81147 -10.392971 62.55484
16080000000 -16.291241 -157.12979 -53.083019 126.90269 -55.827358 36.770535 -10.427526 59.73967
16090000000 -15.899737 -157.89546 -51.926495 96.533653 -55.718533 24.595388 -10.500318 56.788338
16100000000 -15.950131 -159.73347 -51.059074 66.740845 -56.085945 5.1566801 -10.597237 53.736828
16110000000 -15.81951 -159.25432 -51.505314 41.078434 -57.310101 -21.249876 -10.634386 50.392509
16120000000 -15.773702 -158.93736 -49.838627 20.484835 -58.925766 -26.375443 -10.620683 47.36116
16130000000 -15.304455 -157.95427 -48.670303 -16.450659 -58.244247 -45.904999 -10.579687 45.13055
16140000000 -14.997413 -158.32819 -49.53611 -49.088612 -60.021786 -61.42791 -10.597031 43.577423
16150000000 -14.417416 -159.41434 -50.761059 -66.836533 -58.176689 -47.014694 -10.736045 41.797447
16160000000 -14.09016 -160.92833 -50.226063 -91.739395 -55.576202 -72.895218 -11.07073 39.414467
16170000000 -13.606802 -163.05234 -49.630291 -116.72408 -55.229305 -91.001381 -11.477168 35.971245
16180000000 -13.552637 -164.4955 -49.322849 -151.4671 -53.167149 -117.98641 -11.844339 31.835079
16190000000 -13.264487 -165.53076 -50.953529 176.02682 -53.60519 -144.73668 -12.076384 27.675137
16200000000 -13.214181 -165.65428 -52.748524 151.99036 -54.016415 -168.73825 -12.277777 23.822147
16210000000 -12.96834 -166.19089 -54.896214 125.484 -54.86377 176.69254 -12.538235 20.30196
16220000000 -12.858324 -165.51358 -56.06176 114.71349 -53.77726 157.75398 -12.885182 16.711746
16230000000 -12.444164 -166.17123 -55.993931 97.923691 -53.997505 135.77377 -13.281642 12.928843
16240000000 -12.206965 -165.95213 -57.849083 64.384331 -54.742168 121.46667 -13.661277 9.1211243
16250000000 -11.697529 -168.63547 -62.625641 46.675461 -52.916821 101.79141 -14.025156 6.170579
16260000000 -11.526358 -170.57697 -64.89196 88.130089 -53.064182 75.786133 -14.508707 3.6717224
16270000000 -11.233574 -173.49495 -61.69873 77.960266 -53.3689 55.184082 -15.263408 1.4275192
16280000000 -11.289634 -175.41727 -58.556164 60.946449 -53.216534 32.650288 -16.254707 -1.8185513
16290000000 -11.164639 -176.24165 -56.985329 48.939426 -53.444462 15.771597 -17.409761 -7.2955556
16300000000 -11.125741 -176.24629 -55.027832 32.615002 -53.427593 -6.1832199 -18.60445 -14.778873
16310000000 -10.796731 -175.66562 -52.033348 6.0792093 -52.743771 -27.022863 -19.694191 -22.316463
16320000000 -10.456699 -175.47516 -51.383156 -23.422024 -52.475811 -48.007156 -20.60358 -29.948429
16330000000 -9.9619007 -177.0072 -51.141075 -53.109192 -52.109764 -77.585945 -21.904108 -37.856197
16340000000 -9.803586 -178.91841 -50.965633 -70.537552 -52.86132 -90.17807 -23.407085 -46.675053
16350000000 -9.5498676 178.80283 -49.881496 -95.323006 -51.793938 -111.29336 -25.156845 -59.183289
16360000000 -9.6297865 176.61052 -49.507179 -120.70201 -50.964066 -134.73589 -27.332277 -72.877235
16370000000 -9.6078358 175.51622 -48.552372 -145.37912 -50.297207 -159.86929 -29.400221 -94.191093
16380000000 -9.6175356 174.9193 -48.571182 -171.44073 -50.476089 177.66997 -30.756264 -129.21851
16390000000 -9.3797846 174.46205 -48.524994 161.87383 -50.018318 156.31152 -28.26762 -163.39897
16400000000 -9.1780529 173.83319 -49.128227 143.83754 -50.347042 135.54449 -25.108818 178.90106
16410000000 -8.8397665 172.77373 -47.868099 120.27196 -49.978336 117.77309 -22.879454 171.2823
16420000000 -8.6133432 171.52563 -48.01334 93.037743 -49.262505 95.047195 -21.357149 165.86162
16430000000 -8.3522596 169.93472 -47.663551 70.129913 -48.170368 71.462997 -20.347494 161.05026
16440000000 -8.2610197 168.77809 -47.526058 42.711895 -48.415863 44.472271 -19.337402 155.16962
16450000000 -8.0863523 167.31825 -48.203537 20.729753 -48.829926 22.239843 -18.460934 149.68674
16460000000 -8.0921278 166.40739 -47.814392 -3.3863871 -48.758106 -0.81686723 -17.584608 145.38704
16470000000 -7.9874339 165.49603 -47.938751 -26.992439 -49.104973 -20.504789 -16.853159 141.29442
16480000000 -7.9492249 164.64151 -47.757271 -53.193378 -48.6693 -43.364002 -16.262184 136.67732
16490000000 -7.8316994 163.89577 -48.331028 -75.473572 -48.78875 -66.793297 -15.716713 131.89404
16500000000 -7.7100148 163.48128 -48.396042 -98.787247 -48.905197 -91.328766 -14.930522 127.59908
16510000000 -7.4270973 162.41533 -48.274235 -120.43153 -49.171589 -110.79249 -14.152793 124.02923
16520000000 -7.2119036 161.43555 -48.29409 -152.08032 -49.137794 -136.69743 -13.532346 122.31551
16530000000 -6.9148011 159.42863 -49.787926 -172.39221 -49.289341 -154.07867 -13.093623 121.25729
16540000000 -6.8486376 157.80762 -50.177876 161.82091 -49.10791 177.40063 -12.843701 119.18014
16550000000 -6.7572474 156.34564 -50.68235 145.19855 -49.739086 154.8726 -12.71778 116.18108
16560000000 -6.808372 155.69562 -50.938145 124.3475 -50.458942 135.08917 -12.505919 112.66959
16570000000 -6.7188544 155.56808 -51.175083 97.240479 -50.20153 112.89272 -12.18765 109.32837
16580000000 -6.6172228 155.83354 -52.961555 74.252739 -50.730919 92.150955 -11.840785 106.42011
16590000000 -6.3297443 155.31906 -53.347424 66.433327 -50.010548 71.975807 -11.560987 103.86275
16600000000 -6.0854397 153.95198 -53.318058 52.946098 -50.206821 46.692818 -11.351834 101.2048
16610000000 -5.8666124 152.05327 -52.336613 29.747992 -50.903183 24.176147 -11.136886 98.433548
16620000000 -5.7751832 150.05421 -52.171749 10.378461 -50.918915 0.92950821 -10.838115 95.710327
16630000000 -5.6989279 148.38467 -51.66367 -14.516773 -50.976444 -20.371607 -10.486172 93.660896
16640000000 -5.6703172 147.53397 -52.267307 -33.531013 -51.315456 -42.812542 -10.175444 92.175797
16650000000 -5.5243459 147.01871 -52.637249 -52.285725 -52.166004 -66.713921 -10.049662 90.8312
16660000000 -5.3751616 146.56961 -51.23909 -67.543007 -51.843647 -82.296059 -10.053591 89.350044
16670000000 -5.1185632 146.04042 -51.107784 -96.973076 -51.381123 -107.47601 -10.1199 86.956642
16680000000 -4.9142079 144.9612 -50.398754 -117.99567 -51.620876 -130.7953 -10.085829 83.784698
16690000000 -4.6982055 143.79877 -50.576515 -144.9742 -51.466393 -154.81348 -9.9588137 79.966995
16700000000 -4.5721211 142.0947 -50.470543 -171.30473 -52.146664 174.12422 -9.7946863 76.818604
16710000000 -4.4531803 140.73039 -51.115135 165.44154 -53.637447 156.91286 -9.6079941 74.43499
16720000000 -4.3853159 139.38994 -51.220161 144.08592 -53.725395 143.02769 -9.4322309 72.592491
16730000000 -4.250196 138.20319 -51.523865 119.99268 -52.979763 124.28526 -9.3048477 70.716263
16740000000 -4.1566763 137.06029 -51.773697 98.284889 -53.134899 101.36419 -9.2254267 68.800056
16750000000 -3.9749651 136.06845 -51.557781 74.027229 -52.931023 77.37973 -9.1509523 66.887314
16760000000 -3.8074653 134.85693 -52.243992 44.952168 -53.982891 55.969242 -9.122098 65.007133
16770000000 -3.6043909 133.57991 -53.255405 21.106539 -53.863346 38.742058 -9.1302481 63.043877
16780000000 -3.4561582 132.20023 -54.624168 0.022367636 -54.000393 13.927712 -9.1936102 60.847847
16790000000 -3.2955568 130.73123 -55.993702 -9.6885929 -54.256828 -0.75909567 -9.2623854 58.184689
16800000000 -3.2011733 129.2037 -54.838634 -29.494711 -54.052998 -20.812754 -9.3021841 54.911266
16810000000 -3.1047301 127.91104 -55.191547 -58.240551 -53.408066 -42.147411 -9.2936859 51.417805
16820000000 -3.0135839 126.52026 -56.944077 -83.82048 -54.774055 -68.513031 -9.2360334 47.840141
16830000000 -2.8863301 125.09309 -58.882271 -91.934464 -54.758583 -83.96608 -9.1397209 44.81459
16840000000 -2.7832847 123.70385 -58.540546 -95.410843 -54.542812 -102.25258 -9.0239201 42.345051
16850000000 -2.6205821 122.2159 -55.592918 -112.91915 -53.43222 -124.97397 -8.9208155 40.475597
16860000000 -2.4968433 120.58916 -56.129192 -142.67467 -53.987404 -148.51997 -8.871172 38.859978
16870000000 -2.3554845 119.05798 -56.206921 -163.49348 -53.895634 -169.81979 -8.9147825 37.257488
16880000000 -2.2544472 117.54536 -56.655811 178.50687 -54.426762 163.25108 -9.0684118 35.206532
16890000000 -2.1410842 116.14737 -56.83448 163.97856 -55.398251 143.62975 -9.2509708 32.573475
16900000000 -2.0505538 114.89774 -55.260303 146.91034 -55.376717 130.41312 -9.4244461 29.006432
16910000000 -1.9397599 113.49562 -54.454926 120.15136 -54.773472 103.162 -9.5341673 25.073774
16920000000 -1.8618541 112.07642 -54.244209 96.025101 -54.973831 80.289276 -9.547575 21.066458
16930000000 -1.7657191 110.51694 -54.156078 67.72139 -55.0145 55.23819 -9.514183 17.412357
16940000000 -1.7029113 108.92685 -54.381531 42.164894 -56.014107 31.709509 -9.4724264 13.865436
16950000000 -1.609684 107.29624 -55.07222 26.814213 -56.42086 16.034731 -9.5029306 10.626191
16960000000 -1.5341128 105.67245 -54.631081 -1.7519636 -56.661789 -6.0274515 -9.5839148 7.5368361
16970000000 -1.4317986 104.08498 -55.018089 -23.313061 -56.519604 -25.892458 -9.7009983 4.6973848
16980000000 -1.3413157 102.46201 -55.22271 -46.325768 -56.566532 -48.975445 -9.8478184 1.6907761
16990000000 -1.2404686 100.83776 -55.366909 -70.744911 -56.485195 -72.888138 -10.027241 -1.640489
17000000000 -1.168336 99.25882 -55.570587 -94.536888 -56.899426 -91.568314 -10.258162 -5.5202661
