!Keysight Technologies,P9374A,MY57211807,A.19.30.04
!Date: Friday, May 08, 2026 14:23:38
!Correction: S11(C  2-Port  ) 
!S21(C  2-Port  ) 
!S12(C  2-Port  ) 
!S22(C  2-Port  ) 
!S2P File: Measurements: S11, S21, S12, S22:
# Hz S  dB   R 50
13000000000 -18.392923 72.954506 -47.086906 -169.85992 -46.570236 -170.95265 -14.535272 -78.127304
13010000000 -17.255585 68.758179 -46.181541 171.09157 -45.539665 167.59827 -15.041434 -80.839745
13020000000 -17.105444 60.302265 -45.229977 146.67546 -44.950161 142.22406 -15.633331 -83.987137
13030000000 -17.439587 52.94989 -45.52993 120.68385 -45.385139 115.9377 -16.327303 -87.283051
13040000000 -19.067118 45.206779 -45.958607 99.933289 -46.090111 94.177605 -17.168009 -90.853523
13050000000 -20.992754 47.221092 -46.472095 81.084717 -46.473015 78.541992 -18.086653 -94.72776
13060000000 -23.089174 56.075077 -46.368313 68.286812 -46.325146 62.22377 -18.974195 -100.11031
13070000000 -22.400429 75.056473 -45.208847 49.537842 -45.736061 47.340122 -19.749077 -107.48785
13080000000 -20.653728 81.111641 -44.423542 24.653954 -44.563911 22.108295 -20.395315 -115.42867
13090000000 -18.491026 77.939117 -44.463139 2.233191 -44.717533 0.12948021 -21.146263 -122.45255
13100000000 -17.560513 69.035599 -44.460003 -17.904003 -44.576923 -20.989862 -21.996758 -129.02127
13110000000 -17.030506 59.773876 -44.46088 -38.270599 -45.053074 -40.497375 -23.107311 -136.73329
13120000000 -17.746294 48.042885 -44.421162 -57.601761 -44.716106 -57.066555 -24.110662 -148.06306
13130000000 -19.071455 43.461384 -43.50602 -75.949425 -43.821617 -76.282761 -24.588667 -163.21609
13140000000 -21.529486 43.539566 -43.620796 -103.77502 -43.644878 -103.31883 -24.54221 -178.56123
13150000000 -22.740633 60.589436 -43.942562 -122.87196 -44.318439 -123.03575 -24.242811 167.75639
13160000000 -21.934019 76.687469 -44.368004 -137.31247 -44.194996 -135.79248 -23.89167 154.70703
13170000000 -19.378017 80.662323 -43.042408 -153.63243 -42.937641 -153.92929 -23.143547 141.16602
13180000000 -17.951088 74.058144 -42.212711 -177.15823 -42.121243 -176.88168 -21.930855 129.02103
13190000000 -16.65015 64.028015 -41.568691 157.47812 -41.430447 156.37683 -20.559076 120.82424
13200000000 -17.028912 49.423615 -41.603424 132.16574 -41.459747 132.18982 -19.329966 115.82332
13210000000 -17.81213 42.639454 -42.272984 108.54667 -42.035568 108.26962 -18.430519 111.71017
13220000000 -19.39105 34.472649 -42.7174 90.649872 -42.516846 91.679482 -17.754759 106.92383
13230000000 -21.32921 38.954021 -43.059719 77.556038 -42.620888 75.334984 -17.093536 100.91338
13240000000 -22.864202 51.238953 -41.957062 63.161835 -41.808189 60.982861 -16.294359 94.70961
13250000000 -21.317448 68.669579 -40.520481 42.107681 -40.349937 40.705902 -15.342945 89.635826
13260000000 -19.306881 70.742882 -39.756233 16.613581 -39.666138 14.402277 -14.396743 85.888657
13270000000 -17.509296 63.75251 -39.46125 -9.1347456 -39.269878 -9.9964266 -13.662775 82.993401
13280000000 -17.046688 53.054878 -39.873169 -32.416569 -39.72876 -34.298569 -13.126104 80.353592
13290000000 -17.042534 42.046333 -39.906612 -50.24963 -39.773193 -52.895195 -12.691022 77.272751
13300000000 -17.981981 30.863529 -38.97776 -69.613281 -39.062988 -71.374542 -12.230487 73.550797
13310000000 -19.646791 24.084818 -38.66547 -91.467812 -38.541435 -92.679672 -11.655757 69.446869
13320000000 -22.100615 22.997427 -38.206814 -114.61847 -38.043205 -116.62909 -11.092092 65.731583
13330000000 -23.597122 39.702427 -37.969116 -137.3421 -37.989979 -139.82449 -10.586989 62.559631
13340000000 -22.429123 56.595745 -37.750767 -157.77696 -37.854973 -159.47197 -10.188866 59.554436
13350000000 -20.098904 58.868362 -37.18969 -178.78656 -37.289341 179.13934 -9.877387 56.381931
13360000000 -18.364309 53.829399 -36.737518 158.77139 -36.682205 157.72679 -9.5694084 52.456734
13370000000 -17.286783 41.908211 -36.109131 135.55531 -35.970993 134.53214 -9.1831684 48.189899
13380000000 -17.441938 28.695934 -35.850227 110.53541 -35.696232 108.27538 -8.7316809 44.157166
13390000000 -18.640739 16.461569 -35.857128 87.030037 -35.823502 84.113167 -8.2745075 40.613544
13400000000 -20.740166 9.3225517 -35.84631 64.801308 -36.048809 62.439671 -7.884872 37.567749
13410000000 -23.328058 8.3881159 -35.705856 44.226276 -35.731133 43.564739 -7.6255884 34.687855
13420000000 -26.177778 25.060812 -35.228672 23.518318 -35.188896 21.611347 -7.4461198 31.420046
13430000000 -24.705929 48.382839 -34.430462 0.41621378 -34.391495 -1.1520768 -7.2810888 27.650558
13440000000 -21.609125 51.412518 -33.978649 -26.16222 -33.891323 -27.528904 -7.1240344 23.398451
13450000000 -19.54114 41.591423 -34.05505 -52.245502 -33.908562 -54.244926 -6.9461699 19.195238
13460000000 -18.802618 28.887049 -34.380116 -76.538147 -34.423309 -78.906265 -6.7262359 15.482782
13470000000 -18.969612 15.017544 -34.513443 -95.119507 -34.612129 -97.160255 -6.5391335 12.012512
13480000000 -20.01757 3.8215582 -34.13113 -116.55492 -34.263645 -117.56164 -6.3933158 8.5537434
13490000000 -21.946102 -9.5648861 -33.471607 -139.24562 -33.489609 -140.08003 -6.3230009 5.0157452
13500000000 -25.982004 -14.14342 -33.157078 -165.1792 -33.114235 -166.07863 -6.321671 1.4137212
13510000000 -30.641609 21.46553 -33.148651 170.46252 -33.099064 168.23053 -6.3237624 -2.1511893
13520000000 -27.167221 48.383377 -33.087132 145.4561 -33.207142 144.14825 -6.337955 -5.729207
13530000000 -23.52433 46.692104 -33.519939 121.54485 -33.512657 120.8081 -6.3857336 -9.2518377
13540000000 -21.65609 35.259182 -33.507717 101.22442 -33.508579 100.13194 -6.4514523 -12.668841
13550000000 -20.587536 20.998434 -33.251373 78.349693 -33.255211 77.585709 -6.5312376 -16.15255
13560000000 -20.297333 5.2187066 -33.061352 55.567093 -32.975273 54.457294 -6.643436 -19.878613
13570000000 -22.012932 -15.089631 -32.890091 30.788048 -32.798916 29.620085 -6.7540507 -23.450701
13580000000 -25.008326 -27.811497 -32.969162 6.4483995 -32.919304 4.4192433 -6.864614 -26.771212
13590000000 -31.08098 -33.322208 -33.236595 -17.460829 -33.255394 -18.68931 -6.9536457 -29.610386
13600000000 -35.976387 37.264523 -33.526005 -39.067841 -33.453053 -40.202888 -7.0449886 -32.447727
13610000000 -28.464291 65.827682 -33.26619 -59.96669 -33.160789 -61.446972 -7.2122579 -35.096291
13620000000 -24.25938 52.779282 -33.051445 -84.383469 -32.997044 -86.321754 -7.4333892 -37.868397
13630000000 -22.586645 35.724953 -33.050079 -109.27603 -33.091236 -111.17913 -7.6639099 -40.647816
13640000000 -21.981968 14.876255 -33.52021 -133.76059 -33.550369 -134.96785 -7.8906016 -43.672546
13650000000 -23.154026 -4.5859513 -33.808147 -154.75946 -33.841473 -156.62161 -8.0883436 -46.773083
13660000000 -24.734137 -21.707972 -34.076134 -176.54514 -34.112282 -177.14729 -8.2562904 -49.679665
13670000000 -28.64336 -44.361603 -33.953117 163.03683 -33.94899 161.97421 -8.4245329 -52.279079
13680000000 -39.17308 -56.579235 -33.882469 141.14465 -33.863235 140.3831 -8.6045246 -54.625816
13690000000 -35.263855 93.253372 -33.638767 118.46385 -33.595936 117.00908 -8.8195829 -56.801434
13700000000 -26.588785 73.88839 -33.595695 93.140503 -33.645897 92.175423 -9.0577745 -59.070808
13710000000 -23.486692 50.451763 -34.13406 69.024475 -34.047985 68.039749 -9.3035698 -61.611618
13720000000 -22.683191 31.35943 -34.493362 48.061794 -34.473637 46.336922 -9.5269547 -64.185036
13730000000 -22.86031 14.038805 -34.769894 28.390886 -34.823723 27.552912 -9.7531204 -66.845551
13740000000 -23.550941 -4.9261589 -34.501232 8.7272463 -34.41787 8.1763649 -10.002773 -69.175606
13750000000 -26.420837 -31.69812 -34.229515 -13.925543 -34.066273 -14.941188 -10.281325 -71.36161
13760000000 -32.82814 -53.919575 -34.211075 -37.26041 -34.056503 -38.402359 -10.59761 -73.704788
13770000000 -47.036751 153.65808 -34.234581 -61.195122 -34.108009 -63.56506 -10.924023 -76.48732
13780000000 -30.484766 85.374146 -34.437057 -83.688515 -34.51067 -85.416382 -11.204144 -79.763794
13790000000 -26.448124 62.546623 -34.695816 -105.96204 -34.693478 -106.78294 -11.415336 -83.018692
13800000000 -23.965639 44.873051 -34.842243 -126.47975 -34.647636 -128.07323 -11.571681 -85.742874
13810000000 -22.243614 22.887405 -34.665409 -147.24315 -34.597599 -148.69351 -11.74274 -87.707756
13820000000 -22.32666 -1.1944839 -34.580715 -170.46414 -34.441116 -171.7639 -11.970577 -89.443581
13830000000 -23.783693 -19.482716 -34.784523 166.40259 -34.682301 164.74178 -12.314334 -91.521729
13840000000 -25.835648 -40.794518 -34.891365 144.31639 -34.886402 142.31436 -12.70675 -94.236267
13850000000 -32.335449 -57.480782 -35.22139 123.34132 -35.271488 121.16479 -13.083269 -97.447823
13860000000 -44.646461 -28.387613 -35.165199 103.95341 -35.196796 102.68085 -13.385028 -100.83014
13870000000 -33.5 72.096947 -34.893867 82.52684 -34.868782 80.963707 -13.646926 -103.96704
13880000000 -26.902622 54.139015 -34.500942 59.956379 -34.472069 58.310577 -13.929829 -106.89968
13890000000 -23.558086 27.706415 -34.631992 33.859562 -34.56382 31.772213 -14.238555 -110.13519
13900000000 -22.817202 2.0204978 -35.105961 11.546359 -35.116383 9.63659 -14.570179 -113.88924
13910000000 -22.729986 -17.107378 -35.439091 -8.590867 -35.511833 -10.088407 -14.870842 -118.14879
13920000000 -23.439823 -40.253418 -35.287998 -27.879278 -35.382252 -29.586519 -15.110863 -122.04985
13930000000 -25.446947 -61.189438 -34.975292 -49.385822 -35.112991 -50.46212 -15.286471 -125.39583
13940000000 -28.710472 -87.593445 -35.092213 -72.39315 -34.99794 -73.049118 -15.503245 -128.48854
13950000000 -37.405777 -129.67703 -34.773815 -93.469765 -34.825184 -94.971001 -15.867882 -131.66771
13960000000 -40.029564 69.698914 -34.868015 -117.27526 -34.935532 -118.30664 -16.318014 -135.79034
13970000000 -30.577101 34.454643 -35.00016 -139.40846 -35.035423 -140.06187 -16.805748 -141.22586
13980000000 -27.000385 5.5845447 -35.155235 -160.01376 -35.114876 -161.45122 -17.178474 -147.7453
13990000000 -24.405077 -18.61694 -34.934238 179.5282 -34.954651 178.237 -17.35981 -154.68501
14000000000 -23.325148 -46.732464 -34.616531 156.59998 -34.686127 156.25812 -17.337362 -161.14575
14010000000 -22.924757 -69.292526 -34.636879 132.95601 -34.638824 132.15837 -17.210835 -167.22809
14020000000 -23.777475 -94.322922 -34.562569 110.05459 -34.474072 109.38875 -17.126028 -172.96506
14030000000 -25.838207 -114.21396 -34.996883 87.522865 -34.937698 86.089706 -17.089888 -178.46696
14040000000 -29.048281 -140.27948 -34.997211 68.385757 -34.912804 67.015717 -17.050196 175.90492
14050000000 -40.227036 -175.39491 -34.77084 47.566238 -34.615284 46.34906 -16.972889 170.33757
14060000000 -38.907616 23.35187 -34.307438 25.170609 -34.306446 23.310879 -16.83341 164.81931
14070000000 -28.827795 -12.58467 -34.07914 0.29801631 -34.131729 -0.48278207 -16.639055 159.35263
14080000000 -26.121382 -47.90276 -34.23315 -23.73988 -34.201664 -24.556034 -16.445103 154.04668
14090000000 -24.425821 -70.805679 -34.545609 -45.691334 -34.44944 -46.752689 -16.294367 148.60115
14100000000 -23.574654 -101.61388 -34.572639 -66.915276 -34.468506 -68.567261 -16.086237 142.84007
14110000000 -23.793913 -123.506 -34.563736 -88.276115 -34.562366 -89.870247 -15.830056 136.60814
14120000000 -24.079746 -148.62659 -34.465149 -108.66578 -34.469398 -110.13412 -15.440562 130.84372
14130000000 -26.307186 -170.85165 -34.116013 -131.229 -34.143459 -132.22298 -14.953025 125.813
14140000000 -29.673065 167.9718 -33.99313 -153.91272 -33.945347 -155.28641 -14.466455 121.63884
14150000000 -43.895473 147.69574 -33.841362 -177.19936 -33.823349 -178.26604 -14.09439 117.50865
14160000000 -35.850327 -80.467834 -33.912407 159.12505 -33.879139 158.3792 -13.827118 113.37509
14170000000 -29.127382 -83.333473 -34.041203 138.15016 -34.014767 137.18324 -13.553566 108.85771
14180000000 -25.501358 -106.91441 -33.778198 117.30254 -33.590694 116.00318 -13.196959 104.18842
14190000000 -24.024483 -126.52486 -33.460266 93.83477 -33.407974 92.008492 -12.739706 99.569321
14200000000 -22.936228 -148.69759 -33.456444 70.471909 -33.369362 69.219139 -12.288668 95.417488
14210000000 -23.34037 -169.31018 -33.453854 48.008904 -33.435291 46.675049 -11.884406 91.81337
14220000000 -24.182381 171.41287 -33.270451 26.72821 -33.172359 25.327267 -11.526167 88.38559
14230000000 -26.882097 151.46384 -32.947067 4.0394726 -32.897835 2.2905464 -11.204536 84.792854
14240000000 -32.21624 141.64232 -32.729557 -19.263212 -32.641956 -20.832272 -10.894342 80.92791
14250000000 -40.892315 -142.52213 -32.538731 -43.680775 -32.557255 -45.69305 -10.60039 77.224464
14260000000 -30.350203 -115.91742 -32.56118 -66.69136 -32.593964 -68.327095 -10.283575 73.692535
14270000000 -25.529915 -128.20372 -32.398262 -89.844536 -32.389614 -91.54705 -9.9806147 70.085175
14280000000 -23.540913 -149.95454 -32.422913 -112.91475 -32.444824 -114.67981 -9.7437887 66.259903
14290000000 -22.618866 -166.31342 -32.217953 -134.63559 -32.296196 -136.46945 -9.5520086 62.232475
14300000000 -22.820839 171.62158 -32.045807 -157.96571 -32.103756 -159.39006 -9.3322859 58.212616
14310000000 -23.969135 152.61261 -31.748358 179.55591 -31.827539 177.98154 -9.0623417 54.051926
14320000000 -26.806089 128.87228 -31.31979 155.36905 -31.401386 154.34378 -8.7658749 49.968861
14330000000 -33.628376 126.70247 -31.100552 129.76001 -31.140444 128.68707 -8.5122271 46.169338
14340000000 -40.297813 -162.81902 -31.176079 104.22585 -31.260252 102.92187 -8.3085918 42.774052
14350000000 -29.819235 -135.1889 -31.471796 80.876434 -31.458941 80.354759 -8.1411819 39.380379
14360000000 -25.839478 -147.99834 -31.341253 59.024139 -31.293497 57.612988 -8.0307503 35.656528
14370000000 -23.789112 -163.92754 -31.043066 36.047684 -31.048323 34.479454 -7.9641328 31.31649
14380000000 -23.120478 178.4337 -30.698811 11.707064 -30.785019 10.749333 -7.9427896 26.877098
14390000000 -23.090832 161.48993 -30.661226 -13.383659 -30.645002 -13.988246 -7.8815179 22.591404
14400000000 -24.757421 140.32507 -30.496929 -36.654873 -30.414064 -37.835945 -7.7635937 18.292322
14410000000 -28.083103 126.69324 -30.267632 -62.180901 -30.226128 -63.587307 -7.6698356 13.92223
14420000000 -34.237843 116.03086 -30.320715 -86.954948 -30.270288 -88.101822 -7.6639509 9.7478971
14430000000 -38.351078 -147.78404 -30.330317 -112.18907 -30.282658 -113.1012 -7.7109776 5.959352
14440000000 -29.92374 -140.47212 -30.466879 -135.3389 -30.341433 -136.90489 -7.7256718 2.2259789
14450000000 -25.11903 -150.81775 -30.323086 -159.12453 -30.316214 -160.86493 -7.7673817 -2.1418283
14460000000 -23.198456 -169.48383 -30.20496 176.14189 -30.213783 174.76541 -7.9108081 -6.6103935
14470000000 -22.426914 173.95976 -30.248703 151.56245 -30.185312 150.49864 -8.1118774 -10.593423
14480000000 -22.937508 156.90837 -30.340168 127.60645 -30.229391 125.92948 -8.3247681 -14.505746
14490000000 -24.657103 139.32463 -30.208792 104.39337 -30.166924 102.38204 -8.5574751 -18.981144
14500000000 -29.541861 125.34621 -30.028915 78.582649 -29.999002 77.054321 -8.8399067 -24.164883
14510000000 -37.732174 156.28923 -30.152733 53.688171 -30.068647 51.757969 -9.1548109 -29.390491
14520000000 -31.909678 -129.50282 -30.184509 28.694729 -30.172541 26.827517 -9.4032364 -33.943523
14530000000 -25.918842 -145.15991 -30.397831 5.2311082 -30.349913 3.4030166 -9.5419197 -38.00526
14540000000 -23.394106 -156.23108 -30.300232 -17.893286 -30.308462 -19.815498 -9.7589998 -42.044163
14550000000 -21.66106 -174.96292 -30.33378 -42.522415 -30.291494 -44.678032 -10.168226 -45.968052
14560000000 -21.5436 169.99181 -30.326084 -66.6362 -30.398085 -68.568459 -10.724078 -49.522179
14570000000 -22.063555 153.29057 -30.46711 -91.258698 -30.464615 -92.691879 -11.260751 -53.570683
14580000000 -24.611027 142.7769 -30.462425 -113.89112 -30.429167 -115.50801 -11.767223 -58.642681
14590000000 -27.997339 143.77153 -30.35762 -138.69772 -30.312471 -140.14011 -12.312385 -64.319031
14600000000 -30.960718 -177.33798 -30.34701 -162.69749 -30.355448 -164.98544 -12.962876 -69.578835
14610000000 -26.866556 -158.20604 -30.470991 171.48318 -30.541904 170.11357 -13.574542 -74.318192
14620000000 -23.562489 -156.74245 -30.718464 149.44528 -30.746489 147.84207 -14.179268 -80.054405
14630000000 -21.037838 -168.63293 -30.50005 125.75076 -30.490234 124.16647 -14.774678 -86.434967
14640000000 -20.140324 178.06526 -30.526999 101.44721 -30.540367 99.745071 -15.414515 -93.210312
14650000000 -19.830956 163.67404 -30.526108 76.480125 -30.544306 75.101814 -16.061586 -98.508911
14660000000 -20.711794 151.20175 -30.80558 53.359203 -30.81852 51.812241 -16.666191 -103.54227
14670000000 -22.456018 141.73465 -30.614384 30.896368 -30.638676 29.540848 -17.474157 -109.46609
14680000000 -25.271334 145.76234 -30.508219 6.1266713 -30.527077 4.815568 -18.547033 -116.69281
14690000000 -26.496584 165.23979 -30.666977 -18.488325 -30.653559 -19.834881 -19.820419 -126.20938
14700000000 -24.543394 -174.90651 -30.831884 -42.116146 -30.842649 -43.332958 -20.80744 -137.77478
14710000000 -21.394457 -174.12581 -30.906528 -63.752426 -30.905828 -65.146042 -21.219513 -151.59248
14720000000 -19.707644 176.88197 -30.547514 -87.055588 -30.509331 -88.449944 -21.237625 -166.18007
14730000000 -18.64286 165.40756 -30.55633 -112.79293 -30.509712 -114.16759 -21.011393 -178.63103
14740000000 -18.463854 151.36975 -30.563877 -136.44678 -30.469576 -137.96045 -20.794842 171.18149
14750000000 -19.446806 139.80435 -30.780205 -160.44176 -30.750032 -162.37737 -20.4821 163.05994
14760000000 -20.907015 131.81996 -30.652473 176.92081 -30.677776 175.15916 -20.282209 153.97845
14770000000 -23.404072 133.93439 -30.569757 152.48582 -30.537184 150.87717 -20.100275 143.67206
14780000000 -24.334093 147.02388 -30.746681 128.8194 -30.736572 126.84552 -19.743956 133.05956
14790000000 -23.192762 163.63736 -30.781931 106.43327 -30.825756 104.44263 -19.126141 123.80949
14800000000 -20.723007 166.34032 -30.734993 84.188148 -30.837297 82.554916 -18.315163 116.35236
14810000000 -18.846209 160.5463 -30.401085 60.585964 -30.450642 59.695381 -17.559473 110.0727
14820000000 -17.927128 149.42522 -30.345589 35.787533 -30.311382 34.417568 -16.976761 104.80177
14830000000 -17.868729 138.58525 -30.319876 12.471488 -30.366966 10.504914 -16.491373 100.3215
14840000000 -18.641598 126.44637 -30.286123 -12.004689 -30.433678 -13.169198 -15.974986 96.163925
14850000000 -20.326387 118.49227 -30.262846 -35.105949 -30.279749 -36.005383 -15.474861 92.150139
14860000000 -22.608263 118.06594 -30.208 -58.723099 -30.25956 -60.026608 -15.088968 88.528221
14870000000 -24.67445 129.53421 -30.145365 -82.967247 -30.219244 -83.580032 -14.856134 84.989586
14880000000 -23.770393 147.69012 -30.166451 -106.22563 -30.178312 -106.62038 -14.74262 80.956818
14890000000 -21.254566 151.45303 -30.07836 -128.97575 -30.011095 -129.74652 -14.625385 75.941612
14900000000 -19.287489 144.02019 -29.855246 -152.75667 -29.825619 -153.94246 -14.356104 70.36898
14910000000 -18.335987 134.44412 -29.853594 -177.12485 -29.878096 -178.01599 -13.981282 65.639343
14920000000 -17.946194 122.12958 -29.702513 159.97322 -29.698339 159.36179 -13.549379 62.596729
14930000000 -18.797556 110.0895 -29.762371 136.01021 -29.664883 135.31734 -13.163116 60.461803
14940000000 -20.458044 101.23431 -29.422388 112.31564 -29.384748 111.489 -13.031669 58.275051
14950000000 -23.358572 102.28383 -29.408293 86.620934 -29.345003 85.999153 -13.08157 55.765091
14960000000 -25.559624 114.82243 -29.517134 62.838219 -29.367893 62.001179 -13.194589 52.57497
14970000000 -24.911606 141.58778 -29.517359 39.243607 -29.394932 38.139545 -13.263597 49.425964
14980000000 -22.435659 142.80267 -29.462938 16.428137 -29.354061 15.04495 -13.294091 45.950703
14990000000 -20.276186 138.13588 -29.238113 -7.3383613 -29.156906 -8.9020538 -13.363278 43.012379
15000000000 -19.494112 123.72874 -29.19791 -31.875111 -29.110718 -33.616486 -13.568243 39.560905
15010000000 -19.380322 111.65094 -28.97374 -56.518871 -28.948208 -57.992424 -13.821186 36.18145
15020000000 -20.399729 95.749321 -29.153362 -81.584198 -29.066654 -82.853447 -13.934809 32.482044
15030000000 -22.567459 87.541969 -29.113514 -104.39108 -28.970583 -106.00014 -13.965629 29.233418
15040000000 -26.140265 84.400665 -29.117605 -128.71233 -29.061327 -130.9008 -13.854864 27.438913
15050000000 -29.663418 115.95663 -29.011452 -151.95013 -29.02257 -154.09224 -13.921138 26.556854
15060000000 -26.610622 146.55589 -28.934429 -176.79117 -29.004572 -178.63918 -14.222521 26.450886
15070000000 -22.86928 146.32915 -28.936611 158.39932 -29.000292 156.84116 -14.828705 25.955463
15080000000 -21.045433 135.70584 -28.955093 132.94041 -29.006445 131.69141 -15.601888 25.552635
15090000000 -20.286861 122.07819 -29.364725 108.62289 -29.391127 107.32079 -16.224106 24.224497
15100000000 -20.883942 108.01547 -29.341293 87.133247 -29.40848 85.795486 -16.705786 22.522905
15110000000 -22.433992 93.7127 -29.296192 62.926411 -29.318695 61.68634 -17.106985 21.205214
15120000000 -26.051649 84.08049 -29.094816 39.421772 -29.12817 38.069874 -17.536808 21.784069
15130000000 -31.17968 96.114876 -29.071535 14.105974 -29.129555 13.019746 -17.835686 22.804018
15140000000 -30.900124 153.13353 -29.215004 -10.244401 -29.271328 -11.14403 -18.119148 24.32486
15150000000 -24.901203 158.54088 -29.241383 -34.955021 -29.247089 -35.587818 -18.286165 26.601715
15160000000 -22.222843 148.86932 -29.533741 -59.152554 -29.535288 -60.166859 -18.313555 30.060572
15170000000 -20.696756 135.79558 -29.733133 -82.224289 -29.698616 -83.158432 -18.181473 34.591427
15180000000 -20.293289 121.68168 -29.824814 -104.59424 -29.805706 -105.88993 -18.085941 39.24337
15190000000 -20.932428 107.52869 -29.689917 -127.97869 -29.715223 -129.16248 -18.079441 43.965309
15200000000 -23.212727 97.531418 -29.670576 -152.722 -29.630814 -153.50092 -18.06674 47.986217
15210000000 -26.573545 96.494888 -29.781322 -177.12979 -29.773756 -178.78648 -17.990761 50.334911
15220000000 -30.197449 127.25685 -30.007248 158.91919 -30.041916 157.55727 -17.842848 50.953167
15230000000 -26.673075 153.83699 -30.134327 136.46341 -30.236353 135.74989 -17.637407 51.156208
15240000000 -22.977978 156.01599 -29.995979 113.23714 -29.958408 112.8245 -17.25115 51.268562
15250000000 -20.795994 143.10246 -29.967543 88.709602 -29.919802 87.660248 -16.702751 50.715958
15260000000 -19.765299 130.06793 -30.154444 63.551571 -30.120092 62.419937 -16.164633 49.57069
15270000000 -19.862658 115.22055 -30.402254 40.428486 -30.372158 39.612545 -15.608304 49.008549
15280000000 -20.630487 103.21719 -30.646505 18.075535 -30.571333 16.617373 -15.010489 48.95013
15290000000 -22.608078 92.483284 -30.556032 -4.3251886 -30.623014 -5.8020144 -14.516091 48.918751
15300000000 -25.620241 93.504402 -30.491888 -27.734085 -30.55315 -28.236158 -14.237139 48.997032
15310000000 -28.462025 116.39829 -30.583364 -51.890083 -30.504066 -52.559799 -14.089226 49.078159
15320000000 -25.678503 141.74522 -30.547995 -75.071114 -30.410662 -75.969971 -13.924421 47.975815
15330000000 -22.417692 141.82761 -30.493069 -100.4179 -30.42491 -102.00776 -13.770047 45.317318
15340000000 -20.503977 129.91895 -30.769182 -124.19841 -30.774384 -125.81549 -13.643445 42.073051
15350000000 -19.851007 119.30625 -30.908737 -147.27745 -30.907778 -148.66849 -13.487723 39.037273
15360000000 -19.648577 103.09713 -31.064585 -169.43192 -31.043121 -170.67296 -13.341012 36.7155
15370000000 -21.052454 89.099815 -30.794868 168.23274 -30.844528 166.84517 -13.173017 34.072338
15380000000 -22.832794 78.409798 -30.64617 142.72383 -30.648838 142.03886 -12.97957 31.028696
15390000000 -26.873629 74.605324 -30.746368 117.4064 -30.663494 116.38032 -12.750858 27.760874
15400000000 -29.894125 99.560974 -31.146505 92.482239 -31.133375 90.92701 -12.522672 25.179329
15410000000 -27.702753 129.62097 -31.493393 71.236778 -31.510092 69.659027 -12.278497 23.217007
15420000000 -24.320906 128.01317 -31.451872 49.471733 -31.418379 48.770767 -12.259716 21.296946
15430000000 -22.109049 120.5874 -31.246902 26.575632 -31.20714 25.348824 -12.441868 19.063488
15440000000 -21.120026 104.44243 -31.047483 1.1374532 -30.995321 0.15039222 -12.797644 15.937123
15450000000 -21.174286 88.724266 -31.272562 -23.962561 -31.23637 -25.403307 -13.086717 11.552868
15460000000 -22.35334 68.85437 -31.198565 -47.963955 -31.186384 -48.88969 -13.219867 5.9328089
15470000000 -25.424534 55.83213 -31.403185 -73.693832 -31.323378 -74.869965 -13.234117 0.22226353
15480000000 -29.441698 40.076061 -31.796366 -96.739319 -31.678822 -98.0923 -13.291694 -4.4414945
15490000000 -39.395954 79.58448 -31.929913 -119.5144 -31.805815 -121.26601 -13.425589 -7.7396665
15500000000 -33.875134 134.66666 -32.105152 -141.42841 -32.02198 -142.92744 -13.569238 -10.890521
15510000000 -27.538076 134.10992 -31.788591 -165.29692 -31.662983 -167.64449 -13.829478 -14.951747
15520000000 -25.261265 113.49354 -31.844378 168.97783 -31.797611 166.83856 -14.24619 -19.236639
15530000000 -24.012201 94.66198 -32.125538 144.80264 -32.14262 143.50975 -14.810245 -23.155472
15540000000 -24.553133 68.258545 -32.447811 120.87318 -32.337933 119.61992 -15.415118 -26.708918
15550000000 -26.070208 48.470531 -32.63364 99.193367 -32.428234 97.189514 -16.022388 -32.169472
15560000000 -28.670511 11.87058 -32.530514 74.723152 -32.387794 71.490578 -16.888853 -39.930058
15570000000 -33.482353 -33.762833 -32.673748 50.425873 -32.737953 47.89772 -17.836946 -48.661583
15580000000 -33.029354 -99.043846 -32.885899 26.46526 -32.903919 24.159367 -18.53166 -57.676121
15590000000 -30.705828 -163.09348 -33.041523 2.956254 -33.020252 0.86459988 -18.792164 -67.52401
15600000000 -30.124657 166.04431 -33.216537 -20.694204 -33.281681 -22.930632 -18.970034 -77.798981
15610000000 -28.862448 135.31398 -33.434414 -44.436283 -33.556038 -46.437321 -19.437866 -87.141129
15620000000 -30.474461 98.977089 -33.56707 -66.718079 -33.583424 -68.388191 -20.148401 -94.368027
15630000000 -31.160238 60.770863 -33.532135 -90.036209 -33.581997 -92.476059 -20.867531 -101.44284
15640000000 -31.084806 -2.5341041 -33.615295 -113.46797 -33.699001 -115.23054 -21.50959 -113.24329
15650000000 -29.967352 -54.92223 -33.731937 -139.33714 -33.816776 -141.51704 -21.940216 -130.27393
15660000000 -26.859747 -92.703102 -34.313457 -163.09781 -34.457996 -164.88829 -21.778008 -148.45279
15670000000 -25.746454 -127.62428 -34.639755 175.36389 -34.844566 173.40404 -21.004675 -161.62436
15680000000 -25.120369 -145.90073 -34.659824 153.97261 -34.854832 153.12498 -19.851414 -169.5594
15690000000 -25.106806 -173.15514 -34.435383 130.73886 -34.584267 129.97449 -18.782642 -176.92424
15700000000 -27.286352 168.19131 -34.513386 104.84645 -34.513706 104.45003 -18.063166 175.78781
15710000000 -31.866488 145.2023 -34.909389 80.705566 -34.878136 79.722214 -17.581413 168.96851
15720000000 -46.418446 -120.41061 -35.229893 56.942078 -35.285603 55.84964 -17.101538 163.65689
15730000000 -31.105211 -86.349976 -35.604626 34.623795 -35.609329 33.887344 -16.512516 159.18228
15740000000 -25.302908 -104.15582 -35.827892 12.848307 -35.825596 12.632977 -16.011894 154.16957
15750000000 -22.929144 -121.87982 -35.812675 -7.8792686 -35.673817 -8.5651302 -15.681102 148.20282
15760000000 -21.348604 -139.84366 -35.715603 -31.921358 -35.657425 -33.126652 -15.377872 142.32538
15770000000 -21.394197 -158.6026 -35.858566 -55.006107 -35.724136 -55.476482 -14.790746 136.6913
15780000000 -22.427649 -173.84265 -36.068699 -78.963951 -35.836456 -80.41288 -14.040997 132.03146
15790000000 -24.911978 174.52112 -36.308716 -101.6543 -36.18166 -103.15813 -13.331116 128.75343
15800000000 -28.591227 -178.46814 -36.543175 -124.55119 -36.456913 -127.03503 -12.835475 126.91075
15810000000 -30.218815 -143.95662 -36.854649 -148.83594 -36.753635 -150.01279 -12.545539 125.95433
15820000000 -25.869606 -121.85111 -37.314426 -169.07162 -37.027626 -170.76108 -12.334996 124.4434
15830000000 -22.178501 -125.7201 -37.258121 169.91693 -37.058567 166.67473 -12.214377 121.63802
15840000000 -20.02331 -137.01038 -37.073177 148.84766 -37.058178 146.79105 -12.105055 118.068
15850000000 -19.209436 -151.42723 -36.959248 123.61129 -36.967953 121.64917 -11.988361 114.33362
15860000000 -19.433474 -163.53725 -37.277241 100.72993 -37.125099 99.419464 -11.789534 110.97086
15870000000 -20.608696 -175.30432 -37.423717 78.885124 -37.231075 76.052322 -11.508775 107.68853
15880000000 -22.946547 -179.83212 -37.289196 56.298222 -37.359798 53.491875 -11.217021 104.43369
15890000000 -26.041031 -170.47115 -37.463203 32.473942 -37.420391 30.911766 -10.928435 101.76136
15900000000 -26.027426 -142.03481 -37.794975 9.4668913 -37.754971 7.120852 -10.61414 99.64975
15910000000 -22.444784 -130.24014 -38.223099 -10.622502 -38.183735 -13.596217 -10.32696 97.942352
15920000000 -19.66181 -136.12926 -38.163712 -31.932661 -38.261913 -34.088173 -10.115052 96.378014
15930000000 -18.167776 -146.08888 -38.157711 -51.893349 -38.037151 -53.897438 -10.02842 94.90271
15940000000 -17.584621 -157.29874 -37.727928 -74.549278 -37.517666 -76.940582 -10.016466 93.528419
15950000000 -17.802031 -168.32646 -37.502796 -98.172386 -37.566261 -102.28831 -10.01064 91.780685
15960000000 -19.246767 -177.27577 -37.526184 -123.29403 -37.673996 -126.01125 -10.032546 89.198532
15970000000 -21.568949 -174.70047 -37.835373 -147.57608 -37.756744 -149.45782 -10.065578 86.254944
15980000000 -23.12402 -158.39857 -38.20121 -169.49734 -38.081638 -172.767 -10.028249 83.258286
15990000000 -21.507334 -139.14738 -38.535019 169.75372 -38.634487 166.86566 -9.8502035 80.430496
16000000000 -19.230129 -136.09344 -38.356533 149.21259 -38.525074 146.78049 -9.6161833 77.829048
16010000000 -17.207344 -140.53029 -38.320538 128.63167 -38.419247 127.41331 -9.4100494 75.890892
16020000000 -16.139318 -150.60947 -37.859344 106.44768 -37.834469 104.18748 -9.3028708 74.592545
16030000000 -15.935878 -160.37959 -37.532967 81.908562 -37.485008 79.509193 -9.2940426 73.607132
16040000000 -16.501106 -168.66095 -37.843914 55.935242 -37.989735 53.198631 -9.3305931 72.328621
16050000000 -17.629963 -172.97078 -38.436008 32.236031 -38.394947 30.979313 -9.4006252 70.415054
16060000000 -19.118301 -169.05067 -38.526081 14.847549 -38.598583 12.071937 -9.4974566 67.9216
16070000000 -19.534639 -155.55138 -38.196606 -6.5547752 -38.290695 -9.3299255 -9.5823927 65.434937
16080000000 -18.10318 -143.88541 -37.807358 -31.181101 -38.018845 -32.067158 -9.6607265 62.917789
16090000000 -15.990034 -142.38132 -38.027321 -54.219902 -37.937889 -55.741379 -9.736762 60.161289
16100000000 -14.575773 -147.97356 -38.159996 -77.05069 -38.169823 -79.761436 -9.8059826 57.081226
16110000000 -13.846972 -155.84608 -38.007679 -98.023575 -38.30521 -99.622726 -9.8455906 54.080391
16120000000 -13.748425 -164.11211 -37.931873 -121.97935 -38.064804 -122.35964 -9.7552948 51.754578
16130000000 -14.316955 -170.6678 -37.967064 -143.71562 -37.848431 -143.96361 -9.6143627 50.093002
16140000000 -15.493525 -173.24329 -37.725574 -165.42645 -37.756947 -168.11241 -9.5552349 49.040054
16150000000 -16.477798 -167.17558 -37.575783 170.34718 -37.819027 169.28493 -9.6886225 47.977703
16160000000 -16.242558 -157.76259 -37.78466 145.03375 -37.767277 145.72939 -10.039835 46.570797
16170000000 -14.710261 -151.43172 -38.18066 122.12417 -37.857273 122.34687 -10.484797 44.271683
16180000000 -13.183079 -152.92743 -38.479221 102.76881 -38.187603 100.51527 -10.892816 41.092648
16190000000 -12.084695 -158.41699 -38.029053 83.187386 -38.054596 80.934647 -11.205486 37.229576
16200000000 -11.691869 -165.02843 -37.548634 59.679298 -37.390068 58.188629 -11.460709 33.409451
16210000000 -11.692875 -171.63167 -37.120415 33.53479 -36.887997 32.414352 -11.642778 30.323107
16220000000 -12.396605 -175.2607 -37.248371 7.5823393 -37.092163 5.3300543 -11.827342 26.773569
16230000000 -13.044516 -175.66049 -37.663471 -16.664408 -37.484848 -18.338566 -12.115084 23.088192
16240000000 -13.644601 -170.6286 -38.240566 -38.459106 -38.026245 -40.148624 -12.548566 20.239016
16250000000 -13.22583 -165.10614 -37.988838 -56.733532 -37.734959 -60.138546 -12.947478 19.404593
16260000000 -12.233325 -162.62483 -37.69183 -79.380928 -37.79174 -82.848518 -13.334105 19.265087
16270000000 -11.076292 -164.4028 -37.42794 -104.56712 -37.379616 -106.04555 -13.898931 18.611082
16280000000 -10.264403 -169.55371 -37.855885 -128.30518 -37.667408 -129.66887 -14.867196 16.599451
16290000000 -9.919982 -175.57297 -37.592415 -150.23479 -37.533051 -153.00845 -16.259403 13.902987
16300000000 -10.01703 179.0779 -37.357098 -174.24883 -37.441921 -176.38068 -17.632128 10.416668
16310000000 -10.425898 175.71762 -37.423161 159.27551 -37.34444 158.53087 -18.89123 4.9212317
16320000000 -11.052664 176.00063 -37.724133 134.80695 -37.419403 131.88579 -20.185238 -0.3337906
16330000000 -11.336653 -179.9734 -38.111382 110.6173 -38.134285 106.53928 -21.64323 -3.8974149
16340000000 -10.997304 -175.22026 -38.157749 89.14946 -38.389004 86.685699 -23.417107 -5.1065731
16350000000 -10.118211 -173.28583 -38.487171 64.534554 -38.505482 63.502907 -25.427807 -3.3534322
16360000000 -9.1804972 -175.62343 -38.917374 44.597008 -38.724262 42.733837 -28.164875 2.8416219
16370000000 -8.6381454 179.35672 -38.661175 23.354156 -38.617893 20.066658 -31.765331 25.212292
16380000000 -8.4584188 173.88756 -38.503609 -0.52604938 -38.562439 -3.4478445 -32.457859 76.947334
16390000000 -8.6663895 168.89456 -38.586597 -25.101732 -38.742569 -27.049753 -28.282206 112.52232
16400000000 -9.0914459 166.56979 -38.737885 -48.671589 -38.644581 -51.09787 -24.769562 127.18728
16410000000 -9.5996513 166.81328 -39.007072 -73.073975 -39.103638 -75.823341 -22.358805 133.7941
16420000000 -9.6984854 170.8094 -39.405056 -95.616837 -39.552193 -97.748161 -20.94894 135.10593
16430000000 -9.1617184 174.26711 -39.659397 -119.55641 -39.815414 -120.70994 -20.01597 134.63417
16440000000 -8.3698282 174.55507 -40.153004 -141.59373 -40.156567 -143.93297 -19.046295 133.21602
16450000000 -7.7279725 172.08226 -40.118523 -161.92973 -40.373817 -164.86467 -18.077126 130.99326
16460000000 -7.3341112 168.47385 -40.137356 174.53117 -40.570007 173.51187 -17.071781 128.48904
16470000000 -7.247231 164.21039 -40.270439 153.5387 -40.442699 153.54208 -16.278925 125.05643
16480000000 -7.4307899 160.49481 -40.084133 129.13956 -40.237339 129.6032 -15.6076 121.21037
16490000000 -7.8768177 158.32703 -40.322491 105.0444 -40.217026 105.53196 -14.901755 117.5762
16500000000 -8.2904673 159.51535 -40.692341 79.674202 -40.4907 79.025024 -14.118899 114.81618
16510000000 -8.2326393 162.12668 -41.316971 57.595135 -41.325649 55.94017 -13.331667 113.62523
16520000000 -7.7915769 164.42632 -41.907059 36.159466 -41.924934 36.171997 -12.690864 113.51321
16530000000 -7.0882077 163.96881 -41.897163 16.216784 -41.973946 16.944462 -12.283785 113.06934
16540000000 -6.5312819 161.83636 -42.13839 -5.8536367 -41.779137 -5.1205487 -12.072978 111.71972
16550000000 -6.1453347 158.24506 -41.938572 -27.538771 -41.590488 -28.763966 -11.973569 109.0769
16560000000 -6.1064067 154.47092 -42.007698 -52.828995 -41.698593 -54.266644 -11.826629 105.81707
16570000000 -6.3491235 151.56165 -42.642345 -77.483719 -42.387638 -80.194244 -11.568921 102.81977
16580000000 -6.6971226 151.01054 -43.014374 -96.259117 -42.868397 -98.933739 -11.255136 100.14231
16590000000 -6.9296904 152.14688 -42.985516 -118.26048 -42.91254 -120.22575 -10.980986 97.814003
16600000000 -6.8175883 154.45166 -43.129009 -141.63416 -42.915417 -143.6528 -10.723649 95.637367
16610000000 -6.3121104 155.65964 -43.282848 -166.27013 -43.099621 -169.08226 -10.436655 93.209717
16620000000 -5.7234879 154.09918 -44.069637 173.27995 -44.225368 169.41263 -10.110656 91.116005
16630000000 -5.3212934 151.1996 -44.371407 152.49214 -44.439968 151.03201 -9.7970581 89.648575
16640000000 -5.1151338 148.06136 -44.619129 133.37874 -44.834126 131.33203 -9.5880394 88.881424
16650000000 -5.0564661 145.25372 -44.532547 113.35485 -44.593048 111.87608 -9.4785786 88.305641
16660000000 -5.1570864 143.11937 -44.053116 90.987686 -44.236164 89.675079 -9.495986 86.961082
16670000000 -5.3603449 142.47234 -43.991379 64.440376 -44.276264 63.888462 -9.5879898 84.643898
16680000000 -5.4311519 143.67981 -44.547634 37.0331 -44.509396 37.763138 -9.6020212 81.459251
16690000000 -5.1712599 145.03143 -45.791073 12.219649 -45.505947 13.304729 -9.5270138 78.001427
16700000000 -4.7657843 144.93544 -46.891617 -1.2593338 -46.53064 -2.576798 -9.360465 75.032944
16710000000 -4.3507614 143.40952 -46.38802 -18.479565 -46.212341 -18.615442 -9.1747236 72.669922
16720000000 -4.0588102 140.97614 -46.287258 -39.807194 -45.803993 -40.888702 -9.0115547 70.845711
16730000000 -3.8492074 138.05586 -45.828239 -62.120033 -45.471962 -64.223236 -8.9136782 69.346367
16740000000 -3.8447506 135.22478 -46.221943 -88.247604 -45.640137 -90.035416 -8.8213711 68.095795
16750000000 -3.9535186 133.36702 -46.23362 -110.96362 -45.924194 -114.59538 -8.7268467 66.724617
16760000000 -4.037962 132.91068 -47.476822 -133.90742 -46.912121 -138.69357 -8.7162256 65.236374
16770000000 -3.9627469 133.13263 -47.556473 -147.27251 -47.395706 -156.64487 -8.7818737 63.722141
16780000000 -3.7333543 133.39008 -46.936493 -169.03177 -47.633675 -174.91403 -8.8861532 61.922783
16790000000 -3.382611 132.66811 -46.585545 165.49452 -46.885502 160.95857 -9.0224257 59.522102
16800000000 -3.0713069 131.00826 -46.816799 140.96051 -47.205906 135.97456 -9.0948954 56.563507
16810000000 -2.8430471 128.47614 -47.662079 116.75227 -48.34668 111.38251 -9.1066904 52.994919
16820000000 -2.7780523 125.95189 -48.049206 100.22935 -48.769405 97.175102 -9.0813789 49.388332
16830000000 -2.752914 123.7767 -47.744682 76.12001 -48.363834 75.247772 -9.0011206 46.313148
16840000000 -2.7981567 122.07653 -47.986931 56.620625 -48.792671 52.789116 -8.9034729 43.910938
16850000000 -2.8006926 121.08107 -47.576828 32.454483 -48.575386 32.339397 -8.8114262 42.326458
16860000000 -2.7291462 120.63171 -47.726196 4.9252558 -48.497978 8.894351 -8.7628899 41.201672
16870000000 -2.5043244 120.01299 -48.344677 -15.833499 -48.619701 -10.979753 -8.7959576 40.23856
16880000000 -2.260649 118.74904 -48.472748 -39.438908 -48.462269 -35.955799 -8.9284887 38.881153
16890000000 -2.0415995 117.01674 -48.96777 -62.845657 -48.915386 -59.667343 -9.1449442 36.73962
16900000000 -1.8960325 115.12669 -49.635567 -84.926811 -49.355312 -83.111626 -9.4078989 33.707748
16910000000 -1.7952539 113.03342 -49.723118 -104.13589 -49.705383 -103.78511 -9.6022263 30.084993
16920000000 -1.8004251 111.0858 -49.991974 -127.76501 -49.397724 -124.71768 -9.6739979 26.088032
16930000000 -1.8166881 109.52972 -49.965828 -151.58165 -49.454288 -149.38643 -9.6757908 22.009024
16940000000 -1.832479 108.51319 -50.60535 -173.01259 -49.880424 -173.90045 -9.657259 18.386257
16950000000 -1.7274994 107.52116 -50.755791 162.56956 -50.096375 163.56763 -9.6811152 15.150277
16960000000 -1.5908118 106.25299 -51.179459 142.65955 -50.630096 142.82207 -9.7258701 12.454887
16970000000 -1.4188848 104.68935 -50.950958 120.87029 -50.278526 119.51594 -9.797286 9.9213486
16980000000 -1.2751546 102.84624 -51.055168 96.473557 -50.435101 92.5289 -9.9467478 7.4536395
16990000000 -1.1581944 100.82549 -50.886349 70.776321 -50.87849 66.434502 -10.177833 4.8077998
17000000000 -1.1057805 98.928787 -51.596752 43.195118 -51.642532 39.746429 -10.463695 1.8959459
