!Keysight Technologies,P9374A,MY57211807,A.19.30.04
!Date: Friday, May 08, 2026 14:29:07
!Correction: S11(C  2-Port  ) 
!S21(C  2-Port  ) 
!S12(C  2-Port  ) 
!S22(C  2-Port  ) 
!S2P File: Measurements: S11, S21, S12, S22:
# Hz S  dB   R 50
13000000000 -18.593454 56.572956 -39.926136 101.10979 -40.119305 98.1548 -12.369844 -76.606354
13010000000 -19.067429 55.807087 -39.64859 78.162827 -39.8055 76.954018 -12.747895 -79.435921
13020000000 -19.709846 58.084358 -39.549835 57.659653 -39.638271 56.200268 -13.169209 -82.551239
13030000000 -19.93465 62.920563 -39.230053 33.446529 -39.202736 31.455135 -13.655046 -85.835075
13040000000 -19.853682 64.937965 -39.417976 11.221069 -39.646759 7.7143011 -14.212064 -89.269409
13050000000 -19.481464 66.54528 -39.718761 -14.08055 -40.083439 -13.615584 -14.816719 -93.145988
13060000000 -19.36194 63.535576 -39.996563 -34.04179 -40.140877 -34.699707 -15.445829 -97.581688
13070000000 -19.608826 61.07756 -40.19733 -52.980778 -40.241402 -53.391365 -16.00285 -102.84183
13080000000 -19.972786 61.074192 -39.597244 -74.347542 -39.784088 -74.642395 -16.471718 -108.1614
13090000000 -19.836096 61.090755 -39.431622 -99.343292 -39.359119 -99.808723 -16.929577 -113.45505
13100000000 -19.964565 62.883926 -39.760071 -123.9126 -39.785023 -124.79967 -17.536505 -118.83833
13110000000 -19.366543 62.692776 -40.169201 -145.30591 -40.192131 -145.52846 -18.32892 -124.41865
13120000000 -19.425694 61.35223 -40.398972 -166.95233 -40.520733 -166.68761 -19.174664 -131.15321
13130000000 -19.210802 59.442181 -40.316944 173.34236 -40.425259 174.84563 -19.79657 -139.5244
13140000000 -19.67766 59.828003 -40.085564 152.70729 -39.826672 153.22784 -20.202742 -149.32169
13150000000 -19.644373 60.091991 -39.92205 126.55444 -39.603252 126.29532 -20.550861 -159.48509
13160000000 -20.020554 63.607994 -40.560707 102.79854 -40.35228 102.0736 -20.95772 -169.86546
13170000000 -19.29384 64.806412 -40.954998 83.449509 -40.813744 82.610748 -21.30234 178.24248
13180000000 -19.048872 61.57732 -41.088398 62.7076 -40.920193 62.61533 -21.221172 164.58215
13190000000 -18.804726 57.89814 -40.840328 42.716686 -40.613205 41.625904 -20.561121 151.91281
13200000000 -19.023943 53.701019 -40.343826 19.438662 -40.120682 18.826345 -19.649408 141.91925
13210000000 -19.378233 51.557106 -40.669014 -6.5978036 -40.453144 -7.7264509 -18.877684 134.32132
13220000000 -19.833645 51.710579 -41.05949 -27.179005 -40.714554 -28.689369 -18.35441 126.9203
13230000000 -19.840445 54.143311 -41.325855 -51.278301 -40.911098 -53.63953 -17.843531 118.98903
13240000000 -19.698984 56.422897 -41.810097 -71.730743 -41.603333 -74.656708 -17.11475 110.4387
13250000000 -19.083759 55.474854 -41.936367 -90.509949 -41.873936 -93.702789 -16.151335 102.62624
13260000000 -18.863941 53.503357 -41.514965 -111.49512 -41.581257 -114.81227 -15.183131 96.878586
13270000000 -18.825716 49.782444 -41.704407 -134.96051 -41.855625 -137.23837 -14.369537 92.842506
13280000000 -19.053467 46.324894 -41.814194 -158.70905 -41.928749 -160.76517 -13.743836 88.843719
13290000000 -19.727867 44.303974 -41.757004 178.27325 -41.870045 176.58557 -13.273491 84.365906
13300000000 -19.779531 45.436302 -42.250881 155.19858 -42.306152 152.7773 -12.810629 79.2967
13310000000 -20.019302 43.764435 -42.795013 135.22662 -42.988739 133.12848 -12.238568 74.114922
13320000000 -19.803034 43.157185 -42.754757 115.39972 -43.100719 113.44855 -11.626728 69.736061
13330000000 -19.80909 40.687374 -42.324303 89.801262 -42.672749 88.852699 -11.055096 66.10495
13340000000 -19.808279 39.731033 -42.946003 63.209541 -43.269993 63.19968 -10.58144 62.677437
13350000000 -20.132668 37.020935 -44.044109 42.528675 -44.405144 43.723915 -10.216691 58.936905
13360000000 -20.182232 39.014057 -44.385658 25.3992 -44.499588 28.26206 -9.8877144 54.367485
13370000000 -20.145426 37.619205 -44.180519 5.3419204 -44.068859 7.0623894 -9.5254202 49.598866
13380000000 -19.760511 36.466663 -44.293041 -20.053841 -44.275528 -18.674261 -9.0729342 45.200382
13390000000 -20.262634 31.586233 -45.096062 -43.724789 -44.708973 -43.05743 -8.6253462 41.146309
13400000000 -20.133038 30.83182 -45.925961 -64.752556 -45.835503 -64.786774 -8.2481337 37.866043
13410000000 -21.037838 22.898193 -46.546719 -83.792099 -46.361164 -84.092865 -7.9550977 34.72393
13420000000 -21.89448 25.995459 -47.302868 -103.3599 -46.864182 -102.39961 -7.7400589 31.037647
13430000000 -22.444738 25.646248 -47.825951 -118.1657 -47.112362 -120.57265 -7.5612698 26.810873
13440000000 -22.219019 30.278721 -47.745525 -139.72722 -47.844505 -142.71931 -7.4059529 22.396997
13450000000 -21.775759 30.34914 -48.404156 -159.29958 -48.079281 -156.88225 -7.2091565 17.987036
13460000000 -20.844824 27.45034 -48.445816 -178.04803 -47.459084 179.50221 -6.9796019 14.168637
13470000000 -21.243872 18.425938 -48.72213 162.37169 -48.196411 152.97125 -6.7849078 10.54182
13480000000 -21.56077 16.043324 -50.146778 138.95956 -51.416763 132.1868 -6.6384902 6.9667253
13490000000 -23.010345 9.0586414 -51.198177 133.58704 -51.694698 142.08369 -6.5579305 3.2101574
13500000000 -23.703377 14.934896 -49.701233 126.45853 -49.006004 124.5443 -6.5557594 -0.69505674
13510000000 -24.906656 17.828028 -48.936626 99.664101 -48.850243 97.081306 -6.5662327 -4.5444765
13520000000 -24.079521 23.933401 -48.987972 80.012993 -49.448235 77.88475 -6.5657902 -8.1500635
13530000000 -24.088358 20.253136 -49.293262 61.911171 -48.79208 64.920883 -6.5655842 -11.719834
13540000000 -23.468792 16.895164 -49.127903 44.356094 -48.419029 39.700615 -6.5801535 -15.38641
13550000000 -24.077908 11.376743 -48.441753 31.666973 -48.642715 29.605301 -6.6622934 -18.9848
13560000000 -23.962347 7.7347708 -47.528526 7.7333078 -47.941113 7.0117364 -6.7722507 -22.765863
13570000000 -26.098785 7.0969267 -47.372562 -9.79146 -47.163486 -9.6067667 -6.8878689 -26.373768
13580000000 -25.312197 11.560653 -46.960167 -35.212437 -46.57061 -36.58659 -6.9901462 -29.606005
13590000000 -26.772043 11.872075 -47.259537 -51.352337 -46.817108 -57.09713 -7.0498223 -32.654522
13600000000 -25.740244 15.290023 -46.73558 -69.106247 -46.493858 -73.086716 -7.1258311 -35.706684
13610000000 -26.967867 15.371803 -45.359131 -91.470711 -45.586239 -93.669403 -7.288475 -38.632469
13620000000 -26.510954 14.643118 -45.210011 -115.35251 -45.103916 -119.16441 -7.4885101 -41.64344
13630000000 -28.1131 17.665728 -44.516857 -140.636 -44.814564 -142.51813 -7.7151566 -44.604847
13640000000 -27.085794 17.960829 -45.08828 -165.21527 -45.260338 -165.37086 -7.9123297 -47.623589
13650000000 -28.043158 16.02891 -44.976135 175.46086 -45.450752 174.27573 -8.0549116 -50.645416
13660000000 -26.933775 16.323339 -45.075573 155.65306 -45.106728 155.74036 -8.1772661 -53.574215
13670000000 -27.956562 9.8807983 -44.465836 136.2112 -44.617554 133.52405 -8.3226099 -56.194881
13680000000 -28.015316 9.4780169 -44.07494 111.61729 -44.326904 111.44257 -8.4939384 -58.588017
13690000000 -29.46541 11.838748 -43.924091 87.166245 -44.340534 87.883057 -8.7005196 -60.89912
13700000000 -29.305376 21.535313 -43.847977 64.7537 -43.830616 65.922798 -8.9181271 -63.451679
13710000000 -28.922884 31.52091 -44.409698 40.877514 -44.483551 42.011894 -9.1368732 -66.231644
13720000000 -27.197119 30.139347 -44.478527 20.437523 -44.329514 22.546247 -9.3495445 -69.08432
13730000000 -27.25288 27.640238 -44.754108 0.8089987 -44.284328 1.4372071 -9.5309162 -71.664917
13740000000 -26.415012 19.291475 -44.39719 -19.472744 -43.878292 -20.419504 -9.7088928 -74.130928
13750000000 -28.19684 9.0693874 -44.016762 -40.324062 -43.785854 -42.619217 -9.9372768 -76.444649
13760000000 -29.511766 11.51499 -44.182503 -65.690422 -43.879608 -65.436874 -10.190466 -78.835014
13770000000 -30.891119 15.617004 -44.300102 -85.731186 -43.735786 -88.443108 -10.443447 -81.705635
13780000000 -30.53722 23.313957 -44.248039 -105.36181 -43.862331 -108.9381 -10.678028 -84.955009
13790000000 -29.110355 30.873718 -43.815987 -129.03859 -43.710682 -132.07442 -10.847102 -88.155983
13800000000 -27.529768 22.785118 -43.812405 -148.48056 -43.793144 -151.9736 -10.994449 -90.703468
13810000000 -26.775875 18.259766 -43.584999 -174.27258 -43.363808 -176.85178 -11.137064 -92.773331
13820000000 -26.394503 3.9728847 -44.056129 165.22383 -43.830559 160.45697 -11.331174 -94.597496
13830000000 -27.8216 4.5603299 -43.911263 144.4696 -43.976353 138.78204 -11.597301 -96.880272
13840000000 -27.633142 -3.3213823 -43.874237 122.66575 -43.980198 117.31341 -11.883858 -99.860298
13850000000 -29.443457 3.1239381 -43.496937 102.12445 -44.153938 96.168816 -12.149532 -103.32285
13860000000 -28.985025 2.9843791 -43.428631 76.664513 -44.097111 74.796471 -12.379648 -106.60215
13870000000 -29.000557 6.0341682 -43.755219 52.640934 -44.133846 51.96452 -12.525947 -109.43728
13880000000 -28.829088 0.74781215 -43.782593 32.814377 -43.973125 30.131096 -12.705552 -112.26991
13890000000 -28.03252 1.7928011 -44.102547 10.884966 -44.812271 8.0807247 -12.949726 -115.30003
13900000000 -27.781143 -13.206125 -43.812023 -11.290434 -44.622005 -13.889297 -13.206988 -118.51537
13910000000 -28.843954 -8.5367346 -44.214672 -33.449116 -44.916462 -31.394064 -13.405554 -122.10793
13920000000 -27.66453 -15.541395 -44.162552 -53.939674 -44.455761 -51.908958 -13.518985 -125.83255
13930000000 -28.37434 -22.032454 -44.192528 -77.782265 -44.650364 -77.291763 -13.625286 -129.17346
13940000000 -28.448826 -28.842485 -44.379578 -98.818054 -44.88129 -96.227821 -13.789022 -132.36545
13950000000 -29.450703 -35.495777 -44.090408 -122.95121 -44.48576 -118.79585 -14.084394 -135.20203
13960000000 -30.338203 -43.622238 -44.683907 -145.20689 -44.840092 -139.46686 -14.389454 -138.60944
13970000000 -31.618622 -42.565765 -45.059715 -166.32799 -44.599678 -162.70169 -14.658507 -143.1839
13980000000 -31.9137 -45.5387 -45.409996 173.98761 -44.94717 177.19708 -14.856673 -148.58086
13990000000 -31.152395 -39.340389 -44.966293 153.70915 -44.772438 154.50443 -14.968511 -154.21217
14000000000 -29.644505 -49.269482 -44.836235 129.50116 -44.592373 133.42088 -14.96102 -159.21741
14010000000 -28.182693 -52.061695 -45.721336 106.01185 -44.834335 109.05426 -14.902739 -164.0414
14020000000 -27.094351 -64.715752 -45.912491 90.175842 -44.893944 88.227951 -14.852208 -168.65045
14030000000 -27.006199 -77.094398 -45.898575 64.982056 -45.099476 62.646706 -14.855826 -173.30222
14040000000 -28.437153 -91.364296 -46.011051 44.502277 -45.691017 41.810028 -14.855947 -177.98724
14050000000 -30.096897 -90.175217 -46.318134 26.162024 -45.854214 24.233473 -14.797507 177.2928
14060000000 -32.144737 -91.356537 -46.236313 5.4036565 -45.74432 3.786531 -14.709425 172.43849
14070000000 -32.607441 -79.505783 -46.22794 -16.623919 -45.155239 -21.905848 -14.60791 167.41632
14080000000 -32.061596 -85.231392 -46.201233 -38.51561 -45.750404 -46.714138 -14.535853 162.7836
14090000000 -31.016474 -77.98317 -46.106934 -58.895157 -46.103508 -67.379166 -14.466934 157.95459
14100000000 -28.497025 -98.001999 -46.180363 -82.443558 -46.410484 -89.872108 -14.388791 152.94992
14110000000 -28.266066 -109.02852 -46.603233 -105.84759 -47.319416 -109.19851 -14.248522 147.61328
14120000000 -27.673571 -126.60877 -47.026134 -125.37865 -47.100368 -130.92833 -14.009525 142.08246
14130000000 -28.543316 -132.07692 -46.889851 -142.60323 -47.277565 -147.66513 -13.693433 136.76489
14140000000 -28.377337 -140.07635 -46.672009 -168.45647 -47.639992 -171.31602 -13.362683 132.19904
14150000000 -30.141983 -139.01578 -47.135513 169.12051 -47.780132 168.54594 -13.085817 127.82681
14160000000 -29.196524 -138.18925 -47.729053 151.58577 -48.256683 151.76109 -12.891616 123.30501
14170000000 -29.930807 -138.39246 -47.48407 131.12648 -47.39753 129.57875 -12.725824 118.6879
14180000000 -29.188179 -138.95071 -47.452724 106.50348 -48.347954 102.30535 -12.467765 113.65904
14190000000 -28.96454 -143.82863 -48.097652 85.859634 -49.348457 88.525192 -12.112863 108.66831
14200000000 -28.231501 -147.05649 -48.687496 66.991852 -48.953785 71.577751 -11.70857 104.01959
14210000000 -27.940559 -152.88927 -48.223675 49.999897 -48.376434 54.034935 -11.368218 99.775818
14220000000 -27.261101 -156.00009 -47.860065 29.209129 -47.807369 29.723843 -11.091213 95.843277
14230000000 -26.857565 -164.63765 -47.974003 6.2236123 -48.149487 6.9370079 -10.866572 91.949921
14240000000 -27.068392 -166.9738 -47.912262 -17.755095 -48.326721 -14.173533 -10.609845 87.931877
14250000000 -27.115168 -173.02115 -48.232098 -41.047161 -48.512596 -32.541199 -10.315723 83.54229
14260000000 -28.010773 -176.42905 -49.090744 -62.252396 -48.295761 -53.839836 -10.051365 79.138916
14270000000 -28.947309 -171.74345 -49.717731 -74.681709 -48.01334 -71.853806 -9.8198404 75.021179
14280000000 -29.258394 -169.6149 -48.200623 -96.761719 -47.43502 -98.402328 -9.6270695 70.978424
14290000000 -28.173828 -162.28221 -48.629333 -120.5661 -48.088882 -123.21268 -9.4490623 66.733658
14300000000 -27.335983 -168.01427 -49.061985 -140.58382 -48.077702 -139.16548 -9.2531691 62.159298
14310000000 -26.541126 -173.61423 -48.725773 -161.72029 -47.869926 -163.34209 -9.0154438 57.481785
14320000000 -26.793154 175.61169 -48.529968 176.6861 -47.415493 173.21307 -8.7670822 52.884384
14330000000 -26.504478 173.04407 -48.354336 154.07822 -47.85833 149.49902 -8.5409966 48.63203
14340000000 -27.785137 162.87428 -48.746151 130.44247 -48.527454 124.65372 -8.3778505 44.699955
14350000000 -28.705931 170.72528 -48.970039 101.67591 -49.01075 98.756607 -8.2571039 40.930176
14360000000 -29.67728 174.87036 -50.428055 89.396011 -49.743076 89.131569 -8.1691618 36.804226
14370000000 -28.252953 -175.11229 -50.220379 72.334854 -48.758961 66.667702 -8.1176634 32.120003
14380000000 -27.597193 179.47876 -48.777306 52.876949 -48.420731 39.658276 -8.0832109 27.166216
14390000000 -27.162346 178.8358 -48.183342 20.796017 -49.259476 17.590855 -8.0535746 22.424414
14400000000 -27.154202 171.96602 -49.080547 -8.1676111 -49.201897 -7.3656301 -7.9937215 17.823093
14410000000 -27.567965 168.89688 -51.092991 -25.706074 -50.228748 -27.129753 -7.9180098 13.458638
14420000000 -27.880934 165.47702 -50.86359 -39.510448 -49.920898 -50.884373 -7.8755388 8.9784775
14430000000 -28.441422 165.36914 -50.114067 -63.693405 -51.089363 -75.521339 -7.9187541 4.4640031
14440000000 -29.158619 169.59412 -50.249371 -90.422707 -51.68774 -91.196289 -8.0190115 -0.036819343
14450000000 -28.021402 177.11269 -51.986904 -106.49326 -51.623909 -104.64378 -8.1554718 -4.3768716
14460000000 -27.592916 176.07964 -51.655033 -130.13234 -50.598404 -133.59335 -8.2770615 -8.7808208
14470000000 -27.086843 174.75661 -51.472713 -147.85654 -51.740406 -160.09785 -8.4081573 -13.372018
14480000000 -26.977325 177.67365 -51.143944 -179.71049 -52.503941 171.21774 -8.6495552 -18.278008
14490000000 -27.047556 175.5162 -53.162514 163.94383 -54.845085 170.74986 -8.9465685 -23.088385
14500000000 -26.366432 177.8275 -52.454502 148.80443 -51.649334 155.09869 -9.2422953 -28.256042
14510000000 -26.718264 169.6019 -51.545994 125.74381 -50.353275 115.60647 -9.4715452 -33.602951
14520000000 -27.754261 177.25037 -51.714523 95.22747 -52.523876 72.252869 -9.6822033 -38.976925
14530000000 -27.079679 175.50359 -53.819515 68.795158 -58.388962 59.580479 -9.8993111 -43.668339
14540000000 -27.03479 -178.78886 -55.973919 55.546955 -58.695736 73.72731 -10.211516 -47.775345
14550000000 -26.0021 178.29193 -54.5173 44.295406 -54.192707 61.515312 -10.620751 -51.529842
14560000000 -25.808369 -178.82718 -50.659325 14.873266 -51.019627 12.966256 -11.081168 -55.914322
14570000000 -24.534847 177.7321 -51.484371 -36.478516 -53.456566 -40.36808 -11.61284 -61.311611
14580000000 -24.145845 176.26607 -56.048473 -77.319168 -60.716881 -67.703773 -12.179651 -67.484474
14590000000 -24.086769 168.38332 -64.070564 -118.23537 -66.740929 -6.2372222 -12.749968 -73.134598
14600000000 -24.779093 172.01895 -62.695408 -41.541733 -56.761833 -36.844769 -13.241005 -78.475258
14610000000 -24.690783 171.0033 -56.148689 -82.063423 -54.548306 -80.047081 -13.736302 -84.183563
14620000000 -24.68741 178.25909 -54.946865 -144.38733 -56.171928 -141.45607 -14.280333 -90.655579
14630000000 -23.900038 175.83195 -59.645164 144.97844 -63.794926 159.63521 -14.860066 -97.639641
14640000000 -23.492636 177.66037 -63.889866 48.882385 -69.75573 -53.198265 -15.429259 -104.49594
14650000000 -22.502262 174.93518 -64.287346 -75.492096 -58.803291 -127.37449 -15.952496 -110.54297
14660000000 -21.832361 169.07231 -62.360764 -155.85439 -58.108715 170.50391 -16.482061 -116.17108
14670000000 -22.16774 162.93732 -67.598297 96.361053 -62.347393 103.86522 -17.100573 -122.82114
14680000000 -22.147116 161.61426 -64.278801 -21.241785 -65.228874 19.469517 -17.869631 -131.5511
14690000000 -22.767044 160.96645 -60.512245 -112.68748 -66.334785 -121.97426 -18.691196 -142.0872
14700000000 -22.434053 164.60526 -59.506878 -155.75691 -66.640701 -170.11948 -19.285334 -153.4129
14710000000 -22.261379 165.52946 -59.599285 -179.13475 -68.055008 -169.45424 -19.529268 -164.43942
14720000000 -21.650116 165.3795 -58.02663 136.15051 -63.617355 130.22978 -19.329494 -174.09177
14730000000 -21.112656 164.30232 -65.245689 110.7535 -76.774261 -165.45609 -18.966917 176.02419
14740000000 -20.509554 158.30206 -61.502136 139.72383 -62.809464 160.70201 -18.742876 166.78081
14750000000 -20.734959 153.39507 -58.77784 118.0307 -61.226337 131.03302 -18.650593 158.76993
14760000000 -20.73267 149.45222 -54.905254 76.021103 -58.601257 96.957161 -18.633394 150.21262
14770000000 -21.390184 147.75842 -57.113045 37.235996 -57.953678 74.375015 -18.697729 141.78099
14780000000 -21.005064 148.36607 -59.913399 27.352917 -59.232944 49.154087 -18.406956 134.22102
14790000000 -21.163399 148.39014 -61.815182 38.753853 -58.448528 48.2593 -17.675882 126.07239
14800000000 -20.551659 148.37819 -55.9935 14.699727 -55.571209 31.126299 -17.014326 117.91016
14810000000 -20.629379 147.29636 -55.129242 -10.992189 -52.29599 0.73325801 -16.573656 111.21954
14820000000 -20.035669 146.19647 -55.597309 -48.724277 -53.135712 -40.73568 -16.375595 106.23828
14830000000 -20.058592 143.09221 -56.573475 -64.526367 -54.116592 -58.235752 -16.064268 102.80521
14840000000 -20.017845 138.93715 -56.125252 -58.610279 -53.080231 -62.631771 -15.539806 98.637749
14850000000 -20.628473 136.92142 -54.03125 -78.579552 -52.193378 -85.043961 -15.053524 93.337784
14860000000 -20.386074 135.26492 -51.989143 -102.16586 -50.32003 -106.43662 -14.739545 88.253922
14870000000 -20.983925 130.77104 -50.764507 -135.08618 -49.022156 -136.43478 -14.730703 83.737549
14880000000 -21.119068 130.30252 -51.844959 -152.13478 -49.481857 -162.60658 -14.819693 80.59214
14890000000 -21.448603 130.16792 -50.237598 -176.59816 -48.594055 170.28937 -14.62863 76.871918
14900000000 -21.052174 130.25352 -50.127815 171.6508 -49.102356 153.18456 -14.227737 71.420181
14910000000 -20.851374 131.19872 -48.151604 144.74568 -48.251129 129.66934 -13.808186 65.518181
14920000000 -20.126175 126.86836 -47.537113 117.90694 -47.614002 106.13003 -13.530984 61.404022
14930000000 -20.303242 123.92683 -47.608189 92.168907 -47.839165 80.158028 -13.455644 58.657871
14940000000 -20.418245 119.25651 -47.249996 72.571533 -47.691692 60.862156 -13.513709 57.712307
14950000000 -21.236916 118.29583 -46.118561 49.611156 -47.340229 41.753532 -13.441377 55.938034
14960000000 -21.669016 115.63591 -45.67226 22.832371 -46.247963 17.229378 -13.355072 51.547081
14970000000 -22.867159 120.44859 -45.412846 -0.92616737 -46.154427 -8.2976542 -13.438768 46.492859
14980000000 -22.732399 121.75747 -44.886765 -26.125732 -46.201561 -31.983789 -13.645991 42.509407
14990000000 -22.373533 126.98895 -44.767155 -49.73893 -45.981316 -53.614914 -13.866127 40.385246
15000000000 -21.665419 119.08772 -44.704659 -76.354729 -46.201679 -76.263687 -13.969762 38.7715
15010000000 -22.019167 116.53337 -45.138771 -98.650238 -46.506168 -97.452454 -13.944921 35.205894
15020000000 -22.190783 108.67284 -45.083813 -121.54607 -46.292171 -116.53265 -14.040176 29.797649
15030000000 -23.317518 110.11147 -44.799469 -136.65526 -45.044647 -132.90367 -14.234809 25.522633
15040000000 -23.62344 109.24482 -43.715778 -164.73869 -44.194393 -162.02315 -14.428166 23.845957
15050000000 -24.19956 115.44073 -44.115082 170.13956 -44.826771 171.67844 -14.540929 24.88382
15060000000 -24.073315 117.81168 -44.417355 148.08557 -44.984447 153.14413 -14.588099 24.985079
15070000000 -23.914867 122.84625 -44.681084 127.3947 -44.669601 133.04659 -14.94959 22.88125
15080000000 -23.315418 120.74716 -43.879997 107.67222 -43.778469 112.42426 -15.735537 18.957775
15090000000 -23.483795 118.10686 -43.701759 78.396698 -43.248596 84.421288 -16.757343 17.149889
15100000000 -24.357826 114.85511 -44.322762 56.789032 -43.574173 57.595699 -17.280647 17.975166
15110000000 -25.105808 120.60852 -44.622597 37.585686 -44.425709 38.560539 -17.166269 18.185711
15120000000 -24.85424 122.29578 -44.315044 18.913862 -44.072289 21.900822 -17.203472 15.813471
15130000000 -24.584705 121.1105 -43.891083 -1.0522645 -42.93158 1.3301308 -17.863512 13.470459
15140000000 -24.995235 120.53123 -42.983738 -26.068878 -42.164261 -26.436783 -18.814999 15.248578
15150000000 -24.955944 123.81859 -43.092987 -54.120174 -42.541515 -55.15102 -19.11096 21.069614
15160000000 -24.602068 125.54652 -44.190575 -73.750107 -43.385094 -74.771011 -18.626741 24.907341
15170000000 -24.370922 127.10255 -43.65744 -89.524803 -43.029873 -90.799896 -18.345688 24.643337
15180000000 -24.037582 127.62053 -42.980957 -112.643 -42.265335 -116.01823 -18.910585 26.112114
15190000000 -23.483355 129.12814 -42.323284 -138.31006 -41.651703 -141.42616 -19.581465 33.19249
15200000000 -23.183731 126.91872 -42.878258 -163.71271 -42.410645 -169.32823 -19.362175 40.97517
15210000000 -22.891294 122.58266 -43.140045 175.02573 -42.808567 172.35207 -18.811657 42.431866
15220000000 -24.021486 119.80917 -43.245941 157.55321 -42.644855 152.64458 -18.61982 40.156281
15230000000 -24.513996 124.10223 -41.921383 136.67149 -41.865746 131.86575 -18.86474 39.122498
15240000000 -24.421846 130.69182 -41.79763 109.19936 -41.574284 105.17554 -18.851572 42.003685
15250000000 -23.385443 131.0385 -42.017494 84.729179 -41.659969 79.735336 -18.09936 44.711124
15260000000 -22.866405 127.7844 -41.965687 62.138248 -41.852291 55.578621 -17.150936 44.129025
15270000000 -22.354458 125.89256 -42.054268 37.121086 -42.366165 31.3214 -16.414232 41.287003
15280000000 -21.854198 119.39667 -42.276157 16.666836 -42.505127 12.999845 -16.163139 39.860619
15290000000 -22.248638 113.32531 -42.385853 -4.3182068 -42.364761 -7.1629295 -15.939195 41.793896
15300000000 -23.104996 110.41671 -41.912979 -25.93022 -41.903938 -31.042347 -15.516499 43.756176
15310000000 -24.012457 114.08811 -41.486691 -50.990395 -41.939457 -56.43972 -15.074557 43.259289
15320000000 -23.707729 120.0138 -41.611542 -76.977211 -42.316635 -79.201904 -14.853886 40.268044
15330000000 -22.936596 121.72253 -42.180347 -102.14766 -42.537823 -102.75282 -14.861783 36.457283
15340000000 -22.343344 115.76176 -42.516869 -121.74311 -42.817982 -123.77691 -14.857916 34.242191
15350000000 -22.610151 114.42198 -42.33202 -142.98683 -42.982368 -145.3286 -14.544774 32.665657
15360000000 -22.410828 107.64359 -42.270287 -163.74214 -42.830872 -163.86974 -14.177341 30.336681
15370000000 -23.237089 106.4664 -41.776321 169.02745 -42.23391 170.18561 -13.900311 26.855583
15380000000 -23.198786 101.59978 -42.533146 143.31677 -42.701763 144.10025 -13.766753 22.47081
15390000000 -24.381994 102.3165 -43.402515 121.18687 -43.815384 121.55294 -13.705632 19.261759
15400000000 -24.064917 102.97161 -43.665825 106.95863 -44.095806 108.23395 -13.432919 17.431276
15410000000 -24.039948 103.01296 -42.683975 86.15799 -42.828884 89.323631 -13.133194 15.725814
15420000000 -24.010839 95.961449 -42.318241 58.482964 -42.345299 59.944424 -12.997569 13.369757
15430000000 -25.076836 95.859032 -43.131508 29.062492 -42.960037 32.945545 -13.172677 10.355731
15440000000 -25.432365 96.650627 -44.100872 11.237402 -43.594105 11.243313 -13.535902 6.6786408
15450000000 -25.704941 98.991531 -44.175156 -8.225008 -44.258133 -8.2969198 -13.767167 2.1462708
15460000000 -25.167044 95.303291 -44.225868 -30.093493 -44.27927 -28.833481 -13.770641 -3.182312
15470000000 -25.923084 92.84478 -44.077877 -49.670898 -43.976917 -45.38905 -13.637956 -8.5942974
15480000000 -25.68335 86.611435 -43.803825 -71.701508 -42.905556 -69.738434 -13.597123 -13.381068
15490000000 -26.756878 81.205223 -44.064285 -96.943817 -43.206234 -100.31857 -13.742764 -17.385044
15500000000 -27.873394 70.997826 -44.312092 -119.59692 -44.217876 -122.09203 -13.970402 -20.503498
15510000000 -30.98674 74.088539 -44.679485 -139.55365 -44.363255 -140.90384 -14.143764 -24.143623
15520000000 -32.437351 84.613312 -45.137451 -163.29535 -44.376957 -164.17105 -14.324619 -28.364653
15530000000 -30.961369 101.37567 -45.296909 179.34308 -44.843918 175.0365 -14.588235 -33.215736
15540000000 -29.902563 91.99337 -44.81406 160.52745 -44.500347 153.41762 -15.077238 -38.752571
15550000000 -29.660892 87.345146 -44.517624 134.09096 -44.976242 128.73441 -15.796735 -44.448265
15560000000 -30.665812 65.975594 -45.051804 110.02075 -45.193935 110.58785 -16.455614 -50.37595
15570000000 -34.949688 59.904453 -45.391716 90.044945 -44.829159 87.310486 -16.823977 -57.954067
15580000000 -38.068703 33.439175 -44.974609 69.324265 -44.800838 62.533195 -17.036865 -67.041122
15590000000 -58.090042 162.16727 -44.866936 42.143051 -45.297367 36.126663 -17.204498 -76.232689
15600000000 -46.488419 -165.55994 -45.687412 16.416487 -46.326859 10.573687 -17.435831 -83.963791
15610000000 -37.500828 161.89993 -46.748779 -3.5619986 -47.367962 -4.9592133 -17.705954 -90.309616
15620000000 -43.358791 120.01138 -46.890076 -19.260252 -47.094963 -20.068794 -18.043264 -96.10144
15630000000 -48.433689 155.10493 -46.947395 -39.733318 -46.920776 -40.001976 -18.465235 -103.05679
15640000000 -42.801033 -81.189102 -45.948238 -62.06966 -46.105698 -65.30265 -19.050476 -112.1797
15650000000 -35.77084 -124.33961 -46.391972 -90.614777 -47.175117 -92.525215 -19.533871 -123.61132
15660000000 -34.282749 -129.37492 -47.678543 -114.74992 -48.134441 -111.22923 -19.652258 -136.23692
15670000000 -32.006569 -150.75783 -48.273369 -131.04227 -47.85276 -129.20216 -19.327656 -146.88129
15680000000 -33.727757 -145.90385 -47.80368 -149.96695 -47.437634 -152.51015 -18.678522 -155.28496
15690000000 -32.166599 -144.10043 -48.144146 -176.77646 -48.242077 179.30664 -18.171822 -162.74768
15700000000 -30.969877 -132.45921 -49.197083 164.82034 -49.705833 165.97121 -17.839096 -169.80884
15710000000 -28.905172 -133.8735 -49.178162 147.16876 -49.014595 148.74165 -17.568224 -176.70178
15720000000 -26.8981 -136.55865 -49.124275 128.60533 -48.470028 126.9909 -17.272186 176.7448
15730000000 -25.95653 -147.78247 -48.956661 109.46295 -48.520611 104.99398 -16.901384 171.25674
15740000000 -26.559132 -155.22624 -47.952637 83.248146 -48.20612 78.018372 -16.586266 166.03561
15750000000 -27.735199 -157.86208 -48.950218 53.598007 -49.636425 51.852985 -16.348869 160.22044
15760000000 -28.089249 -143.70091 -50.000698 34.861004 -50.435223 37.609837 -16.125935 153.57861
15770000000 -26.603384 -139.92479 -51.010849 18.08226 -50.431221 17.068363 -15.709595 146.62827
15780000000 -25.152021 -137.08865 -50.599712 8.696806 -50.913422 3.4364593 -15.156964 141.35088
15790000000 -23.466522 -143.41357 -49.266029 -17.648802 -50.065655 -21.807528 -14.451138 137.82024
15800000000 -22.734318 -151.85825 -49.754887 -44.436897 -50.234661 -42.630802 -13.88047 135.45691
15810000000 -22.991234 -159.88651 -49.577888 -70.44989 -50.163391 -66.266525 -13.563939 133.53357
15820000000 -23.871061 -161.29713 -50.993759 -94.674812 -50.849442 -94.000031 -13.461213 131.14803
15830000000 -24.324255 -156.48799 -51.621834 -110.07927 -51.964371 -114.64441 -13.444454 128.20592
15840000000 -24.004265 -147.11769 -51.376217 -131.46774 -52.649483 -130.52954 -13.35623 124.5192
15850000000 -22.574394 -146.0258 -51.726578 -153.96342 -52.274536 -149.274 -13.202313 120.52698
15860000000 -21.714935 -148.10997 -53.076439 -173.35808 -52.950031 -165.46309 -12.943781 116.58324
15870000000 -21.255939 -155.07385 -52.655045 170.51839 -51.950958 173.8253 -12.681061 112.86207
15880000000 -21.745821 -157.29085 -53.856026 147.38037 -52.418549 151.2372 -12.389367 109.44383
15890000000 -21.904057 -158.60063 -53.327702 126.54174 -52.886131 128.0636 -12.115686 106.31022
15900000000 -22.314037 -156.17024 -53.930225 108.31536 -52.899597 113.08541 -11.826473 103.86333
15910000000 -21.693417 -152.46123 -53.800915 93.169006 -52.282837 90.588776 -11.56523 101.77079
15920000000 -20.719225 -152.03365 -54.324497 73.940353 -53.337364 70.621284 -11.348011 100.06326
15930000000 -20.077085 -155.95015 -53.72266 51.629105 -53.391079 43.70285 -11.216779 98.169563
15940000000 -20.043736 -158.89134 -55.718819 26.865656 -54.763767 30.363043 -11.175655 96.202782
15950000000 -20.225529 -160.60027 -54.251003 25.229036 -52.707127 16.304678 -11.188488 94.083115
15960000000 -20.634539 -157.20451 -53.208351 -7.6225791 -52.482822 -17.247288 -11.199097 91.52594
15970000000 -20.122078 -152.77217 -53.859947 -27.66029 -53.779697 -37.84481 -11.178772 88.468582
15980000000 -19.521545 -150.26649 -53.806458 -53.211788 -54.050175 -61.019218 -11.095256 85.148712
15990000000 -18.502214 -151.67747 -55.385143 -67.937889 -55.292213 -78.904785 -10.937117 81.908066
16000000000 -18.391356 -156.02794 -53.889416 -79.120438 -54.423557 -89.398979 -10.745904 79.151268
16010000000 -18.254284 -158.45729 -52.880234 -103.88515 -53.747757 -115.55967 -10.543498 77.286049
16020000000 -18.71217 -160.17661 -52.733131 -133.35799 -54.263908 -141.17743 -10.406123 75.779892
16030000000 -18.799086 -157.03539 -54.007946 -164.02731 -55.326157 -170.14067 -10.355387 74.181625
16040000000 -18.471668 -153.55702 -55.737408 -173.95587 -56.643002 -174.86658 -10.417363 72.108208
16050000000 -17.493307 -152.40338 -54.828426 168.64929 -55.35812 164.46925 -10.516528 69.745766
16060000000 -16.787296 -154.14943 -54.913776 138.06981 -56.450371 130.87845 -10.594146 67.042549
16070000000 -16.333956 -157.16255 -55.18277 119.70005 -57.966618 124.42687 -10.618661 64.410736
16080000000 -16.285393 -159.4073 -55.022537 104.93578 -56.676128 111.50504 -10.632065 61.503162
16090000000 -16.289413 -159.59096 -56.243721 76.094521 -57.347218 87.66523 -10.69844 58.568981
16100000000 -16.385504 -158.69658 -55.344021 71.930382 -55.678364 81.304611 -10.770622 55.391293
16110000000 -15.970999 -156.18333 -54.540192 35.032631 -55.587231 41.845158 -10.770108 52.163311
16120000000 -15.462858 -156.25105 -54.582623 9.5479355 -55.907997 22.772017 -10.697203 49.210159
16130000000 -14.835145 -157.83179 -55.176491 -27.875345 -56.639843 -4.7370248 -10.604066 47.067158
16140000000 -14.661552 -160.39059 -62.353485 -51.551548 -58.221031 -15.685489 -10.590008 45.616955
16150000000 -14.420365 -162.73123 -59.569744 -20.214844 -56.948971 -20.05843 -10.734283 44.192207
16160000000 -14.499372 -163.14195 -57.391994 -49.278297 -55.401131 -46.604618 -11.060994 42.263512
16170000000 -14.128836 -162.07251 -57.032429 -71.5765 -55.472656 -69.059456 -11.419396 39.170616
16180000000 -13.701859 -161.73215 -56.206425 -110.58782 -53.8438 -101.54334 -11.7874 34.930878
16190000000 -13.103852 -163.21748 -60.247658 -134.11424 -55.04332 -129.99953 -12.049321 30.520147
16200000000 -12.896092 -164.84618 -59.115997 -148.90974 -56.809654 -150.631 -12.267599 26.613205
16210000000 -12.610965 -166.97787 -63.229168 -164.05655 -58.437824 -173.85825 -12.482223 23.085022
16220000000 -12.767681 -167.92773 -62.332832 -153.61903 -58.969383 -173.18466 -12.747231 19.432369
16230000000 -12.59248 -167.96237 -58.002522 -168.49574 -55.610329 165.27528 -13.079027 15.764212
16240000000 -12.544271 -166.6362 -55.660027 157.78821 -55.369335 130.81833 -13.422947 12.270354
16250000000 -11.951771 -167.08372 -54.669731 124.30775 -55.281166 100.97318 -13.794543 9.889451
16260000000 -11.515925 -168.94724 -56.395603 78.130554 -56.712048 57.29081 -14.211495 7.9765291
16270000000 -11.107788 -172.34502 -60.552849 63.130318 -60.095947 46.144203 -14.902752 5.9466128
16280000000 -11.080726 -175.4877 -61.187656 67.031097 -62.347301 30.435665 -15.889499 2.5744231
16290000000 -11.049057 -177.0354 -58.246777 54.730091 -62.69379 26.643456 -17.146341 -2.5119703
16300000000 -11.141404 -177.16956 -58.355343 21.072948 -64.367432 23.038685 -18.341595 -8.623395
16310000000 -10.869028 -176.22415 -58.084808 -7.5511627 -61.02631 -8.8694525 -19.374666 -15.997676
16320000000 -10.5759 -175.56815 -59.22356 -18.977091 -63.710434 -34.109001 -20.278954 -23.447216
16330000000 -10.006688 -176.2993 -57.985294 -53.51672 -64.08773 -59.917206 -21.607063 -31.532423
16340000000 -9.7593546 -178.62787 -60.463509 -85.383301 -68.891678 -66.694435 -23.229612 -38.187874
16350000000 -9.5128279 178.93037 -62.054737 -98.029495 -65.220985 -53.48724 -24.947596 -46.839958
16360000000 -9.6161432 176.41409 -65.180351 -139.50577 -65.764847 -95.958405 -27.450735 -55.990788
16370000000 -9.6431217 175.55563 -62.67358 -111.80849 -64.208191 -101.10509 -30.444344 -71.055229
16380000000 -9.6128521 175.04559 -66.209084 -173.91994 -69.665001 -111.67896 -33.914589 -115.78976
16390000000 -9.3646793 174.73792 -65.919037 -104.09654 -60.439129 -94.46006 -30.856108 -168.18913
16400000000 -9.1351089 173.82974 -61.806992 -141.11763 -59.044125 -137.24608 -26.474842 172.88564
16410000000 -8.7833223 172.53053 -62.135853 174.64055 -58.895554 -169.4691 -23.911186 166.4167
16420000000 -8.6212006 170.92586 -65.360664 165.95699 -61.645138 166.18733 -22.142181 163.04025
16430000000 -8.4011345 169.64995 -63.032028 145.92804 -58.688313 150.46172 -20.966213 158.75539
16440000000 -8.3522234 168.58768 -67.78331 122.38162 -61.317398 116.93797 -19.854136 152.8528
16450000000 -8.1609526 167.98917 -64.341072 154.15645 -62.546455 121.11794 -18.973024 147.18019
16460000000 -8.0707502 167.06026 -60.468391 126.31273 -59.950272 104.93314 -18.093147 143.5098
16470000000 -7.8826461 165.95685 -58.311325 101.17034 -58.630596 86.355637 -17.28343 139.21706
16480000000 -7.845582 164.32991 -58.826607 60.452305 -57.586517 47.227322 -16.653385 134.44881
16490000000 -7.7764602 163.26685 -59.076633 53.063404 -58.577545 39.191422 -16.010637 129.49771
16500000000 -7.7600999 162.8432 -57.521847 29.790386 -58.184395 11.318496 -15.194715 125.35087
16510000000 -7.4975328 162.14586 -56.312176 -0.2598173 -57.542931 -17.200388 -14.34619 122.21828
16520000000 -7.3118086 161.46864 -60.408112 -24.523594 -62.379642 -34.889713 -13.67715 120.6384
16530000000 -6.9539404 159.9613 -56.906399 -23.573595 -58.668972 -39.568527 -13.287721 119.64217
16540000000 -6.8215361 158.3821 -55.617325 -51.896275 -57.813221 -54.305023 -13.032256 118.03285
16550000000 -6.6722312 156.49364 -55.169498 -81.405167 -56.364597 -80.386597 -12.904336 115.11358
16560000000 -6.7583852 155.4789 -55.832424 -109.10567 -56.455734 -104.71465 -12.691657 111.55056
16570000000 -6.697597 155.17728 -55.541553 -124.72462 -56.474865 -126.76703 -12.39974 108.09396
16580000000 -6.6324453 155.57022 -55.240997 -146.48108 -55.827381 -145.69939 -12.068749 105.14537
16590000000 -6.3599658 155.09106 -54.888557 -175.43332 -55.945778 -175.76245 -11.812261 102.52423
16600000000 -6.1334448 154.0786 -54.784855 169.85527 -56.039192 170.64832 -11.560967 99.910728
16610000000 -5.878407 152.14056 -54.351673 145.77791 -54.788597 150.47311 -11.321233 97.136192
16620000000 -5.7840047 150.24599 -54.9328 119.34145 -54.699974 123.42355 -10.99966 94.392563
16630000000 -5.6799035 148.4335 -54.522293 108.61581 -54.395763 108.93426 -10.679568 92.568108
16640000000 -5.6673918 147.55434 -53.210732 80.558083 -53.334492 82.278191 -10.380078 91.520264
16650000000 -5.5236082 147.02948 -53.210617 53.265411 -53.628235 53.618423 -10.227689 90.335091
16660000000 -5.3552012 146.79088 -53.751965 25.757973 -53.697594 28.549753 -10.225168 88.78141
16670000000 -5.070374 145.90143 -54.149673 10.590375 -54.511383 10.328358 -10.320677 86.295815
16680000000 -4.8995667 144.69283 -53.611767 -14.864367 -54.621552 -12.235854 -10.327997 83.11953
16690000000 -4.7243752 143.36987 -54.132904 -37.247108 -54.455654 -32.740749 -10.236834 79.448013
16700000000 -4.6302867 142.10243 -55.253979 -55.422134 -54.377769 -50.966457 -10.061059 76.492104
16710000000 -4.4850745 140.8506 -54.173283 -74.464188 -53.957413 -74.407417 -9.8477678 73.913887
16720000000 -4.4094763 139.7372 -53.340607 -101.34674 -54.045654 -98.167206 -9.6782532 71.930901
16730000000 -4.2313104 138.51132 -53.290977 -125.00665 -53.223331 -122.43176 -9.5470104 70.101906
16740000000 -4.08671 137.24706 -54.018353 -154.07124 -54.16259 -147.94376 -9.4687538 68.447746
16750000000 -3.9222381 135.77655 -55.513077 -172.58485 -54.847157 -162.69533 -9.3681822 66.785271
16760000000 -3.7963166 134.45499 -55.124058 172.72002 -53.996677 178.81425 -9.354887 65.052315
16770000000 -3.6439579 133.2296 -55.442677 153.06718 -53.936333 158.7401 -9.3695078 63.234737
16780000000 -3.5124865 132.18526 -53.710732 137.59702 -52.608559 136.33017 -9.4519796 61.131138
16790000000 -3.3386006 130.95172 -53.742779 103.95794 -52.693245 103.40365 -9.530221 58.489525
16800000000 -3.1984322 129.6071 -54.554688 82.062637 -53.230762 82.760826 -9.6004133 55.173325
16810000000 -3.0648971 128.08018 -55.258926 63.679123 -53.616886 58.466869 -9.6044979 51.715145
16820000000 -2.9697146 126.50704 -55.419899 50.173843 -54.736473 39.87933 -9.537344 48.132217
16830000000 -2.8688874 124.87286 -54.229218 30.821901 -54.143993 23.906582 -9.4213314 44.979473
16840000000 -2.7824984 123.4759 -53.510723 6.2262182 -53.057587 0.21578723 -9.3073959 42.393497
16850000000 -2.6606038 122.05663 -53.366829 -21.657896 -52.301407 -28.068783 -9.1908188 40.558285
16860000000 -2.5237837 120.75463 -53.458103 -49.697029 -52.773998 -61.114384 -9.1333523 39.104607
16870000000 -2.3587365 119.1804 -54.829948 -70.26149 -55.274334 -85.517105 -9.1557779 37.912418
16880000000 -2.2392235 117.639 -55.149128 -85.161682 -55.866985 -92.461716 -9.2660131 36.081795
16890000000 -2.1245561 116.13374 -53.707188 -104.97361 -54.289856 -111.33862 -9.4633331 33.46917
16900000000 -2.0400727 114.79798 -53.150204 -130.00996 -53.457729 -141.68445 -9.6862335 29.887877
16910000000 -1.9454347 113.38913 -53.398861 -158.62354 -54.088364 -170.43275 -9.8357449 26.091091
16920000000 -1.8747038 112.0707 -53.762245 176.22903 -55.640076 167.61829 -9.8441916 21.975945
16930000000 -1.7794387 110.62119 -54.634747 152.41252 -56.350788 145.75586 -9.7974806 18.078178
16940000000 -1.6951846 109.062 -54.867046 134.58081 -56.022861 132.69548 -9.7301636 14.456985
16950000000 -1.5946586 107.31733 -54.437222 107.70345 -55.573128 107.21999 -9.7419548 11.289949
16960000000 -1.5206531 105.58324 -54.867504 84.987762 -56.082539 82.84655 -9.7828331 8.1658525
16970000000 -1.4374294 103.94282 -55.496296 53.717751 -56.614193 56.448193 -9.8872948 5.4209657
16980000000 -1.3596468 102.41328 -56.471188 40.381077 -58.445679 41.843571 -10.010936 2.4810667
16990000000 -1.2575705 100.89157 -56.295937 19.053993 -57.49614 26.670744 -10.190088 -0.46310705
17000000000 -1.1701226 99.378349 -55.694031 -4.673768 -56.500523 1.9474878 -10.40386 -4.217926
