!Keysight Technologies,P9374A,MY57211807,A.19.30.04
!Date: Friday, May 08, 2026 14:29:41
!Correction: S11(C  2-Port  ) 
!S21(C  2-Port  ) 
!S12(C  2-Port  ) 
!S22(C  2-Port  ) 
!S2P File: Measurements: S11, S21, S12, S22:
# Hz S  dB   R 50
13000000000 -18.673061 56.788132 -42.286636 80.913696 -41.503662 78.83609 -12.431687 -82.09668
13010000000 -19.095676 57.003765 -41.690697 61.136097 -41.051041 58.173077 -12.817347 -85.211525
13020000000 -19.497797 59.067142 -41.341644 42.153641 -40.877022 38.739147 -13.237007 -88.605576
13030000000 -19.594553 61.451614 -40.655006 16.342991 -40.163406 12.359957 -13.701713 -92.280731
13040000000 -19.941517 62.947906 -40.887222 -8.9535589 -40.64941 -12.601288 -14.233666 -96.170166
13050000000 -19.746878 64.90834 -41.50185 -32.695229 -41.095318 -36.639729 -14.798429 -100.59788
13060000000 -19.827066 64.220131 -41.773266 -50.174152 -41.498329 -57.514988 -15.368514 -105.61418
13070000000 -19.79129 64.483841 -41.668499 -69.923241 -42.01683 -75.960663 -15.872214 -111.55264
13080000000 -19.640886 64.39257 -41.139118 -90.371719 -41.35141 -93.828888 -16.302174 -117.26622
13090000000 -19.30315 61.045807 -40.628059 -113.86898 -40.863724 -118.3401 -16.686825 -122.87665
13100000000 -19.618456 60.381195 -40.652256 -140.18001 -40.979401 -143.30609 -17.212332 -128.53886
13110000000 -19.382841 59.993465 -41.022781 -161.68721 -41.303017 -165.52769 -17.833376 -134.82411
13120000000 -19.721634 58.110641 -41.06567 174.84242 -41.701344 170.32806 -18.499891 -142.55273
13130000000 -19.837242 59.528461 -41.112267 153.44804 -41.826557 150.42505 -18.92967 -151.56102
13140000000 -20.03915 63.454002 -41.146347 132.23726 -41.756783 129.80498 -19.121044 -160.94009
13150000000 -19.458843 63.868328 -40.786263 107.96732 -41.605335 107.86979 -19.264423 -170.26517
13160000000 -19.402201 65.004105 -41.425571 81.857216 -42.041946 83.331223 -19.428711 -179.81209
13170000000 -18.872931 62.199085 -41.762325 61.784122 -42.277908 63.15411 -19.583107 169.65114
13180000000 -19.125055 58.836807 -41.926064 40.837601 -42.267464 44.002464 -19.36912 158.0757
13190000000 -18.974213 56.666203 -41.721321 20.123465 -41.895958 22.392494 -18.773081 147.7289
13200000000 -19.305803 53.137199 -41.181747 -3.3768721 -41.34454 -0.73680097 -17.986759 139.47705
13210000000 -19.707586 53.228962 -41.326401 -30.303709 -41.338779 -28.729084 -17.327787 132.51521
13220000000 -19.77951 53.700314 -42.129257 -52.612171 -42.328312 -50.484821 -16.916555 125.81194
13230000000 -19.623405 54.915119 -42.190933 -76.717628 -42.308445 -72.652267 -16.470579 118.41927
13240000000 -19.416706 55.602512 -43.194221 -98.699226 -42.819355 -94.503464 -15.863261 110.34479
13250000000 -19.086077 53.761055 -43.532192 -117.52554 -43.147175 -115.41364 -15.077865 102.81608
13260000000 -19.137209 52.84605 -43.369106 -135.87807 -42.727993 -134.53925 -14.292001 97.3498
13270000000 -18.959469 50.818985 -42.822548 -160.98903 -42.468586 -159.4796 -13.593183 93.341194
13280000000 -19.045765 47.924168 -43.159073 174.30962 -42.644394 173.2821 -13.068481 89.425598
13290000000 -19.382889 45.167091 -43.775673 149.10834 -43.195351 147.75725 -12.63561 84.945656
13300000000 -19.578026 43.80162 -44.771221 127.48529 -44.176979 126.63063 -12.219355 79.720413
13310000000 -19.978779 41.870331 -45.62413 110.20232 -44.798748 108.23283 -11.716255 74.312355
13320000000 -19.977158 41.025604 -45.639923 91.37339 -44.899818 86.009453 -11.194318 69.845711
13330000000 -20.376123 39.982384 -45.279739 72.371231 -44.849667 67.352142 -10.698125 66.197357
13340000000 -20.098242 42.687065 -44.925655 45.75058 -44.631927 40.380795 -10.266136 62.849831
13350000000 -20.055283 40.396866 -46.007954 21.586679 -45.824905 15.253098 -9.9289436 59.099529
13360000000 -19.679626 40.943325 -46.640263 3.8818233 -46.611671 -2.6114876 -9.6376572 54.532909
13370000000 -19.572084 36.369579 -46.915215 -14.988758 -47.457134 -21.70579 -9.3165951 49.777481
13380000000 -19.55057 32.800686 -46.702477 -39.293312 -47.500946 -39.080799 -8.9078121 45.354824
13390000000 -20.518242 28.048489 -47.856319 -63.063679 -48.021358 -64.31469 -8.5008106 41.305786
13400000000 -20.769669 28.919813 -48.824562 -78.413635 -48.740513 -80.372322 -8.1399527 37.96571
13410000000 -21.770971 25.350573 -48.30785 -91.388741 -49.239342 -97.652931 -7.8843431 34.737961
13420000000 -21.992765 31.563267 -48.289192 -116.64603 -49.309517 -114.64799 -7.6912093 30.994781
13430000000 -21.861294 28.752417 -49.027946 -135.92493 -48.808399 -135.66216 -7.5344992 26.766947
13440000000 -21.543331 30.144802 -49.158409 -156.72569 -49.264492 -159.65094 -7.3904629 22.356205
13450000000 -21.341702 26.71246 -50.026619 -176.4209 -50.874081 -176.42014 -7.196568 18.036217
13460000000 -21.047398 23.273802 -50.144344 165.2592 -50.4841 169.13516 -6.9727621 14.163256
13470000000 -21.799097 16.921106 -50.515568 148.07811 -50.615261 149.02032 -6.7932673 10.466886
13480000000 -22.006767 18.166212 -51.833687 128.92894 -51.648632 133.02458 -6.6699114 6.8243494
13490000000 -23.104109 12.920674 -51.563541 121.2156 -51.423084 120.60729 -6.6088529 3.023082
13500000000 -23.28657 17.096088 -49.9734 109.29077 -50.002159 106.69155 -6.6205144 -0.9201678
13510000000 -24.373629 16.820042 -48.987221 80.118851 -49.90131 81.409546 -6.6372437 -4.7326045
13520000000 -24.062679 19.808163 -50.326469 52.269661 -50.719124 62.327908 -6.6305361 -8.4157753
13530000000 -24.489717 18.732656 -50.362762 40.614342 -49.121315 47.783913 -6.6325507 -12.152693
13540000000 -23.839661 18.510235 -50.899181 26.208555 -49.445946 22.364145 -6.6634479 -15.864622
13550000000 -24.180696 14.360758 -49.981087 16.010717 -50.217598 9.7702579 -6.7533803 -19.583227
13560000000 -23.676636 10.709829 -48.365341 -4.2661548 -48.786594 -2.8076339 -6.8874817 -23.295666
13570000000 -25.254574 7.2212276 -47.68549 -29.018677 -47.003555 -24.307369 -7.0078077 -26.861607
13580000000 -24.849369 5.9866295 -47.651207 -56.615219 -46.397053 -56.743053 -7.1148705 -30.155296
13590000000 -27.16485 5.1176071 -47.923565 -74.335823 -47.069443 -81.580124 -7.199048 -33.367161
13600000000 -26.930315 14.243144 -47.927044 -92.685806 -47.88308 -99.384697 -7.3019962 -36.404308
13610000000 -27.760927 22.923063 -47.073383 -109.9558 -47.153191 -113.80836 -7.4693141 -39.3372
13620000000 -26.230797 22.261538 -46.248394 -133.30196 -46.206745 -133.0864 -7.6838365 -42.345177
13630000000 -26.864454 20.331982 -45.651176 -155.69962 -45.141781 -159.83484 -7.9124231 -45.296303
13640000000 -26.120487 14.490385 -45.550983 -178.92606 -45.908577 174.47943 -8.1077375 -48.368904
13650000000 -27.637831 8.575923 -45.17025 158.15488 -45.712334 155.66302 -8.2627544 -51.408989
13660000000 -27.480721 9.2096348 -45.376514 135.14874 -45.597809 134.39056 -8.3900375 -54.320164
13670000000 -29.37751 7.7710862 -45.178219 114.9253 -44.990261 113.27069 -8.5382671 -56.913399
13680000000 -29.081129 15.418213 -44.84399 93.404839 -44.811977 90.665642 -8.7312269 -59.251339
13690000000 -29.40555 21.053955 -44.581745 71.18708 -44.837666 66.789017 -8.9398088 -61.346684
13700000000 -28.157274 25.808491 -43.70174 47.700565 -44.439579 46.868542 -9.1583748 -63.915989
13710000000 -27.975019 27.474428 -44.053505 21.325777 -44.443474 23.224222 -9.3836346 -66.759262
13720000000 -27.117819 23.379208 -44.076782 0.20539543 -44.002377 1.9194754 -9.5967255 -69.73114
13730000000 -28.077032 24.098406 -44.129959 -24.585258 -44.08564 -25.657711 -9.7842588 -72.282494
13740000000 -27.055681 22.061504 -44.186539 -45.942749 -44.350079 -45.628128 -9.9566116 -74.608192
13750000000 -28.427645 14.711978 -44.136215 -68.025665 -44.134441 -67.316574 -10.158292 -76.763535
13760000000 -28.838327 14.11058 -44.258385 -90.891495 -44.209209 -90.331879 -10.388743 -79.239182
13770000000 -30.313108 12.540317 -44.307903 -113.26553 -44.384888 -112.2561 -10.65551 -82.223534
13780000000 -30.545019 20.030725 -44.244926 -134.40128 -44.082973 -134.2798 -10.887034 -85.340195
13790000000 -29.667803 26.659138 -44.206554 -157.02193 -44.211529 -158.92273 -11.049823 -88.416862
13800000000 -28.33375 25.565714 -44.440037 -177.69763 -44.314236 -176.81512 -11.166212 -90.903534
13810000000 -26.839346 21.909777 -44.010818 159.26584 -43.627281 157.65465 -11.300237 -92.963654
13820000000 -26.276482 8.9146509 -44.599747 135.69159 -44.232315 133.19409 -11.479705 -94.915413
13830000000 -26.750418 6.2719345 -44.36195 116.55998 -44.600323 115.53914 -11.740938 -97.248695
13840000000 -26.766876 -6.076036 -44.492119 91.934944 -44.42997 91.689484 -12.008635 -100.18073
13850000000 -29.207024 -7.281179 -44.792126 72.858749 -44.60516 72.797546 -12.262743 -103.59256
13860000000 -30.193754 -1.985479 -44.509499 53.075405 -44.206772 50.659615 -12.440406 -106.76025
13870000000 -30.077549 7.7952523 -44.347012 30.999851 -44.275192 27.219933 -12.556776 -109.71108
13880000000 -29.440889 6.9169798 -43.663704 10.847666 -44.190742 6.3528333 -12.710121 -112.51489
13890000000 -27.841846 7.7761874 -43.572212 -17.265528 -44.193279 -15.998028 -12.929077 -115.59381
13900000000 -27.320869 -7.6703777 -44.054569 -41.769196 -44.000618 -40.954144 -13.173697 -118.86905
13910000000 -27.616764 -8.1178989 -44.727848 -60.281975 -44.456467 -59.190304 -13.375503 -122.43227
13920000000 -26.943306 -20.590595 -43.73204 -81.290039 -43.908752 -81.692612 -13.47608 -126.0098
13930000000 -28.309446 -28.033173 -43.827003 -106.70643 -43.855042 -106.55219 -13.539948 -129.39532
13940000000 -28.831543 -32.649174 -44.045139 -130.58644 -44.030334 -129.8989 -13.691858 -132.5677
13950000000 -30.056675 -39.584049 -44.183327 -153.32178 -43.935913 -152.08501 -13.934196 -135.56552
13960000000 -31.453249 -42.244625 -44.276627 -174.16438 -44.035973 -175.64523 -14.227221 -139.03745
13970000000 -32.137001 -37.319386 -44.225075 161.74626 -44.312508 160.69046 -14.464781 -143.38026
13980000000 -31.856531 -38.449848 -44.38731 136.50955 -44.561096 138.67558 -14.623094 -148.75182
13990000000 -30.702276 -36.344387 -45.057564 114.1804 -44.764065 117.4949 -14.684974 -154.26939
14000000000 -28.789665 -46.605549 -44.782337 94.156677 -44.176571 94.547745 -14.675803 -159.38037
14010000000 -27.479057 -55.334404 -45.391602 67.189171 -44.84314 66.263847 -14.622967 -163.98177
14020000000 -26.994303 -68.760338 -45.989025 51.113842 -45.384689 46.262928 -14.579389 -168.39929
14030000000 -27.251263 -80.058372 -45.56739 26.505917 -45.541561 23.233141 -14.564471 -172.87131
14040000000 -28.556728 -91.278442 -46.067879 3.3193536 -45.787964 2.705358 -14.540343 -177.48488
14050000000 -30.306753 -92.856201 -46.971458 -14.413658 -46.262291 -16.099052 -14.473674 177.75079
14060000000 -33.06538 -92.479828 -46.08033 -35.092369 -45.872467 -39.134449 -14.39201 172.96432
14070000000 -32.835442 -73.90834 -46.089058 -59.378353 -45.756294 -65.749794 -14.295153 168.25743
14080000000 -31.776342 -80.874092 -46.642521 -84.221725 -46.690575 -87.145767 -14.212349 163.62425
14090000000 -30.43351 -79.134102 -47.179996 -104.42426 -47.055714 -108.9611 -14.166405 159.01413
14100000000 -28.537022 -98.175423 -47.326054 -123.06773 -47.509293 -126.2308 -14.07935 154.2473
14110000000 -28.168119 -109.94493 -46.815208 -145.56807 -47.01252 -150.53905 -13.917248 148.95604
14120000000 -27.840651 -125.26173 -47.322803 -169.66566 -47.732246 -174.07468 -13.702146 143.29808
14130000000 -28.2381 -132.13939 -47.680267 170.66354 -47.598274 168.29536 -13.427324 138.10837
14140000000 -28.174955 -139.45628 -47.787533 148.99692 -47.801506 145.04813 -13.127168 133.53177
14150000000 -29.581297 -140.81596 -47.275051 125.26797 -47.590599 121.3011 -12.886473 129.32747
14160000000 -29.362368 -143.55116 -47.881432 104.88738 -48.65984 98.877068 -12.681981 124.92807
14170000000 -30.662169 -140.63507 -47.479931 80.903801 -48.175533 78.602119 -12.517741 120.12303
14180000000 -29.806627 -137.52672 -47.893608 55.718693 -49.214672 54.164474 -12.287055 115.05806
14190000000 -29.629906 -139.42889 -48.396095 30.789524 -49.262199 37.855732 -11.96821 110.14556
14200000000 -28.126541 -140.47113 -49.683224 10.949724 -49.305511 12.728998 -11.589401 105.53205
14210000000 -27.096634 -148.73441 -49.215958 -6.0755157 -49.255291 -4.7286773 -11.245179 101.26301
14220000000 -26.350746 -156.21783 -49.051151 -32.848888 -48.982872 -31.80788 -10.974034 97.259872
14230000000 -26.132378 -168.71193 -49.790794 -56.174507 -50.491329 -55.069935 -10.766791 93.275452
14240000000 -27.008282 -174.01285 -50.410397 -80.201813 -50.553085 -76.212776 -10.528327 89.120895
14250000000 -27.708536 -178.46927 -51.055534 -98.726608 -51.274452 -93.350128 -10.268046 84.665771
14260000000 -29.349388 -176.77989 -50.630417 -121.08174 -50.532425 -112.83891 -10.021643 80.294327
14270000000 -29.86595 -164.16655 -52.18063 -145.23634 -51.568542 -134.86507 -9.7992306 76.100677
14280000000 -28.644318 -161.22346 -52.432247 -164.59773 -50.55957 -157.58711 -9.6112509 71.966385
14290000000 -27.23292 -161.39957 -53.682037 172.14828 -51.342831 171.95316 -9.4377947 67.6185
14300000000 -26.636234 -169.95366 -53.777134 165.50075 -53.059647 159.63017 -9.2559881 62.949757
14310000000 -26.179237 -178.27925 -52.402565 139.28233 -51.755238 142.50009 -9.0413122 58.152149
14320000000 -26.831533 171.27286 -54.083767 113.07053 -51.452744 113.48498 -8.8226728 53.519836
14330000000 -27.183683 170.10231 -53.915836 105.34463 -52.141514 90.090637 -8.6027985 49.261852
14340000000 -28.444237 165.02446 -53.799427 79.19252 -53.865555 67.420959 -8.4340878 45.307495
14350000000 -28.741262 175.06102 -53.445568 54.062893 -52.913914 50.417931 -8.2995939 41.301636
14360000000 -29.101851 176.11801 -55.211636 39.714035 -52.889362 25.706629 -8.2432814 36.952477
14370000000 -28.198296 -178.7998 -54.263332 19.895712 -53.922104 -6.2644734 -8.2276459 32.256512
14380000000 -27.965378 179.22084 -54.453503 -2.5710616 -56.709904 -23.827997 -8.2064362 27.365005
14390000000 -27.28204 179.17426 -53.428848 -24.650358 -55.101402 -28.80788 -8.1630659 22.567019
14400000000 -27.365307 173.82249 -53.823082 -49.810757 -54.678116 -59.713776 -8.0783453 17.805014
14410000000 -27.295044 170.9778 -54.306515 -72.919807 -55.755371 -83.264183 -8.0220747 13.156679
14420000000 -27.388491 165.52235 -55.831932 -93.351158 -58.03413 -102.42321 -8.0204916 8.6235428
14430000000 -28.002562 162.30971 -54.415867 -107.66169 -58.124557 -113.89097 -8.08041 4.1492605
14440000000 -29.075254 164.65875 -52.822865 -137.26666 -55.681984 -132.36473 -8.1743183 -0.27601737
14450000000 -28.992273 172.00403 -54.64312 -169.65097 -57.6026 -155.11971 -8.294199 -4.8601956
14460000000 -28.877228 -179.83746 -54.897999 164.91774 -56.097134 175.53946 -8.4060497 -9.5065289
14470000000 -27.153776 -176.28349 -56.708248 149.15959 -57.782661 165.54405 -8.5734949 -14.366335
14480000000 -26.112129 -177.88171 -55.430832 130.6965 -56.319489 139.98195 -8.839303 -19.183491
14490000000 -25.883224 174.27985 -55.54335 103.10045 -57.068901 119.15321 -9.1215296 -24.001085
14500000000 -26.194918 171.94513 -56.79039 78.423508 -56.744793 102.74828 -9.3924999 -29.377941
14510000000 -26.911873 166.0623 -56.153728 50.099304 -54.58633 72.375328 -9.6290884 -35.047722
14520000000 -28.309847 174.44145 -56.431519 17.635876 -54.916515 32.805408 -9.8342638 -40.446899
14530000000 -27.861172 174.79018 -58.981655 1.9663602 -56.853004 7.5171757 -10.0446 -45.267376
14540000000 -27.401119 -172.12457 -56.869106 -29.57448 -56.90036 -16.035807 -10.342002 -49.484951
14550000000 -25.552958 -177.64284 -58.274517 -66.739067 -57.384407 -42.423706 -10.747389 -53.592239
14560000000 -25.021582 -178.48253 -60.813126 -87.085205 -57.655098 -62.175335 -11.230742 -58.328232
14570000000 -24.211454 174.23923 -59.823875 -106.83936 -55.139671 -95.434288 -11.763634 -64.012726
14580000000 -24.419598 173.63963 -61.492516 -136.79433 -56.681469 -132.04921 -12.302561 -70.363441
14590000000 -24.375463 168.66232 -60.479317 -179.28564 -56.803146 -175.87488 -12.808704 -76.379906
14600000000 -24.805149 173.79845 -62.087273 152.60361 -58.319977 158.00972 -13.271519 -82.048615
14610000000 -24.55201 171.30557 -65.496376 126.29386 -59.362202 129.26848 -13.707668 -88.032082
14620000000 -24.561428 177.43402 -63.428761 119.38652 -58.877956 109.27801 -14.217582 -95.003799
14630000000 -23.902464 174.81706 -62.024666 56.012634 -58.357033 61.502289 -14.779063 -102.25306
14640000000 -23.538092 176.59853 -61.778614 13.752197 -57.926121 28.044735 -15.261912 -109.05583
14650000000 -22.797337 173.99005 -66.443703 -17.28911 -58.999329 -2.5900819 -15.649098 -115.44971
14660000000 -22.072649 171.0159 -66.546135 -3.1888368 -59.701183 -12.375251 -16.102579 -122.04477
14670000000 -22.084286 166.2148 -62.256443 -47.131485 -57.470379 -45.036232 -16.693495 -129.31194
14680000000 -21.711037 162.59241 -62.77232 -55.323616 -55.840034 -78.025932 -17.359678 -138.00797
14690000000 -22.276115 159.70523 -60.742786 -86.161469 -55.983601 -121.67311 -17.972317 -148.15437
14700000000 -22.341602 161.38011 -58.164757 -122.65789 -56.383308 -147.06897 -18.324806 -158.52965
14710000000 -22.623831 162.99007 -60.03759 -161.08868 -58.778488 -167.90634 -18.269949 -168.7847
14720000000 -22.049057 165.71867 -62.01561 171.3309 -55.672577 167.86464 -18.020647 -178.60741
14730000000 -21.462858 165.06331 -61.470631 -172.99132 -56.936237 130.72658 -17.807306 172.25873
14740000000 -20.611214 161.10327 -57.160568 151.04819 -58.249172 109.92909 -17.670458 164.35748
14750000000 -20.51856 155.52594 -56.746155 127.71025 -58.958992 102.91759 -17.581224 157.31532
14760000000 -20.368963 150.44891 -55.902836 101.86319 -56.607304 80.562241 -17.521235 150.13737
14770000000 -20.981564 146.12694 -55.097065 75.320618 -55.075115 51.651989 -17.384401 142.29245
14780000000 -20.954231 145.44173 -54.928219 49.77396 -56.988445 9.3001194 -17.109253 133.84639
14790000000 -21.446798 146.88464 -54.975006 25.914013 -61.299629 -4.4218073 -16.654306 126.18693
14800000000 -20.815031 148.37523 -53.382751 11.703272 -58.511974 19.886595 -16.194483 119.26041
14810000000 -20.761528 148.65593 -51.789402 -15.489105 -52.763035 -12.050005 -15.80832 113.8642
14820000000 -20.039986 147.32344 -51.780563 -52.084946 -53.167126 -67.12925 -15.476947 109.31515
14830000000 -20.017473 143.84184 -52.048347 -72.499054 -56.868 -85.742249 -15.150203 104.59035
14840000000 -19.893757 139.66689 -51.493591 -99.164841 -57.436707 -78.881409 -14.862257 99.581551
14850000000 -20.471664 136.64963 -51.758812 -126.41854 -53.697212 -100.8804 -14.560883 95.129547
14860000000 -20.35548 134.02507 -51.647694 -134.6022 -52.747955 -123.40622 -14.283696 90.732338
14870000000 -21.074389 130.9328 -49.872105 -167.15096 -50.987038 -151.28702 -14.153503 86.643013
14880000000 -21.091902 129.96837 -50.714375 167.80435 -51.043884 -176.92953 -14.147617 82.704895
14890000000 -21.437815 130.42445 -49.528248 142.18889 -49.870285 155.29938 -14.091676 78.068199
14900000000 -20.963381 129.36803 -50.402542 112.95723 -50.677467 129.41248 -13.87268 73.010147
14910000000 -20.910879 130.53807 -50.867519 88.542595 -50.225445 110.63321 -13.562199 68.18734
14920000000 -20.285727 126.70601 -51.654366 71.556297 -49.845741 87.508781 -13.226958 64.515266
14930000000 -20.509623 125.12535 -51.242817 50.868298 -48.976597 63.352081 -13.050647 61.549316
14940000000 -20.392113 120.79509 -51.005669 31.840424 -48.794998 35.608845 -13.096854 59.266254
14950000000 -20.990917 119.52905 -50.334034 8.1131916 -48.606365 10.510736 -13.220304 56.694561
14960000000 -21.457277 115.48458 -50.313999 -17.664753 -48.866642 -12.142142 -13.311111 53.223625
14970000000 -22.641151 119.95728 -52.053108 -43.258701 -48.799961 -37.759293 -13.332879 49.267567
14980000000 -22.480879 118.83002 -51.665478 -44.657707 -48.884583 -56.791752 -13.381168 45.271286
14990000000 -22.776243 124.15168 -49.264561 -68.733437 -48.027256 -78.212654 -13.527342 42.265602
15000000000 -22.101664 118.81711 -48.908092 -104.27668 -47.424461 -111.96163 -13.74952 39.603241
15010000000 -22.380678 118.38136 -49.756042 -127.10675 -48.455193 -136.70383 -13.979942 36.361446
15020000000 -22.256193 111.89866 -50.417484 -148.16457 -48.482471 -161.0692 -14.176778 32.625336
15030000000 -22.907381 113.25625 -50.819214 -160.57344 -50.308704 -178.51891 -14.210958 29.285233
15040000000 -23.096907 108.32262 -48.39402 -179.5361 -48.431583 164.03555 -14.224153 26.728186
15050000000 -23.966707 114.15232 -48.167709 150.06812 -49.108677 136.37717 -14.407741 25.823708
15060000000 -23.937395 114.50189 -48.976173 126.62701 -49.555637 115.6225 -14.774819 25.79541
15070000000 -24.185091 120.28414 -48.431927 104.96631 -48.976936 92.304817 -15.304107 25.479609
15080000000 -23.947968 119.31655 -47.969254 87.180267 -49.32473 69.319672 -15.9089 23.721807
15090000000 -24.062714 122.22939 -46.236343 55.714634 -49.007191 44.584259 -16.581942 21.454309
15100000000 -24.082821 119.04547 -47.867031 25.149185 -50.922329 22.664383 -17.078859 19.822329
15110000000 -24.538349 121.3452 -49.316433 2.7300746 -51.244614 8.4106894 -17.376959 19.699862
15120000000 -24.578533 120.08445 -48.336334 -8.9338722 -50.013557 -11.802452 -17.592447 19.950289
15130000000 -24.65378 119.50353 -47.463703 -36.944031 -50.265568 -38.030754 -18.049158 20.204811
15140000000 -25.065891 120.0598 -47.384533 -61.76704 -49.825699 -48.435173 -18.600716 22.217571
15150000000 -24.962658 123.65363 -48.198128 -92.128593 -49.529007 -74.543869 -18.759089 25.404354
15160000000 -24.865355 124.98226 -49.018654 -109.60233 -49.084015 -98.828995 -18.642029 27.893911
15170000000 -24.388176 129.1685 -49.003647 -131.54012 -49.865746 -121.26162 -18.57357 30.391577
15180000000 -23.809196 127.97778 -49.04744 -154.34494 -49.492401 -141.30817 -18.668859 33.86504
15190000000 -23.273342 127.90129 -48.93026 179.32661 -49.39418 -158.70157 -18.750078 39.081745
15200000000 -23.412624 125.12654 -51.046238 153.15324 -49.213711 179.18468 -18.587765 43.270893
15210000000 -23.369602 123.44163 -50.851551 140.04918 -48.019066 153.99869 -18.426144 44.548634
15220000000 -24.037523 124.45425 -51.151783 121.79204 -48.510422 123.41061 -18.315372 44.747944
15230000000 -23.803583 125.37938 -50.745777 100.09431 -49.718945 103.44111 -18.086988 45.030293
15240000000 -24.050066 128.03142 -52.055111 80.661308 -49.054661 91.103607 -17.701496 45.291069
15250000000 -23.393349 128.4079 -51.739315 63.294258 -47.900497 62.818043 -17.194498 45.069687
15260000000 -23.018515 126.26344 -50.500439 43.375324 -47.838852 33.429913 -16.621998 44.265308
15270000000 -22.593712 123.99516 -51.022652 15.080228 -49.038414 5.366734 -16.082983 43.277958
15280000000 -22.446842 119.43221 -52.595764 -5.5181336 -50.534103 -17.122944 -15.594795 42.850994
15290000000 -22.680548 117.03728 -52.96423 -15.671863 -50.688995 -29.516577 -15.156263 43.012497
15300000000 -22.829271 115.73257 -50.762527 -28.323681 -49.240517 -45.843525 -14.854103 42.933674
15310000000 -23.091908 115.53433 -49.252213 -60.159809 -48.548756 -84.514122 -14.655359 41.914291
15320000000 -23.114563 115.63098 -49.901428 -88.689636 -50.776478 -111.51121 -14.559996 39.898663
15330000000 -23.038857 117.42625 -51.845695 -115.49261 -53.813519 -134.72491 -14.474817 37.308567
15340000000 -22.78171 113.26196 -52.414749 -122.76805 -53.984837 -138.24007 -14.249312 34.620327
15350000000 -23.08935 114.87068 -50.428677 -139.51489 -52.612942 -157.78847 -13.962701 31.584833
15360000000 -22.846588 109.29253 -50.081833 -161.04263 -53.776691 -175.49243 -13.81716 28.690002
15370000000 -23.333994 110.32098 -49.146637 168.20949 -53.853241 165.73865 -13.718863 26.159317
15380000000 -22.834963 104.5516 -50.189781 135.58652 -53.875454 142.40692 -13.532996 22.945429
15390000000 -23.66127 102.66592 -52.607086 116.37593 -56.378391 119.76463 -13.331196 19.619278
15400000000 -23.681705 98.676003 -52.204708 112.53164 -55.330032 132.0119 -13.057889 16.753342
15410000000 -24.465952 98.989983 -50.681595 85.890572 -52.411209 107.69709 -12.873938 14.276702
15420000000 -24.710642 96.774155 -50.814537 58.101212 -52.085514 78.432167 -12.910421 12.345166
15430000000 -25.133465 99.485603 -51.994045 33.718201 -52.819828 56.52457 -13.078799 10.31547
15440000000 -25.100088 97.946457 -52.344936 15.878069 -51.999008 39.018761 -13.259508 6.9804792
15450000000 -25.304581 98.99205 -53.378738 -4.0695186 -52.08926 20.051825 -13.443691 1.4890094
15460000000 -25.158222 93.120178 -53.015934 -18.836988 -50.633705 -6.0787916 -13.558665 -4.2837272
15470000000 -25.864779 90.416183 -52.06105 -34.822769 -50.217236 -26.412081 -13.547831 -9.3192854
15480000000 -26.262012 82.987495 -51.955395 -67.2537 -50.260574 -52.098366 -13.542336 -13.302699
15490000000 -27.869919 83.828079 -53.27026 -82.299011 -50.179405 -72.53569 -13.618094 -16.546627
15500000000 -28.289824 79.705688 -53.649162 -100.74168 -49.654079 -96.980896 -13.737823 -20.330969
15510000000 -29.729668 84.175827 -53.041309 -116.60469 -49.658916 -122.35079 -13.988138 -24.643076
15520000000 -29.937832 82.847267 -53.136776 -137.35011 -50.307446 -145.0667 -14.300561 -28.852587
15530000000 -30.197515 85.971016 -52.76112 -149.76964 -50.323696 -159.54036 -14.613551 -33.305801
15540000000 -30.977903 77.542809 -51.295403 -167.60591 -48.938934 178.3744 -15.08899 -38.101776
15550000000 -32.018787 83.482224 -50.785103 165.08263 -49.097088 146.89801 -15.674908 -43.575485
15560000000 -33.807102 71.252739 -50.90527 141.73012 -50.149288 124.75648 -16.278519 -50.124626
15570000000 -36.186283 89.211571 -50.823555 118.12639 -49.968094 103.42511 -16.808981 -58.137825
15580000000 -37.59502 73.257515 -50.608349 102.83542 -50.198341 83.234047 -17.1639 -66.799698
15590000000 -39.331337 96.228996 -50.141651 75.075356 -50.318459 52.378338 -17.363333 -75.032631
15600000000 -43.690071 55.444221 -50.09074 52.395256 -50.995235 34.055504 -17.524603 -82.366516
15610000000 -53.769817 145.63292 -50.03138 33.878281 -52.206985 12.412308 -17.767458 -89.224846
15620000000 -46.315868 -90.880188 -48.774902 6.466032 -51.657845 -3.765444 -18.206215 -95.65345
15630000000 -39.396278 -145.799 -49.254364 -14.894962 -52.155853 -20.480579 -18.783775 -102.72098
15640000000 -38.429115 -135.93718 -48.365257 -37.638519 -51.21384 -38.750648 -19.444305 -111.68845
15650000000 -36.016891 -158.70929 -48.872211 -65.870872 -51.451355 -66.366798 -19.928862 -123.04835
15660000000 -37.72541 -142.47504 -49.257221 -88.980064 -52.419041 -86.533813 -20.028984 -135.6812
15670000000 -35.167339 -150.27461 -49.273788 -112.78109 -52.578789 -105.61632 -19.622913 -146.84183
15680000000 -34.396164 -123.81651 -49.398937 -133.73705 -51.91309 -118.48891 -19.018217 -155.87595
15690000000 -30.894335 -134.17902 -49.176319 -159.66995 -51.25185 -143.49962 -18.541292 -163.50714
15700000000 -29.302113 -133.52747 -50.285072 175.30763 -51.756386 -164.55919 -18.254463 -170.86955
15710000000 -28.042471 -142.25305 -51.280277 154.29349 -51.270161 177.69585 -18.004351 -177.7691
15720000000 -27.602861 -145.33835 -50.740513 134.66852 -50.056988 156.1003 -17.652845 175.86586
15730000000 -27.469509 -149.37761 -50.989819 107.94802 -50.150284 129.13408 -17.212362 170.00458
15740000000 -27.480925 -146.02003 -51.56358 86.688683 -49.660545 105.9729 -16.864105 164.23152
15750000000 -27.014809 -147.07085 -51.904606 61.768234 -49.804291 79.900574 -16.661938 158.33304
15760000000 -26.413849 -142.98628 -53.513695 40.173061 -49.952335 53.534912 -16.431147 151.88657
15770000000 -25.496855 -146.91936 -55.098129 22.956896 -51.272491 30.612867 -15.962562 145.0656
15780000000 -25.365974 -147.15433 -55.569736 15.406358 -50.873955 16.921301 -15.347323 139.71861
15790000000 -24.719519 -149.03079 -53.873047 0.2621268 -49.755699 -9.365942 -14.628098 136.21637
15800000000 -24.109095 -149.21861 -54.339092 -27.490829 -50.171627 -41.457062 -14.073468 133.81738
15810000000 -23.718346 -151.42107 -54.505619 -44.424946 -51.523727 -62.334534 -13.790853 132.07462
15820000000 -23.352165 -151.02733 -54.379856 -59.898888 -51.59581 -85.622604 -13.679468 129.80898
15830000000 -22.630301 -153.59799 -53.894695 -78.630531 -52.006783 -106.35011 -13.616186 126.65038
15840000000 -22.666323 -154.61618 -52.462135 -103.08441 -52.149418 -135.11772 -13.519891 122.71563
15850000000 -22.668852 -157.23294 -52.865383 -130.47067 -52.948238 -160.98634 -13.3372 118.72724
15860000000 -22.921745 -153.26897 -53.28952 -146.81451 -54.846931 177.97186 -13.059601 114.80322
15870000000 -22.583305 -153.09586 -52.424191 -171.85368 -55.215405 160.82323 -12.780914 111.14191
15880000000 -22.296926 -149.41092 -52.811077 170.90361 -56.797798 142.38693 -12.479061 107.84431
15890000000 -21.476706 -151.26695 -51.856167 140.49359 -56.975304 118.75437 -12.202535 104.78328
15900000000 -21.133253 -153.73724 -53.073082 116.77674 -59.982727 100.37478 -11.908225 102.40275
15910000000 -20.823149 -156.69809 -53.663727 97.089211 -61.42749 115.41036 -11.63919 100.34343
15920000000 -20.729507 -158.79172 -52.968967 77.47538 -57.968063 95.801224 -11.418018 98.453644
15930000000 -20.801611 -159.60933 -52.525616 44.782173 -58.154037 71.892723 -11.281662 96.492966
15940000000 -20.802046 -157.21266 -55.029739 15.189291 -59.769608 56.517826 -11.229126 94.461441
15950000000 -20.455544 -155.93297 -55.99007 2.596596 -57.512699 51.152851 -11.22948 92.165627
15960000000 -20.086708 -154.05472 -56.042248 -22.109558 -56.526943 25.306398 -11.227518 89.613937
15970000000 -19.566404 -154.34982 -57.64188 -40.815639 -55.232605 8.3719721 -11.186208 86.565948
15980000000 -19.428747 -153.35077 -59.449303 -59.523441 -54.337872 -12.605757 -11.084439 83.203804
15990000000 -18.893978 -153.83627 -59.795452 -61.125992 -53.136589 -35.877949 -10.921376 79.966095
16000000000 -18.853235 -155.12907 -58.897499 -81.260315 -52.080536 -65.249084 -10.730568 77.264488
16010000000 -18.395847 -155.31656 -60.096527 -92.553932 -52.648537 -92.327377 -10.522929 75.405342
16020000000 -18.443645 -157.20668 -58.710915 -108.57616 -52.309124 -114.0726 -10.395396 73.787735
16030000000 -18.162621 -156.85921 -59.214943 -122.7214 -52.561153 -142.67242 -10.360233 72.097809
16040000000 -18.118116 -157.35025 -56.896946 -126.01846 -53.06818 -161.26115 -10.431512 69.917572
16050000000 -17.725483 -156.59453 -54.897259 -155.70692 -52.442493 174.43494 -10.523685 67.438919
16060000000 -17.451637 -155.01804 -55.633598 176.66959 -52.41806 144.70378 -10.582327 64.650978
16070000000 -16.831148 -154.55688 -54.958363 161.93625 -53.028675 122.69914 -10.585896 61.982594
16080000000 -16.338001 -155.01648 -53.668095 136.86818 -53.25375 97.817825 -10.579349 59.145081
16090000000 -15.816836 -156.63852 -53.117359 110.43522 -54.175819 68.796265 -10.639183 56.133457
16100000000 -15.720502 -158.82262 -52.890343 85.797333 -55.069977 46.56459 -10.7097 53.060032
16110000000 -15.579747 -159.91852 -53.180889 63.022312 -56.352287 24.32032 -10.705162 49.783535
16120000000 -15.663456 -160.28786 -52.042698 39.983807 -56.492908 9.5438271 -10.653611 46.772293
16130000000 -15.394121 -159.46971 -51.711151 5.3403945 -56.991089 -22.184103 -10.572944 44.648712
16140000000 -15.204248 -158.63634 -53.276917 -22.893116 -59.830524 -57.088257 -10.568873 43.312077
16150000000 -14.573694 -159.03993 -54.87569 -37.521908 -66.856499 -29.426825 -10.716554 41.758282
16160000000 -14.174879 -160.04202 -53.970627 -55.095116 -61.435173 -28.572828 -11.03529 39.599705
16170000000 -13.602381 -162.03952 -53.148293 -75.949059 -57.458584 -48.098122 -11.391447 36.332497
16180000000 -13.415695 -164.11562 -52.170227 -115.99886 -57.252178 -96.230301 -11.733311 32.047279
16190000000 -13.167107 -165.68573 -54.799297 -148.16447 -63.590828 -98.03035 -11.972675 27.810602
16200000000 -13.205252 -166.02856 -55.844654 -164.07829 -58.592461 -103.6209 -12.162285 24.123934
16210000000 -12.912419 -166.40955 -59.456642 169.7952 -56.879826 -117.48171 -12.363659 20.811958
16220000000 -12.867774 -165.9334 -59.359833 172.32146 -55.156185 -140.61061 -12.621191 17.232952
16230000000 -12.433188 -166.41396 -57.174519 154.35634 -53.497608 -176.13908 -12.980797 13.488969
16240000000 -12.261411 -166.70375 -58.906158 129.52785 -54.027462 162.36333 -13.331657 10.069948
16250000000 -11.84207 -168.60014 -59.077545 113.95016 -53.049614 140.4422 -13.691835 7.6379805
16260000000 -11.645198 -170.03842 -60.109627 88.305565 -52.505505 104.05999 -14.108438 5.5172167
16270000000 -11.27898 -172.41437 -59.699768 81.801117 -52.637218 79.826553 -14.789614 3.4019344
16280000000 -11.193662 -174.32098 -60.272488 58.062325 -54.451939 55.71973 -15.741054 0.27780169
16290000000 -10.96312 -175.92929 -60.09528 65.142647 -53.402599 47.379459 -16.865047 -4.3415952
16300000000 -10.951077 -176.94632 -57.056042 42.980602 -51.803268 14.632853 -17.953043 -10.89821
16310000000 -10.727473 -177.19351 -54.940132 7.2216182 -51.414387 -23.682299 -19.026728 -17.723276
16320000000 -10.613984 -176.83403 -56.817989 -20.029167 -54.091408 -52.685856 -19.897964 -23.965284
16330000000 -10.186769 -177.01239 -56.832504 -34.675869 -54.659664 -67.600708 -21.097261 -30.837997
16340000000 -9.9643745 -178.08337 -56.588036 -58.16238 -54.823967 -95.374268 -22.630836 -36.859104
16350000000 -9.5912533 -179.75363 -55.104931 -79.972374 -54.40184 -118.12815 -24.391085 -44.72216
16360000000 -9.4930363 177.91513 -55.864017 -112.89199 -55.954506 -154.86035 -26.917627 -52.246876
16370000000 -9.3676538 175.60303 -55.722591 -131.13193 -57.568771 -174.36308 -29.992105 -64.422218
16380000000 -9.4590445 173.8083 -56.492756 -159.88112 -59.007183 160.50233 -35.13343 -100.1025
16390000000 -9.3910351 173.19257 -57.48064 -176.67589 -62.040668 133.88127 -33.324944 -165.94408
16400000000 -9.3169699 172.99045 -57.5243 166.3306 -63.669285 139.88571 -28.07686 170.85275
16410000000 -8.9984331 172.75647 -55.454124 142.18398 -61.879971 122.76617 -25.106085 163.59442
16420000000 -8.7250366 172.24744 -56.696995 105.20215 -63.700333 64.083748 -23.137253 159.21056
16430000000 -8.3301811 170.88817 -57.824566 82.851189 -75.948784 89.140114 -21.871088 153.99939
16440000000 -8.1650867 169.09744 -58.085594 53.846111 -66.071999 83.433426 -20.682516 147.85529
16450000000 -8.0005894 167.34093 -61.610939 25.842546 -74.550041 76.14019 -19.714016 142.2421
16460000000 -8.0212498 165.95653 -61.689415 9.4958172 -73.850403 86.165077 -18.717728 138.63123
16470000000 -8.0162802 164.90651 -66.165634 20.384708 -61.397873 107.1765 -17.848814 134.15614
16480000000 -8.0155716 164.70123 -62.684807 -16.731571 -60.12495 49.738796 -17.181202 129.19757
16490000000 -7.8315244 163.98602 -65.688431 -34.69022 -60.138424 25.99386 -16.533932 124.28226
16500000000 -7.7211914 163.53572 -70.704727 -26.350523 -59.468796 11.158806 -15.673745 120.40338
16510000000 -7.4149189 162.40227 -64.156059 -43.680614 -57.936008 -16.460791 -14.78567 117.37466
16520000000 -7.2149639 161.1906 -74.881416 -66.735718 -59.533779 -41.989521 -14.136981 115.84756
16530000000 -6.9502473 159.30795 -64.452423 -45.062244 -57.258156 -58.134262 -13.749641 114.97812
16540000000 -6.8919787 158.04562 -67.059868 -53.405155 -57.795147 -86.497757 -13.484321 113.11426
16550000000 -6.7560654 156.70317 -61.503731 -74.000648 -56.260532 -111.13573 -13.379112 109.94836
16560000000 -6.742909 156.09232 -58.478745 -100.92125 -55.819347 -135.19308 -13.167536 106.38496
16570000000 -6.6431479 155.41841 -60.086697 -133.97995 -57.003448 -165.49649 -12.835527 103.03018
16580000000 -6.5612202 155.37074 -56.759693 -142.59357 -55.903526 -178.80426 -12.472998 100.05148
16590000000 -6.3648748 154.54083 -56.622456 179.50055 -55.629688 144.42932 -12.215999 97.505547
16600000000 -6.1883869 153.85805 -56.676743 162.71169 -56.812359 126.05739 -11.985907 94.984169
16610000000 -5.9516764 152.20618 -55.244286 134.61296 -56.615955 98.850792 -11.748312 92.249199
16620000000 -5.8112407 150.72537 -55.665997 107.80772 -57.808582 75.387985 -11.420914 89.630989
16630000000 -5.6500325 148.86743 -55.165451 90.683685 -58.560047 61.549553 -11.088742 87.698654
16640000000 -5.587152 147.73143 -54.670086 59.171944 -58.228966 32.888077 -10.790289 86.66169
16650000000 -5.4537358 146.64346 -55.267265 31.873058 -60.913376 21.589314 -10.652114 85.505463
16660000000 -5.3563399 146.18846 -54.906445 9.0947876 -59.458622 3.1372747 -10.680353 83.934151
16670000000 -5.1615181 145.63673 -55.25444 -12.70268 -61.888638 -14.122316 -10.78667 81.450348
16680000000 -4.9633594 145.0076 -54.960682 -41.159428 -59.85154 -29.338736 -10.775373 78.281158
16690000000 -4.7365427 143.8494 -55.232235 -67.731697 -60.726295 -53.981812 -10.649724 74.526688
16700000000 -4.587913 142.47585 -57.580078 -90.728279 -61.61129 -57.821041 -10.471218 71.533531
16710000000 -4.4323483 140.90715 -58.410583 -106.48046 -60.657082 -70.349449 -10.24878 69.197807
16720000000 -4.3588743 139.44273 -57.523003 -120.60162 -58.279514 -81.025665 -10.079434 67.40905
16730000000 -4.2419357 138.12231 -57.173241 -141.401 -55.965534 -114.93431 -9.9544668 65.650177
16740000000 -4.1367359 137.0809 -57.144547 -168.30016 -55.296562 -138.94507 -9.8821068 64.002357
16750000000 -3.9691935 135.9303 -58.687107 166.86887 -56.408428 -165.19881 -9.7868252 62.347073
16760000000 -3.7994695 134.75882 -59.212486 166.25577 -55.286106 -177.70123 -9.7797403 60.415825
16770000000 -3.6159544 133.43243 -58.650372 146.81653 -54.343914 153.9697 -9.8059406 58.718201
16780000000 -3.470664 132.12524 -57.269993 133.10217 -53.40836 130.53127 -9.8704672 56.587814
16790000000 -3.3243001 130.7627 -56.95435 105.28402 -53.32547 99.640045 -9.9387245 53.989651
16800000000 -3.2177467 129.40747 -56.084545 79.773788 -53.130028 74.171707 -9.9782047 50.648777
16810000000 -3.0942888 128.09245 -57.707825 62.540623 -54.252476 49.846622 -9.9718828 47.185135
16820000000 -2.9833331 126.6534 -56.433746 50.617134 -53.805374 31.399685 -9.8934317 43.631973
16830000000 -2.8573265 125.0079 -54.391666 27.073597 -52.747665 6.6431856 -9.7801895 40.665447
16840000000 -2.7619188 123.52086 -53.66161 0.26735133 -52.684292 -22.892445 -9.6388025 38.320751
16850000000 -2.6387911 121.97856 -53.358212 -30.32061 -52.864925 -51.177158 -9.5054541 36.607666
16860000000 -2.520705 120.56179 -53.623611 -56.791454 -53.952644 -76.483788 -9.4487801 35.153465
16870000000 -2.3843386 119.09621 -54.179634 -84.874191 -54.056301 -103.69083 -9.487051 33.922367
16880000000 -2.2582166 117.74002 -54.327923 -100.53417 -56.084778 -122.34509 -9.6069107 32.035114
16890000000 -2.1267042 116.25933 -53.434864 -120.14496 -55.190331 -133.85941 -9.7946358 29.455307
16900000000 -2.0262551 114.90273 -52.818398 -148.97559 -54.900463 -160.5426 -9.9789648 25.805832
16910000000 -1.9256892 113.37751 -52.520271 -176.6552 -54.948307 173.88908 -10.085032 21.890518
16920000000 -1.8653771 111.93391 -52.976261 153.17526 -55.108353 145.99974 -10.073362 17.901855
16930000000 -1.7869197 110.49756 -53.62661 126.85378 -56.396835 119.25248 -10.003874 14.254282
16940000000 -1.7112337 109.03217 -55.068005 101.64576 -58.276665 100.76333 -9.9090071 10.830336
16950000000 -1.6062139 107.37781 -54.688633 83.452583 -57.013962 87.020309 -9.9077568 7.6808782
16960000000 -1.5209154 105.69569 -55.030491 60.147247 -57.450409 66.696068 -9.9463816 4.6231289
16970000000 -1.4248898 104.0048 -54.78772 33.1096 -57.514572 47.070667 -10.046548 1.9219328
16980000000 -1.3438653 102.38859 -56.272591 7.7603841 -57.815575 27.468266 -10.164728 -0.89989656
16990000000 -1.2533245 100.79337 -56.321697 -8.5238419 -56.605114 5.617991 -10.305367 -3.8721893
17000000000 -1.1804043 99.316269 -56.340885 -37.794014 -56.434052 -25.020336 -10.492596 -7.6164193
