!Keysight Technologies,P9374A,MY57211807,A.19.30.04
!Date: Friday, May 08, 2026 14:30:59
!Correction: S11(C  2-Port  ) 
!S21(C  2-Port  ) 
!S12(C  2-Port  ) 
!S22(C  2-Port  ) 
!S2P File: Measurements: S11, S21, S12, S22:
# Hz S  dB   R 50
13000000000 -18.610828 56.725761 -38.94146 61.931484 -38.948719 62.965424 -12.413786 -84.710236
13010000000 -19.087557 57.084679 -38.749939 41.006657 -38.719025 41.076962 -12.81335 -87.990631
13020000000 -19.530987 58.471352 -38.57962 19.192713 -38.566227 19.718916 -13.227313 -91.559143
13030000000 -19.745367 62.492317 -38.453762 -4.0831313 -38.372936 -3.3308265 -13.655916 -95.243179
13040000000 -19.854502 63.150043 -38.493423 -26.983061 -38.338688 -26.103786 -14.115846 -99.405937
13050000000 -19.733423 65.966385 -38.915569 -50.641285 -38.663696 -49.679977 -14.621883 -104.03421
13060000000 -19.582369 64.366852 -39.056286 -69.149628 -38.629662 -68.93084 -15.171655 -109.10468
13070000000 -19.648438 63.234512 -39.118496 -90.80983 -38.596077 -91.766068 -15.636656 -114.80349
13080000000 -19.596607 62.258343 -38.715004 -110.90784 -38.372257 -112.53906 -16.008965 -120.37238
13090000000 -19.646467 60.009735 -38.523762 -134.92354 -38.253429 -137.43777 -16.355946 -126.02168
13100000000 -19.858973 61.021122 -38.699467 -157.51347 -38.508476 -160.25876 -16.808781 -131.82991
13110000000 -19.506962 62.040398 -39.053406 -178.35938 -38.961716 179.1591 -17.376146 -138.32491
13120000000 -19.563723 60.03841 -39.142815 159.89693 -38.893604 157.39293 -17.943047 -145.93584
13130000000 -19.570089 60.306793 -38.906944 139.99963 -38.747715 137.37053 -18.272079 -154.50667
13140000000 -19.700588 61.938896 -38.653843 117.3103 -38.649765 113.52001 -18.391136 -163.1588
13150000000 -19.449734 61.849247 -38.708588 94.243332 -38.851997 91.375824 -18.476097 -171.19493
13160000000 -19.684799 63.235584 -39.017101 72.73452 -39.330837 70.176628 -18.583639 -179.5854
13170000000 -19.160515 62.940701 -39.068264 51.85603 -39.264446 51.147507 -18.705223 170.81244
13180000000 -19.160599 59.858311 -39.033649 31.200571 -39.102638 29.946411 -18.581505 160.26936
13190000000 -19.003736 58.214886 -38.848614 9.3238659 -39.007034 8.0587883 -18.108355 150.52245
13200000000 -19.105383 53.962303 -38.693726 -11.908373 -38.763943 -12.592516 -17.429283 142.59923
13210000000 -19.404495 52.445011 -38.497059 -35.870209 -38.574501 -36.53492 -16.838673 135.62363
13220000000 -19.84544 51.823555 -38.731869 -58.823948 -38.719765 -59.629166 -16.473789 128.89528
13230000000 -19.790609 55.004593 -38.745972 -81.611176 -38.743961 -82.675346 -16.114775 121.56465
13240000000 -19.506256 55.668186 -39.067764 -102.93188 -39.148308 -103.16346 -15.635819 113.76847
13250000000 -19.173977 55.091976 -39.237698 -123.78871 -39.143787 -124.0106 -14.902117 106.76129
13260000000 -18.994535 54.029209 -38.994488 -143.40338 -38.985588 -144.85886 -14.132611 101.11171
13270000000 -18.692892 50.274399 -38.609253 -168.15247 -38.651821 -168.45799 -13.473956 96.768013
13280000000 -19.017324 46.213741 -38.819412 167.81508 -38.727718 166.97989 -12.987453 92.359688
13290000000 -19.57464 44.037418 -39.136742 144.66351 -38.993683 143.34482 -12.618081 87.560524
13300000000 -19.828812 43.891224 -39.461086 122.27735 -39.282688 120.244 -12.230851 82.182152
13310000000 -20.149065 42.810802 -39.876259 102.55496 -40.091267 99.802353 -11.743541 76.656578
13320000000 -19.955992 43.126873 -39.83997 81.140144 -39.924007 80.461388 -11.193866 71.986176
13330000000 -20.01569 41.209782 -39.736141 60.759731 -39.736221 58.626404 -10.681695 68.15007
13340000000 -19.925692 41.765095 -40.056816 35.27808 -40.046494 33.226021 -10.245863 64.527573
13350000000 -19.885635 39.383556 -40.358326 14.382574 -40.659855 12.369609 -9.9154797 60.583942
13360000000 -19.740971 39.116528 -40.677925 -4.4392195 -40.825344 -6.0898275 -9.6534262 55.761978
13370000000 -19.902567 35.395954 -40.613369 -26.131193 -40.936279 -27.915169 -9.3659868 50.839725
13380000000 -19.778664 33.931892 -40.761078 -49.206638 -41.131329 -49.016132 -8.9940252 46.346966
13390000000 -20.455046 29.48407 -41.413914 -70.744637 -41.837639 -71.272614 -8.5852137 42.168114
13400000000 -20.645048 30.068531 -41.516495 -89.026886 -41.973541 -87.578476 -8.2173729 38.541412
13410000000 -21.578764 25.376484 -41.440628 -108.00087 -41.657009 -106.10728 -7.9562602 34.936054
13420000000 -21.794844 30.304348 -41.360882 -131.93861 -41.524788 -129.772 -7.781611 30.908144
13430000000 -21.926844 27.891361 -41.649616 -151.28366 -41.540066 -149.02351 -7.6378946 26.577705
13440000000 -21.698431 29.794153 -41.698265 -174.60432 -41.637291 -172.69359 -7.49402 22.096609
13450000000 -21.463211 27.157063 -42.209007 164.77258 -42.171959 165.39494 -7.2955317 17.653976
13460000000 -20.968967 24.454802 -42.439434 145.38074 -42.29472 147.3636 -7.0783787 13.618091
13470000000 -21.651947 16.156614 -42.831177 126.69993 -42.359814 127.45182 -6.8968673 9.7708759
13480000000 -22.034689 16.872168 -42.50737 107.13037 -42.236622 108.22368 -6.7804122 5.8932018
13490000000 -23.327036 11.923293 -42.55146 87.130959 -42.066174 86.221344 -6.7307158 1.9536344
13500000000 -23.639606 18.27072 -42.413578 65.892014 -42.119381 66.017807 -6.7368102 -2.0894887
13510000000 -24.414923 19.065546 -42.740379 42.514561 -42.457798 42.198551 -6.7272243 -6.174777
13520000000 -23.800644 22.648989 -42.997715 23.90097 -42.684124 23.128599 -6.7175922 -10.19169
13530000000 -24.007286 18.065931 -43.12051 4.7992234 -42.727837 3.1982288 -6.7202101 -14.04754
13540000000 -23.517546 16.663954 -43.333664 -13.311521 -43.37743 -15.548203 -6.7410169 -17.948668
13550000000 -24.16972 10.383508 -43.177235 -29.211508 -43.095478 -30.403187 -6.8286371 -21.742062
13560000000 -24.147491 8.8054352 -42.529736 -52.271194 -42.413242 -52.117588 -6.9440594 -25.610708
13570000000 -25.96373 6.8131666 -42.378895 -72.903381 -42.125431 -74.128548 -7.045054 -29.502272
13580000000 -25.301567 10.770309 -42.553276 -94.748596 -42.277435 -96.955811 -7.1454186 -33.172924
13590000000 -26.973597 11.064527 -42.489178 -116.65794 -42.284458 -117.1077 -7.2385483 -36.704361
13600000000 -25.963995 16.265308 -42.785187 -134.96707 -42.538868 -137.55841 -7.3435888 -40.002129
13610000000 -27.015738 17.938112 -42.319637 -154.40421 -42.229317 -155.69695 -7.5122957 -43.250668
13620000000 -26.333672 17.212664 -42.230637 -176.10347 -41.953602 -177.51892 -7.713038 -46.534283
13630000000 -27.593655 17.589211 -41.987934 162.37016 -41.845825 161.74577 -7.9197698 -49.927811
13640000000 -26.58448 16.453667 -42.193359 141.04292 -41.721748 140.23656 -8.1014547 -53.427746
13650000000 -27.893038 11.671728 -41.923901 119.81184 -41.516731 117.91211 -8.2644405 -56.844475
13660000000 -27.215126 11.855017 -42.313496 97.986435 -41.964462 95.851074 -8.3980646 -59.900703
13670000000 -29.077652 8.4482374 -42.358463 78.632622 -41.955421 76.624695 -8.55474 -62.754898
13680000000 -28.816027 14.00662 -42.195641 61.380131 -41.766525 57.021378 -8.7489433 -65.365227
13690000000 -29.46839 19.846088 -41.872753 40.137794 -41.670528 36.640625 -8.9714766 -68.018341
13700000000 -28.419352 26.596264 -41.408207 20.073425 -41.369057 15.323606 -9.2138996 -70.968513
13710000000 -27.731434 29.67275 -41.239384 -2.5050559 -41.123638 -6.0881228 -9.4419861 -74.169159
13720000000 -26.653429 22.968836 -41.284149 -25.365788 -41.158009 -28.550726 -9.6493711 -77.456444
13730000000 -27.74711 21.456514 -41.333569 -47.309967 -41.148247 -51.53632 -9.8288774 -80.358742
13740000000 -27.171698 15.962429 -41.415115 -66.706268 -41.381332 -71.705612 -10.004501 -83.009262
13750000000 -29.380236 12.333194 -40.949539 -85.765587 -41.035446 -89.835213 -10.205107 -85.515602
13760000000 -29.645998 16.653521 -40.639877 -106.94651 -41.107506 -111.42461 -10.445689 -88.358727
13770000000 -30.684269 22.720413 -40.214439 -130.45667 -40.596596 -133.44475 -10.710712 -91.661713
13780000000 -29.743322 24.943056 -40.436989 -154.30888 -40.806244 -157.15038 -10.950667 -95.082207
13790000000 -28.336866 28.003382 -40.258915 -175.48755 -40.612759 -178.02402 -11.091577 -98.301651
13800000000 -27.412619 18.729261 -40.339939 163.78574 -40.861206 162.47821 -11.179981 -101.11671
13810000000 -26.961718 15.44853 -40.148232 141.82213 -40.5173 139.58739 -11.321553 -103.64899
13820000000 -26.804003 2.2890713 -40.380527 119.32957 -40.78265 118.67231 -11.548886 -105.9152
13830000000 -28.025541 7.3621354 -40.185528 100.1166 -40.556992 99.932541 -11.84957 -108.52607
13840000000 -27.548317 -3.0650992 -39.838203 77.007652 -40.08157 77.62355 -12.09901 -111.67152
13850000000 -29.532694 2.5861647 -39.881866 54.450809 -39.99662 54.71133 -12.280437 -115.35221
13860000000 -29.182497 2.218955 -39.875378 31.278763 -40.015427 31.586496 -12.413812 -118.96535
13870000000 -29.396042 8.5600414 -40.247437 10.093597 -40.151814 10.785147 -12.504915 -122.19616
13880000000 -28.453989 2.5618634 -39.947563 -10.386395 -39.936646 -9.8121653 -12.679686 -125.1883
13890000000 -27.940603 2.7447536 -39.875172 -32.607197 -39.783859 -33.185238 -12.915356 -128.17632
13900000000 -27.570431 -10.97825 -39.794285 -56.816757 -39.790051 -56.296284 -13.12329 -131.54617
13910000000 -28.071032 -8.9324074 -40.282597 -76.077789 -39.959167 -76.919655 -13.257716 -135.28004
13920000000 -27.338438 -20.327316 -40.01873 -97.702286 -39.770508 -98.837311 -13.296888 -138.88707
13930000000 -28.481329 -26.74155 -39.939331 -119.39624 -39.788425 -120.18778 -13.336975 -142.2437
13940000000 -29.001671 -33.554539 -39.777626 -140.97864 -39.531673 -143.28818 -13.455819 -145.41096
13950000000 -30.456324 -36.027878 -39.830032 -165.0677 -39.719986 -166.62013 -13.68789 -148.58452
13960000000 -31.666126 -38.630497 -40.123116 174.3819 -39.844151 170.85374 -13.951529 -152.35173
13970000000 -31.695377 -31.688734 -40.00592 152.86349 -40.101593 150.04437 -14.144928 -156.65059
13980000000 -31.026356 -39.326862 -39.950359 131.13551 -40.098915 127.86452 -14.187597 -161.57994
13990000000 -29.775196 -37.2738 -39.936287 107.74225 -40.083134 106.00542 -14.133408 -166.37422
14000000000 -28.348148 -52.762653 -40.162258 86.769699 -40.328426 83.903976 -14.021598 -170.94127
14010000000 -27.706549 -59.325485 -40.291523 63.36348 -40.36351 61.721817 -13.93329 -175.24091
14020000000 -27.347782 -71.961945 -40.336777 44.345531 -40.496925 41.106033 -13.895164 -179.25369
14030000000 -27.985682 -82.526962 -40.111179 21.915958 -40.496643 19.189371 -13.850041 176.72478
14040000000 -29.529985 -91.24733 -40.233219 -1.4276845 -40.852383 -2.2002895 -13.779293 172.69757
14050000000 -31.171782 -82.623337 -40.41132 -23.195921 -40.820915 -21.433239 -13.685513 168.53117
14060000000 -32.139473 -84.240501 -40.240322 -43.895386 -40.580841 -43.174374 -13.586835 164.41118
14070000000 -31.924688 -71.070656 -40.380875 -67.091606 -40.548733 -65.468925 -13.460653 160.38712
14080000000 -30.497768 -81.736061 -40.320251 -89.121223 -40.395496 -87.947693 -13.340271 156.34296
14090000000 -29.877882 -83.908051 -40.838474 -111.93465 -40.866592 -111.06661 -13.25421 152.11188
14100000000 -28.121834 -104.27431 -40.679958 -132.94447 -40.813969 -129.823 -13.153848 147.79016
14110000000 -28.586361 -115.30839 -40.804893 -154.27176 -40.55867 -152.86078 -13.025752 143.10826
14120000000 -28.225712 -129.0444 -40.801579 -177.66823 -40.851162 -176.42065 -12.848505 138.44054
14130000000 -29.02857 -133.94914 -41.127094 160.49117 -40.894112 162.91631 -12.596237 133.88412
14140000000 -29.008474 -137.17093 -41.353249 138.16226 -40.877953 140.00177 -12.341225 129.82774
14150000000 -30.224226 -136.78154 -41.36961 116.42532 -40.918034 117.19096 -12.144457 126.06979
14160000000 -29.016607 -134.87041 -41.82354 93.770187 -41.202099 94.036552 -11.964171 122.24104
14170000000 -29.819345 -137.13602 -41.893185 71.507523 -41.205936 71.084778 -11.789888 117.80843
14180000000 -28.856258 -138.92686 -42.442394 50.738277 -41.807949 48.528702 -11.593626 112.95377
14190000000 -28.887358 -144.16559 -42.570351 28.626904 -42.017948 26.167353 -11.313988 108.28401
14200000000 -27.955801 -146.97781 -43.083202 7.8832073 -42.54631 5.2860093 -11.008839 103.92368
14210000000 -27.875559 -153.51099 -43.472275 -12.068472 -43.021557 -15.997734 -10.749377 100.16306
14220000000 -27.002069 -157.50708 -43.361759 -31.718893 -43.123066 -35.212536 -10.512824 96.683647
14230000000 -26.816727 -166.30246 -43.803467 -54.239574 -43.37286 -59.486309 -10.316426 92.883873
14240000000 -27.167763 -170.59662 -43.985149 -74.990257 -44.253998 -80.647575 -10.115276 88.73674
14250000000 -27.753656 -174.21931 -44.514462 -93.947647 -44.64349 -96.545441 -9.9071312 84.375648
14260000000 -28.724663 -173.61635 -44.638847 -114.63795 -44.216934 -118.28753 -9.7027016 80.015961
14270000000 -29.155722 -166.51849 -45.130428 -134.77957 -45.16362 -140.8532 -9.5259094 75.893837
14280000000 -28.648005 -163.81938 -45.128216 -154.43855 -45.588112 -158.80219 -9.3818302 71.875053
14290000000 -27.161308 -163.28535 -45.650558 -173.03967 -46.453678 -176.33524 -9.2523146 67.668144
14300000000 -26.700567 -172.44353 -45.674168 170.57863 -46.220936 168.3251 -9.0856123 63.175732
14310000000 -26.458733 -178.03204 -45.446175 151.66957 -45.888962 152.0309 -8.8906565 58.401772
14320000000 -26.943989 169.68488 -45.15955 131.41255 -45.467903 130.2672 -8.6940222 53.729023
14330000000 -27.502102 169.92957 -45.073345 110.96503 -45.535965 109.15793 -8.5141001 49.409203
14340000000 -28.918961 165.85196 -45.219696 88.229019 -45.842102 89.872787 -8.4008398 45.260017
14350000000 -29.038139 177.98759 -45.684849 68.889145 -46.05983 69.04882 -8.3332396 41.269733
14360000000 -28.874649 -177.47054 -45.79723 53.180889 -46.154179 53.775414 -8.3008862 36.96883
14370000000 -27.351004 -175.83495 -45.526997 32.65387 -45.661713 36.10067 -8.2914734 32.244789
14380000000 -26.902796 175.36888 -45.341858 13.949188 -45.375816 15.277045 -8.2663469 27.26527
14390000000 -27.160492 173.01733 -45.102283 -5.2673063 -44.957729 -4.0617952 -8.2235126 22.281027
14400000000 -27.742418 168.09276 -44.95649 -26.066372 -45.057545 -24.994671 -8.1698284 17.271297
14410000000 -28.148409 167.79056 -44.69519 -46.391228 -44.68243 -44.747025 -8.1606607 12.510343
14420000000 -28.807646 167.06943 -44.56617 -66.015381 -44.255695 -65.776413 -8.2018366 7.9907112
14430000000 -28.671057 172.29585 -44.171204 -89.41642 -44.155777 -86.87915 -8.2740402 3.5845957
14440000000 -28.217705 172.46141 -44.669579 -110.45449 -44.043514 -108.83602 -8.3846655 -1.0068946
14450000000 -27.48291 173.93649 -44.771267 -124.14096 -44.054852 -124.6925 -8.5019522 -5.8332863
14460000000 -27.67585 171.70479 -43.4725 -143.91432 -43.162838 -146.964 -8.6446428 -10.851875
14470000000 -27.502518 175.58122 -42.849209 -168.45943 -42.734848 -169.13747 -8.8270903 -15.928944
14480000000 -27.065605 178.63216 -43.048382 165.40247 -42.573666 164.6199 -9.0738335 -21.069256
14490000000 -26.719473 175.96611 -43.193054 143.38557 -42.54158 142.13625 -9.3639288 -26.295515
14500000000 -26.627661 176.55612 -43.70594 124.52558 -43.028397 119.33942 -9.6614094 -31.793823
14510000000 -26.523977 172.05313 -43.231274 105.8784 -43.199173 101.68954 -9.8937569 -37.502426
14520000000 -27.708786 173.85492 -42.715199 84.700531 -42.572964 81.15844 -10.081028 -43.047348
14530000000 -27.418272 173.29123 -42.354549 61.820957 -42.240646 59.152336 -10.261619 -48.07877
14540000000 -27.641714 -176.76353 -42.263138 40.513775 -41.989235 35.40646 -10.541008 -52.871433
14550000000 -25.97296 -176.75174 -42.046215 17.370777 -42.025948 12.293839 -10.963396 -57.735077
14560000000 -25.178328 -176.10225 -41.904678 -5.2412772 -42.192368 -10.583251 -11.49396 -63.157681
14570000000 -23.869179 175.51695 -41.852196 -30.516346 -42.17725 -33.203194 -12.035857 -69.301498
14580000000 -24.008278 171.51729 -42.201164 -51.228241 -42.517632 -54.586849 -12.490619 -75.868263
14590000000 -24.402477 165.2486 -42.296906 -71.041954 -42.676445 -72.62542 -12.87573 -82.447868
14600000000 -25.499384 170.75832 -41.630871 -91.828484 -42.186504 -94.335983 -13.21445 -88.608376
14610000000 -25.09079 174.70508 -41.576183 -115.6632 -41.98468 -116.19574 -13.612808 -95.26268
14620000000 -24.938965 -178.09605 -41.378147 -139.40126 -41.601513 -140.06357 -14.067482 -102.44612
14630000000 -23.367239 -179.2468 -41.58952 -164.18399 -41.740028 -163.94511 -14.516603 -110.16727
14640000000 -22.726027 176.97118 -41.805946 174.6738 -42.117115 173.6579 -14.897227 -117.67754
14650000000 -22.005938 171.26974 -41.687992 151.89461 -42.076523 151.86783 -15.233146 -124.5378
14660000000 -21.966581 164.06471 -41.966236 129.79491 -42.071415 131.40741 -15.591239 -131.01445
14670000000 -22.764616 160.78578 -42.051441 107.71469 -42.00082 108.20504 -15.963388 -138.41812
14680000000 -22.79166 162.83525 -42.032391 87.334045 -41.698624 87.558548 -16.329773 -147.15215
14690000000 -22.910801 165.21651 -41.623512 62.854385 -41.660336 61.843948 -16.591223 -156.8239
14700000000 -22.21769 167.57788 -42.221676 38.533646 -42.104992 39.045284 -16.691355 -166.9005
14710000000 -21.665161 166.94197 -42.374363 16.543488 -42.315895 17.047348 -16.697479 -175.75888
14720000000 -21.174803 162.86627 -43.089245 -3.5354803 -42.562958 -3.0483432 -16.543938 176.42467
14730000000 -21.149908 160.25024 -42.517113 -22.589663 -42.2463 -23.668118 -16.315857 169.19296
14740000000 -20.909632 156.13834 -42.414028 -46.312725 -42.133129 -48.164509 -16.102903 162.30222
14750000000 -21.296009 154.43829 -42.16959 -70.933105 -42.028515 -73.35778 -15.957372 155.55644
14760000000 -20.819891 152.81631 -42.716835 -95.371971 -42.979195 -98.367821 -15.872347 148.59105
14770000000 -21.049349 149.67264 -43.064148 -118.96276 -42.981155 -118.06015 -15.817824 141.48892
14780000000 -20.636518 147.48119 -44.040104 -138.14835 -43.834171 -139.66087 -15.65735 134.19684
14790000000 -21.05492 146.45586 -43.810738 -156.97905 -43.580578 -159.30077 -15.358577 127.60508
14800000000 -20.694086 146.49883 -43.699032 -176.49129 -43.728096 -179.68103 -14.962458 121.86987
14810000000 -20.9505 147.15549 -43.210613 159.384 -43.276253 158.78401 -14.663847 116.87434
14820000000 -20.233198 147.28792 -43.502945 136.39502 -43.266602 134.14828 -14.389112 112.37025
14830000000 -20.14987 145.64398 -43.249302 110.22153 -43.227066 108.36469 -14.174986 107.53101
14840000000 -19.613346 141.21687 -44.063923 85.25032 -44.099216 83.50547 -13.959435 102.33743
14850000000 -20.138243 135.67453 -44.755783 63.547413 -44.671482 60.978741 -13.749307 97.372765
14860000000 -20.23012 131.50691 -45.409008 43.757118 -45.3876 42.551308 -13.62058 92.849556
14870000000 -21.381779 128.03938 -45.532707 25.836994 -45.459106 24.410429 -13.570505 89.360886
14880000000 -21.633911 130.15508 -44.962402 5.1322269 -45.123398 2.5379708 -13.591394 85.720497
14890000000 -21.824484 133.45 -44.75721 -19.158569 -44.660072 -19.625986 -13.542006 81.521652
14900000000 -20.784416 133.26518 -44.840897 -44.379635 -44.46537 -47.474369 -13.345543 76.408607
14910000000 -20.4237 132.11191 -45.220158 -71.805687 -45.212971 -76.493729 -13.110044 70.995193
14920000000 -19.732407 125.27139 -46.421844 -98.376633 -46.920807 -100.85335 -12.926477 66.915855
14930000000 -20.320839 121.40585 -48.187084 -114.90116 -48.293312 -116.8167 -12.871026 63.960117
14940000000 -20.539772 117.22409 -47.853798 -130.343 -48.278954 -131.355 -12.989176 61.462723
14950000000 -21.709272 117.4913 -47.338638 -152.50137 -47.463463 -151.65813 -13.203102 58.884754
14960000000 -22.1199 118.12179 -47.729137 -179.88594 -47.221367 177.77129 -13.312015 55.668472
14970000000 -22.675793 124.798 -48.000305 152.43636 -48.092339 149.56822 -13.324812 51.672653
14980000000 -22.077736 122.81767 -49.805889 130.91695 -49.693256 128.99503 -13.339814 47.77705
14990000000 -21.986652 123.26821 -50.914871 108.96967 -50.755341 104.36385 -13.504658 44.096405
15000000000 -21.807631 116.01752 -52.130852 96.906769 -53.260838 93.706055 -13.853895 40.85289
15010000000 -22.506807 114.87161 -51.517063 80.056915 -51.979179 77.348564 -14.291317 37.7425
15020000000 -22.729462 110.10743 -52.423168 57.752937 -52.88792 57.879044 -14.592854 34.67189
15030000000 -23.393745 114.71382 -51.834938 30.314207 -52.44175 33.807217 -14.655995 31.564514
15040000000 -23.052437 111.62315 -52.901485 11.510384 -53.361206 10.069608 -14.640336 29.088478
15050000000 -23.660713 114.50355 -54.707615 -16.62462 -55.235107 -11.541502 -14.806305 27.695288
15060000000 -23.77129 114.26873 -56.270382 -35.074383 -56.807178 -33.243591 -15.260401 26.797508
15070000000 -24.113392 118.61613 -58.540611 -59.006893 -59.700081 -47.639732 -16.006186 26.092928
15080000000 -24.211637 118.48212 -62.262104 -53.237507 -61.20784 -35.948662 -16.817261 25.295845
15090000000 -24.223515 123.04745 -59.768436 -61.094997 -56.479645 -51.26836 -17.438019 24.121311
15100000000 -24.030451 122.04144 -58.889938 -72.912407 -55.801659 -79.241554 -17.940693 22.697956
15110000000 -24.060246 121.26542 -58.774834 -101.96969 -55.602139 -113.02187 -18.313196 22.378416
15120000000 -24.332022 118.71772 -62.412254 -123.80869 -60.195568 -138.8363 -18.746407 22.887703
15130000000 -24.53681 116.45286 -64.140694 -121.27605 -62.41856 -150.78938 -19.342398 24.967159
15140000000 -25.46524 117.24024 -63.629726 -105.95826 -64.969421 -158.35802 -19.816278 27.931095
15150000000 -25.655167 124.68469 -62.947109 -120.88951 -63.99194 -133.43117 -20.003771 31.27124
15160000000 -25.059109 129.38113 -56.587318 -124.69411 -59.518269 -149.23926 -20.0014 34.782261
15170000000 -24.113394 131.96083 -54.077747 -154.9189 -58.291534 -167.70131 -19.768366 38.886261
15180000000 -23.252491 128.31766 -53.675102 162.61432 -58.175579 154.53325 -19.556194 43.186531
15190000000 -22.959543 125.34167 -55.905243 133.961 -60.278591 138.91217 -19.426939 47.663071
15200000000 -23.420576 122.40681 -59.92469 126.44414 -63.163918 150.46086 -19.253645 51.416534
15210000000 -23.622122 121.22124 -55.550434 135.66264 -56.683048 154.63492 -19.074184 53.909504
15220000000 -24.484894 123.89935 -54.242149 107.0359 -54.358559 122.94299 -18.793821 55.071926
15230000000 -24.146851 127.83958 -52.563271 89.323914 -52.386646 99.635239 -18.355658 55.195419
15240000000 -23.938313 130.69038 -51.639668 62.667671 -51.889702 71.464226 -17.84243 54.415791
15250000000 -23.153351 128.94786 -50.501801 32.105503 -50.046459 44.671947 -17.293346 52.994431
15260000000 -22.73852 125.94681 -52.377422 9.5333233 -51.716923 15.113928 -16.779058 51.211407
15270000000 -22.597498 122.99787 -52.648014 -3.9861598 -51.074474 4.7381363 -16.301376 49.958084
15280000000 -22.458479 118.79884 -50.975166 -16.96826 -49.560181 -13.466954 -15.803521 49.544437
15290000000 -22.732981 116.89007 -49.696083 -42.917225 -48.446037 -41.530457 -15.343469 49.334209
15300000000 -22.823099 114.9988 -49.286907 -67.208199 -48.177155 -65.772621 -14.960455 49.024303
15310000000 -23.260092 115.40501 -49.363918 -91.417694 -48.060616 -91.500572 -14.670894 47.149086
15320000000 -23.075886 116.0861 -48.733776 -111.21768 -48.135735 -111.72301 -14.551501 44.353676
15330000000 -23.141708 116.56547 -48.16127 -137.78841 -47.165455 -136.71556 -14.486898 41.081657
15340000000 -22.937569 113.94353 -48.445976 -162.83397 -47.418686 -165.74927 -14.404146 38.074375
15350000000 -23.1798 115.99249 -48.989105 173.37404 -47.785572 171.54402 -14.198801 35.448704
15360000000 -22.705605 111.11806 -48.92482 159.66536 -48.326218 155.11871 -14.01904 32.980312
15370000000 -23.129341 110.52294 -48.392265 137.90245 -47.938911 134.9805 -13.814933 29.831381
15380000000 -22.518091 104.56242 -47.665493 116.49482 -46.750931 111.2264 -13.675666 25.882797
15390000000 -23.521528 99.984001 -47.895866 89.726471 -47.268108 82.781204 -13.513001 21.962885
15400000000 -23.905613 96.954132 -47.925987 69.957268 -47.552711 61.64679 -13.350789 18.40963
15410000000 -24.71829 98.367836 -47.95628 46.922932 -47.680973 40.524128 -13.25054 16.004812
15420000000 -25.063232 97.217079 -47.873985 28.80299 -47.955555 18.617498 -13.282425 14.091965
15430000000 -25.370626 102.5125 -47.744675 8.5724468 -48.108631 2.6849477 -13.429139 11.864583
15440000000 -24.802525 100.1384 -47.195644 -15.31729 -47.392269 -24.267588 -13.639187 7.885335
15450000000 -24.948503 99.279358 -47.916603 -39.450294 -48.246639 -47.574997 -13.857952 2.1040814
15460000000 -24.762373 92.100037 -47.68 -57.30386 -48.518711 -66.445259 -14.023875 -4.1344876
15470000000 -25.8008 88.660118 -47.069351 -77.507393 -48.488033 -83.872101 -14.070645 -9.4859209
15480000000 -26.256468 81.681 -47.030529 -100.64101 -48.303734 -102.85236 -14.12396 -13.439837
15490000000 -28.07675 82.022255 -46.921959 -126.05212 -48.066807 -127.09146 -14.222039 -17.050684
15500000000 -28.653095 80.8237 -47.565285 -146.59067 -48.53965 -144.79886 -14.432314 -21.016897
15510000000 -29.573864 84.40567 -46.908386 -164.03911 -47.982086 -166.03891 -14.720261 -25.553442
15520000000 -30.191742 81.021637 -47.123291 172.65831 -48.188316 174.41788 -15.054827 -30.737265
15530000000 -30.594309 88.802544 -47.010609 148.66869 -48.203625 154.45992 -15.467864 -35.965813
15540000000 -30.836452 79.210159 -47.069931 133.67371 -47.660728 139.35542 -16.023941 -41.312126
15550000000 -32.210407 87.660309 -46.555733 108.35184 -46.83744 115.68162 -16.665981 -47.56638
15560000000 -32.705482 76.565178 -46.752945 88.307671 -47.040909 94.353928 -17.301601 -55.016788
15570000000 -34.601208 82.986427 -46.299065 64.707458 -46.114742 69.132675 -17.799349 -64.066078
15580000000 -36.413994 61.651829 -46.273399 43.275475 -46.060387 46.798134 -18.078274 -73.81295
15590000000 -41.48077 78.825302 -46.09306 17.73704 -45.878925 22.437719 -18.201845 -83.004906
15600000000 -46.654144 20.669037 -46.231533 -4.1559138 -46.009464 1.5990641 -18.358973 -91.456367
15610000000 -45.450264 -150.99748 -46.388836 -26.649939 -46.191818 -22.384731 -18.588024 -99.034904
15620000000 -44.793552 -133.93729 -46.097828 -50.79414 -45.380127 -45.91518 -19.001266 -106.72269
15630000000 -37.282101 -160.06413 -47.008507 -76.784462 -46.17347 -73.041016 -19.443991 -115.6452
15640000000 -41.816006 -165.88924 -47.84013 -95.625381 -46.577858 -91.494637 -19.863565 -126.38022
15650000000 -37.952404 -156.24712 -47.649307 -110.84748 -46.590839 -109.86795 -19.922192 -138.48372
15660000000 -40.127949 -134.27324 -47.290741 -136.31682 -46.025574 -134.2672 -19.534788 -150.44801
15670000000 -35.084976 -135.80963 -47.708412 -159.79196 -46.037064 -157.83818 -18.840891 -160.53215
15680000000 -33.061523 -120.90846 -48.5196 178.72797 -46.511417 175.05013 -18.166887 -168.5517
15690000000 -29.968603 -135.97852 -48.953342 162.58493 -47.294086 153.13022 -17.706387 -175.23782
15700000000 -29.030964 -136.79686 -49.117737 142.39674 -47.500648 132.2814 -17.397203 178.33717
15710000000 -28.088583 -146.63869 -49.221798 123.98276 -48.182842 112.37939 -17.072329 172.2325
15720000000 -27.929878 -145.9938 -49.482796 103.49753 -48.476624 90.943764 -16.624601 166.05823
15730000000 -27.677034 -148.63872 -49.605469 85.62542 -48.913948 70.087906 -16.185371 160.5352
15740000000 -27.346966 -145.54578 -49.143333 69.695847 -49.044613 53.799973 -15.822012 155.29074
15750000000 -26.924488 -148.85237 -48.713192 43.550526 -48.894333 29.082474 -15.560406 149.86917
15760000000 -26.726114 -144.51958 -49.255459 24.425198 -50.137581 4.4829354 -15.278168 144.1799
15770000000 -26.066784 -145.57384 -49.620316 4.4371839 -51.668346 -13.189638 -14.834082 138.5589
15780000000 -25.381224 -143.92677 -49.631748 -11.564919 -52.248158 -18.995214 -14.252956 133.92842
15790000000 -24.54011 -146.65092 -49.111389 -27.905527 -51.207996 -30.012501 -13.671518 130.733
15800000000 -23.702879 -147.5341 -48.329269 -51.040939 -50.646454 -52.052406 -13.249479 128.55083
15810000000 -22.989866 -153.13954 -48.596241 -69.199799 -50.937202 -67.675438 -13.038958 126.67219
15820000000 -23.109325 -156.15828 -47.777874 -91.143379 -49.953133 -84.479828 -12.956806 124.30019
15830000000 -23.08358 -157.84303 -47.144051 -115.47343 -48.737495 -106.66308 -12.892146 120.88113
15840000000 -23.570339 -155.55635 -47.462177 -137.7433 -48.650639 -127.09721 -12.793166 116.91111
15850000000 -23.31687 -153.42618 -47.381081 -157.4767 -48.305988 -148.59277 -12.612947 113.07097
15860000000 -22.921326 -147.11316 -46.805321 178.76851 -47.800041 -170.22932 -12.372481 109.55613
15870000000 -21.918917 -149.44746 -47.172573 156.12802 -46.793812 170.78207 -12.109854 106.4782
15880000000 -21.557507 -150.51448 -47.046234 135.29132 -46.667336 143.83163 -11.854794 103.5171
15890000000 -21.029585 -155.04539 -46.960106 109.9566 -46.66156 120.72264 -11.615797 100.71046
15900000000 -21.334951 -158.08777 -46.764675 86.865379 -46.036869 98.344467 -11.379348 98.287788
15910000000 -21.328138 -159.07924 -47.439178 61.853245 -45.922901 72.756401 -11.181616 96.089012
15920000000 -21.338509 -157.49223 -48.162571 40.087944 -46.309406 46.932644 -11.023038 94.179535
15930000000 -20.959042 -156.53722 -49.144203 19.531876 -46.978096 24.846935 -10.943542 92.264099
15940000000 -20.65571 -154.64127 -49.646332 6.2090096 -47.59771 5.5449505 -10.896116 90.260719
15950000000 -20.049007 -155.26634 -48.61964 -12.340383 -46.924587 -12.026015 -10.868518 87.971031
15960000000 -19.868574 -155.04987 -48.671841 -39.425583 -46.63438 -39.824192 -10.846241 85.386856
15970000000 -19.488176 -155.28955 -49.816704 -57.928139 -47.010349 -62.729904 -10.804439 82.435257
15980000000 -19.466822 -154.89955 -50.293549 -73.677505 -47.96447 -87.617302 -10.722837 79.336494
15990000000 -19.056351 -153.66008 -50.151047 -88.242752 -48.824726 -105.93105 -10.594133 76.349869
16000000000 -18.822285 -154.54341 -49.65369 -107.28741 -48.859024 -122.09123 -10.440505 73.875473
16010000000 -18.389788 -155.69583 -49.672512 -126.14993 -48.962273 -143.81114 -10.283772 72.1101
16020000000 -18.451675 -157.99219 -49.208256 -141.19971 -49.401905 -162.16389 -10.168499 70.36602
16030000000 -18.354897 -156.98695 -48.326763 -163.07721 -49.555359 178.8658 -10.175375 68.466644
16040000000 -18.217018 -156.30312 -47.715775 176.17084 -49.677197 163.81752 -10.252069 66.234001
16050000000 -17.745426 -155.0925 -47.585537 153.69554 -48.872276 146.01173 -10.337547 63.62122
16060000000 -17.237545 -153.92645 -47.130497 130.3795 -49.14299 120.88106 -10.370803 60.819237
16070000000 -16.557844 -154.76907 -46.995972 107.08823 -49.66523 103.24961 -10.37286 58.133121
16080000000 -16.124269 -156.81715 -46.960571 88.794815 -49.172909 89.174263 -10.386147 55.474747
16090000000 -15.919847 -158.73123 -46.783859 64.741745 -48.84256 69.517258 -10.443692 52.790485
16100000000 -15.96143 -160.22678 -45.942921 44.640781 -47.711273 51.278458 -10.513968 49.800236
16110000000 -16.014915 -159.32481 -46.172394 17.368498 -47.429295 25.721661 -10.548669 46.492191
16120000000 -15.797295 -157.65903 -45.946991 -1.5982513 -47.288776 6.4467688 -10.538768 43.499077
16130000000 -15.250807 -157.53456 -45.586754 -28.290392 -46.300846 -15.825805 -10.504944 41.32111
16140000000 -14.864292 -157.81898 -46.59655 -54.270294 -46.879974 -42.509212 -10.520666 39.891052
16150000000 -14.313918 -160.3149 -47.196934 -71.103653 -46.951393 -61.357468 -10.653049 38.119808
16160000000 -14.104586 -162.01701 -47.232758 -88.601234 -47.0401 -77.821915 -10.971379 35.630333
16170000000 -13.785943 -163.67145 -46.548283 -109.31086 -45.900314 -98.347092 -11.3511 32.129673
16180000000 -13.663213 -164.25952 -46.479454 -135.05814 -45.129482 -126.96246 -11.689952 28.150032
16190000000 -13.376183 -164.53397 -46.991604 -159.61621 -45.921577 -152.22487 -11.871958 24.194246
16200000000 -13.174818 -164.67052 -47.632046 178.2128 -45.857361 -175.23189 -12.024578 20.480743
16210000000 -12.79072 -165.55423 -48.690922 162.32938 -46.650574 162.99127 -12.289618 16.954113
16220000000 -12.696015 -166.04228 -48.383762 143.87419 -46.865135 143.23911 -12.664196 13.659791
16230000000 -12.376768 -167.26422 -48.826958 126.00275 -46.854603 126.79378 -13.041136 10.131937
16240000000 -12.288567 -167.37718 -48.304279 110.52421 -46.289951 103.82747 -13.373755 6.3779583
16250000000 -11.950588 -168.8362 -47.761089 90.700867 -46.347115 81.156738 -13.708259 3.2895548
16260000000 -11.685494 -169.6946 -47.204582 66.686188 -46.141151 56.80991 -14.173111 0.68877476
16270000000 -11.266888 -172.00336 -47.649357 49.459408 -47.185143 35.789642 -14.90749 -1.7236158
16280000000 -11.126715 -174.5769 -47.481956 27.436005 -46.923389 16.713232 -15.842199 -4.713429
16290000000 -10.983923 -176.1792 -47.362148 12.452059 -47.250809 -3.3235481 -16.94751 -9.8560505
16300000000 -10.983436 -177.22359 -46.679535 -10.322771 -47.383831 -21.324203 -18.041786 -16.314144
16310000000 -10.807817 -176.85725 -46.337669 -33.220348 -47.262074 -40.402012 -18.983175 -23.029486
16320000000 -10.6046 -176.35416 -46.21619 -52.151768 -47.175697 -60.227924 -19.854004 -30.008444
16330000000 -10.14611 -176.56277 -45.640816 -75.821457 -46.523643 -81.353539 -21.156284 -36.71349
16340000000 -9.8473549 -177.9409 -45.389568 -96.61026 -46.47279 -102.67533 -22.619646 -44.386646
16350000000 -9.5040369 179.71144 -44.886223 -122.03431 -46.282997 -126.313 -24.531076 -54.629414
16360000000 -9.4929008 176.88647 -45.062992 -145.53743 -46.450581 -145.32225 -26.836161 -64.523666
16370000000 -9.4966602 175.19603 -45.316109 -166.77393 -45.981323 -165.71906 -29.299088 -80.183083
16380000000 -9.5859375 173.94739 -45.19376 172.02176 -45.970192 172.09946 -32.372204 -111.83316
16390000000 -9.4885902 174.12849 -44.857254 151.61899 -45.673286 152.58896 -30.785061 -158.6924
16400000000 -9.2424278 173.96515 -44.642345 128.62598 -45.838211 131.84132 -27.015057 177.22546
16410000000 -8.8753157 173.14403 -44.576096 104.8953 -45.175728 110.70239 -24.401667 168.08308
16420000000 -8.5874043 171.83142 -44.979145 82.140518 -44.905209 86.20739 -22.633419 161.97011
16430000000 -8.2981157 170.08334 -44.664127 62.444221 -44.76318 64.903725 -21.519543 156.38037
16440000000 -8.2129021 168.29965 -44.673672 37.287731 -44.966606 40.476376 -20.373837 150.13608
16450000000 -8.1428814 167.09804 -45.004787 15.40097 -45.074589 20.558865 -19.337175 144.3007
16460000000 -8.1311274 166.44116 -44.933289 -4.9510026 -44.608105 -0.4790062 -18.365255 139.78445
16470000000 -8.0132141 165.87122 -44.899925 -29.403418 -44.406029 -23.869566 -17.606298 135.71638
16480000000 -7.9235678 164.97894 -45.104446 -48.966381 -44.544891 -46.522327 -16.947174 131.1985
16490000000 -7.7597342 164.05673 -45.118275 -70.402855 -44.570953 -68.630913 -16.326962 126.30539
16500000000 -7.6470871 163.06366 -44.893764 -92.859589 -44.232964 -89.367882 -15.495814 122.17825
16510000000 -7.4220624 161.84277 -45.083538 -115.14721 -44.087387 -114.87142 -14.638875 118.66773
16520000000 -7.2917137 160.99716 -45.178627 -137.54141 -44.405289 -138.76814 -14.013112 116.93408
16530000000 -6.9989924 159.48959 -45.454445 -156.88193 -44.746494 -157.72382 -13.603029 115.90765
16540000000 -6.906023 158.37984 -45.278294 -179.26115 -44.407722 178.40976 -13.366643 113.97373
16550000000 -6.7259226 156.96875 -45.517746 159.18513 -44.493088 155.76422 -13.220742 110.83883
16560000000 -6.7106915 156.07925 -45.286922 138.15117 -44.573132 134.05022 -12.98684 107.19425
16570000000 -6.6105847 155.25583 -45.340191 114.93745 -44.688957 110.17859 -12.641269 103.86878
16580000000 -6.5874004 155.15886 -45.558876 93.778473 -44.94442 86.793465 -12.257681 101.10645
16590000000 -6.3794141 154.65402 -45.301708 72.194435 -45.042416 66.239639 -11.971115 98.582092
16600000000 -6.2032609 153.89822 -45.424805 49.681461 -45.118435 43.315754 -11.776449 96.041061
16610000000 -5.9335546 152.45428 -45.619423 29.080845 -45.472065 22.673742 -11.551871 93.266167
16620000000 -5.7894778 150.61801 -45.44091 6.9012628 -45.332283 -0.15167984 -11.258492 90.566719
16630000000 -5.6378098 148.83296 -45.567963 -16.089817 -45.633606 -22.770292 -10.909092 88.699471
16640000000 -5.5997019 147.51013 -45.495895 -37.165733 -45.730389 -43.385006 -10.590351 87.399651
16650000000 -5.4810829 146.70151 -45.779476 -60.195522 -46.144333 -66.980965 -10.449137 86.130127
16660000000 -5.3749352 146.24089 -45.856171 -78.683647 -46.411667 -84.0905 -10.45872 84.673058
16670000000 -5.1488223 145.83046 -45.473019 -101.81242 -46.311218 -106.65549 -10.528128 82.188644
16680000000 -4.9525352 144.97395 -45.35202 -125.95262 -46.249439 -128.31871 -10.488447 78.984253
16690000000 -4.717792 143.80951 -45.594177 -149.33026 -46.159023 -151.1291 -10.334822 75.280136
16700000000 -4.5911551 142.3284 -46.209057 -172.99109 -46.621574 -175.34789 -10.15399 72.201859
16710000000 -4.4383249 140.83263 -46.19072 166.82434 -47.069572 164.67946 -9.9559727 70.118858
16720000000 -4.3804541 139.47723 -46.216988 146.19926 -47.432491 146.66425 -9.7726803 68.521515
16730000000 -4.2402701 138.25804 -46.297779 121.34961 -47.078629 126.01162 -9.6305485 66.726471
16740000000 -4.1253071 137.09769 -46.583824 100.02613 -46.954662 104.06152 -9.5484781 64.774467
16750000000 -3.9562142 135.90683 -46.562298 77.352234 -46.890919 80.484039 -9.4884615 62.892555
16760000000 -3.8058875 134.69324 -47.114513 55.019032 -47.495892 59.317856 -9.4584818 61.008526
16770000000 -3.6179254 133.41826 -47.427002 33.1007 -47.439404 38.255615 -9.4601421 59.159752
16780000000 -3.4808941 132.14729 -47.415264 11.052958 -47.11372 17.656109 -9.5011654 57.038822
16790000000 -3.3291278 130.7897 -47.956848 -11.005401 -47.407494 -6.7530575 -9.5528975 54.311604
16800000000 -3.2182703 129.50978 -47.587017 -31.349083 -47.150391 -29.836132 -9.5687103 51.028252
16810000000 -3.0752754 128.10716 -48.162403 -56.479694 -47.671928 -51.650723 -9.5437803 47.556004
16820000000 -2.9784048 126.55357 -49.162579 -76.083862 -47.911625 -73.209373 -9.4538517 44.176098
16830000000 -2.8613279 124.94297 -49.052711 -94.453682 -48.044491 -96.016975 -9.3411827 41.284462
16840000000 -2.7736721 123.50975 -49.280571 -112.86758 -48.421127 -115.70865 -9.2187042 38.968227
16850000000 -2.6432931 122.01751 -48.780449 -134.16142 -47.991898 -137.54393 -9.1217346 37.209358
16860000000 -2.5266812 120.60237 -49.065819 -160.35008 -48.319176 -162.56258 -9.0682354 35.71434
16870000000 -2.377701 119.1488 -49.369541 177.69481 -48.619736 173.00468 -9.1002455 34.085751
16880000000 -2.2561402 117.7431 -50.294189 155.5881 -49.484959 151.62279 -9.2393017 32.021435
16890000000 -2.1225958 116.25278 -50.20042 140.98033 -49.659233 133.29164 -9.4071245 29.30434
16900000000 -2.0296571 114.9091 -50.251171 120.00371 -49.865059 111.33363 -9.5500126 25.725407
16910000000 -1.9255686 113.39241 -49.983765 99.079651 -49.808723 88.747368 -9.6269569 21.714033
16920000000 -1.8661261 111.97441 -49.863663 76.160728 -50.351852 65.505951 -9.6251297 17.807819
16930000000 -1.7824093 110.50023 -49.968533 51.107491 -50.266674 45.177002 -9.5847607 14.328166
16940000000 -1.7093788 109.00325 -50.653194 27.344501 -50.897465 20.379766 -9.5325336 11.047441
16950000000 -1.6118416 107.35627 -50.774849 9.1684885 -51.598438 3.091486 -9.5549364 7.974124
16960000000 -1.5288637 105.70966 -50.581295 -15.049332 -51.740326 -20.346842 -9.6210642 4.9624815
16970000000 -1.4262251 104.067 -51.081024 -37.861389 -51.984486 -38.467964 -9.7268658 2.0859797
16980000000 -1.3430978 102.43671 -51.341908 -59.624615 -51.990116 -61.281326 -9.8598661 -0.97057235
16990000000 -1.2445157 100.83372 -51.679752 -83.806862 -52.463795 -84.512337 -10.042269 -4.3355479
17000000000 -1.1696377 99.306 -52.489941 -105.2368 -53.296379 -104.45674 -10.246856 -8.1713476
