!Keysight Technologies,P9374A,MY57211807,A.19.30.04
!Date: Friday, May 08, 2026 14:28:59
!Correction: S11(C  2-Port  ) 
!S21(C  2-Port  ) 
!S12(C  2-Port  ) 
!S22(C  2-Port  ) 
!S2P File: Measurements: S11, S21, S12, S22:
# Hz S  dB   R 50
13000000000 -18.912432 59.981438 -39.296909 104.71637 -40.320129 101.27146 -12.398052 -82.990929
13010000000 -18.858536 59.834656 -39.021637 81.019814 -40.008888 80.598488 -12.782214 -86.235107
13020000000 -19.101952 59.681919 -38.893036 59.354729 -39.787045 60.83707 -13.202374 -89.648323
13030000000 -19.315985 60.360649 -38.877602 33.948948 -39.592598 35.992577 -13.668749 -93.350952
13040000000 -19.861658 60.157104 -39.215801 13.551287 -39.67384 15.672532 -14.218692 -97.367683
13050000000 -20.024311 63.667908 -39.273434 -11.904764 -39.731731 -8.2896509 -14.814318 -101.84502
13060000000 -20.079466 64.835472 -39.541672 -32.660225 -39.856167 -29.208851 -15.416196 -106.9557
13070000000 -19.871635 65.427216 -39.872631 -53.225681 -40.156239 -49.920181 -15.905968 -112.71624
13080000000 -19.595015 64.811546 -39.529148 -73.267624 -39.643394 -69.163239 -16.289579 -118.61329
13090000000 -19.252722 61.456696 -39.242756 -98.488586 -39.267395 -94.443489 -16.677801 -124.46326
13100000000 -19.493008 60.033142 -39.76841 -123.49837 -39.731304 -117.71908 -17.194334 -130.41283
13110000000 -19.426727 58.750828 -40.166645 -144.81456 -39.847095 -139.18817 -17.855169 -136.69899
13120000000 -19.970901 59.337933 -40.992886 -166.46524 -40.044369 -161.70993 -18.51856 -144.28014
13130000000 -19.70249 60.883953 -40.796459 178.49599 -39.961067 179.65825 -18.930338 -152.9758
13140000000 -19.763309 64.005569 -40.231346 157.24483 -39.568279 157.55917 -19.09635 -162.36601
13150000000 -19.215088 62.634113 -39.959595 131.00505 -39.304489 131.88367 -19.225698 -171.93779
13160000000 -19.411201 62.926991 -40.809532 106.23599 -39.933716 107.28663 -19.423447 178.51981
13170000000 -19.076479 61.001759 -41.261162 88.345833 -40.341881 87.332451 -19.506109 167.91003
13180000000 -19.308973 58.350048 -41.443363 69.338501 -40.389114 68.019684 -19.26708 156.39284
13190000000 -19.344902 57.343502 -40.953762 49.649105 -39.923382 45.498047 -18.645849 146.0298
13200000000 -19.486889 55.856155 -40.506458 26.353943 -39.741531 22.294254 -17.88077 137.77351
13210000000 -19.37723 55.715351 -40.512104 2.3903522 -39.765442 -2.4396651 -17.26811 131.17715
13220000000 -19.291466 54.357639 -40.486481 -18.61865 -39.966755 -25.50313 -16.85178 124.66895
13230000000 -19.216583 52.442108 -40.717403 -44.708149 -40.354931 -51.454056 -16.427795 117.50136
13240000000 -19.559986 52.221031 -41.024479 -65.243835 -40.905106 -72.407837 -15.82665 109.74709
13250000000 -19.375782 52.694912 -41.380966 -84.923897 -41.511829 -91.496117 -15.016617 102.51649
13260000000 -19.4939 52.921841 -40.848984 -106.34814 -41.096268 -112.27103 -14.190328 96.983162
13270000000 -19.229942 52.685379 -41.048592 -129.57802 -41.194324 -135.27652 -13.492425 92.819107
13280000000 -19.075905 50.476654 -41.003063 -153.75763 -41.316978 -160.88641 -12.957223 88.82074
13290000000 -19.152023 47.468704 -40.996601 -176.93271 -41.618153 177.43484 -12.551448 84.389046
13300000000 -19.114317 43.907528 -41.50745 160.18468 -42.219692 155.17123 -12.147834 79.41658
13310000000 -19.694342 39.121952 -41.960983 138.51239 -42.775425 134.14096 -11.648912 74.335464
13320000000 -20.147989 39.035305 -41.724697 117.33074 -42.842327 114.43172 -11.103734 69.884773
13330000000 -20.535383 39.421303 -41.74535 90.938919 -42.623924 90.449577 -10.601296 66.164597
13340000000 -20.404022 42.775444 -42.521358 64.965317 -43.399582 65.082886 -10.182971 62.69928
13350000000 -20.076151 42.151993 -43.766712 46.040806 -44.548161 46.204708 -9.854949 58.946228
13360000000 -19.580339 41.643059 -43.715034 30.028288 -44.579704 31.05266 -9.5677824 54.445621
13370000000 -19.464493 36.518402 -43.39481 7.9305148 -44.238766 11.777627 -9.2395487 49.701675
13380000000 -19.429153 32.240593 -43.614033 -17.542952 -44.146587 -12.835962 -8.8295746 45.293705
13390000000 -20.551773 26.995358 -44.452789 -42.903355 -44.87928 -38.935802 -8.4219103 41.268688
13400000000 -20.943562 29.242352 -45.561001 -64.53582 -46.004566 -59.689556 -8.0662756 37.997932
13410000000 -21.743986 26.976469 -46.456074 -80.04174 -46.556683 -72.86145 -7.7990937 34.868832
13420000000 -21.753895 31.715921 -46.768353 -98.737579 -46.348034 -93.215981 -7.6068544 31.202831
13430000000 -21.708515 28.1658 -47.082539 -118.64308 -46.592365 -112.8991 -7.4476547 27.029583
13440000000 -21.516546 28.383791 -47.892815 -138.38174 -47.01564 -131.94154 -7.3094182 22.613405
13450000000 -21.458227 25.51351 -48.120705 -150.83316 -47.149811 -148.769 -7.1289005 18.238493
13460000000 -21.256239 22.9034 -47.368809 -171.55067 -46.436699 -171.0078 -6.9129987 14.38131
13470000000 -22.107168 17.636902 -47.705112 161.31451 -47.011013 161.75424 -6.7367139 10.767044
13480000000 -22.118561 20.312113 -49.780121 137.36557 -48.894741 141.37607 -6.6064062 7.263535
13490000000 -22.899452 15.787805 -51.385647 138.8439 -49.339336 136.69621 -6.5304732 3.5553508
13500000000 -22.765375 17.538433 -49.459156 129.5117 -47.879025 119.43754 -6.5399485 -0.33777162
13510000000 -23.928104 14.093349 -48.138054 108.41419 -47.720558 97.011696 -6.5612993 -4.1588502
13520000000 -24.082197 16.951084 -47.821239 83.686234 -48.21471 75.936691 -6.5684257 -7.7546716
13530000000 -24.75242 15.728577 -47.844643 59.128998 -47.524017 57.881538 -6.5756874 -11.330557
13540000000 -24.442287 17.007669 -48.978428 44.044586 -47.802765 36.500107 -6.6030855 -14.997535
13550000000 -24.81715 16.883268 -48.189507 35.949352 -47.784451 24.488892 -6.6930981 -18.571735
13560000000 -23.806728 14.963189 -46.348793 10.141273 -47.183392 -0.38063768 -6.8146544 -22.310308
13570000000 -24.871031 11.40682 -46.803677 -11.265094 -47.634235 -15.677993 -6.9342513 -25.903133
13580000000 -24.198784 7.9362745 -46.358658 -36.005287 -46.899231 -39.929478 -7.0447321 -29.117125
13590000000 -26.29637 2.3639097 -46.706722 -52.649433 -47.697266 -56.606842 -7.1135888 -32.152821
13600000000 -26.681562 7.2661977 -46.16449 -68.021362 -47.099148 -71.209351 -7.1955929 -35.141655
13610000000 -28.689184 18.288177 -44.622551 -91.472885 -45.540894 -93.432976 -7.3646803 -38.008514
13620000000 -27.227842 23.600323 -44.532803 -118.23344 -45.335541 -119.59507 -7.5743732 -40.924168
13630000000 -27.408922 26.938433 -44.411156 -142.25447 -45.312172 -142.90862 -7.8051548 -43.878731
13640000000 -25.758167 20.480282 -44.956818 -164.7742 -45.890167 -165.42352 -8.0116005 -46.888203
13650000000 -26.682356 11.613535 -45.013016 175.1852 -45.966576 177.16824 -8.162632 -49.870876
13660000000 -26.548956 5.8062906 -44.580521 158.937 -45.482914 162.06712 -8.2890587 -52.724258
13670000000 -29.103348 0.041721765 -43.968601 134.27393 -44.770576 139.18488 -8.440155 -55.290688
13680000000 -30.042456 10.821692 -43.847141 111.21554 -44.211567 117.804 -8.6184025 -57.637066
13690000000 -30.150442 24.689989 -43.836323 86.037857 -43.728149 93.866714 -8.8311558 -59.850658
13700000000 -28.070515 30.467955 -43.963909 66.282387 -43.531048 70.17865 -9.0588017 -62.274265
13710000000 -27.223965 29.826771 -43.846279 40.200985 -43.90036 43.6982 -9.2815886 -64.900597
13720000000 -26.534683 21.66865 -44.684219 18.846645 -44.382839 24.043659 -9.4868937 -67.648567
13730000000 -27.806276 18.281286 -44.60841 -0.21699524 -44.129379 5.1184864 -9.6787996 -70.176598
13740000000 -27.863043 16.534657 -44.820816 -21.140041 -43.797749 -17.460131 -9.8605757 -72.53215
13750000000 -29.714371 15.542502 -44.852024 -37.824066 -43.850689 -38.037708 -10.094264 -74.75975
13760000000 -29.390039 23.289223 -44.027149 -59.367085 -43.032444 -61.172104 -10.355259 -77.050323
13770000000 -29.363806 22.757313 -43.811172 -85.174126 -43.244381 -86.53096 -10.607851 -79.783974
13780000000 -28.715036 19.305532 -44.071663 -109.0759 -43.499981 -109.65767 -10.844913 -82.937424
13790000000 -28.541773 17.373634 -44.686501 -130.05707 -44.025513 -132.48967 -11.027857 -86.011612
13800000000 -28.884264 13.192069 -44.763973 -145.50443 -43.987041 -148.81755 -11.169374 -88.488258
13810000000 -28.342257 19.137352 -43.951107 -167.66994 -43.20689 -173.32419 -11.319786 -90.347855
13820000000 -27.393234 12.091993 -44.18779 168.96251 -43.845577 162.68718 -11.508992 -91.997475
13830000000 -27.378 14.658139 -44.162052 148.18867 -44.076382 143.28134 -11.776545 -94.157051
13840000000 -26.464266 2.875505 -44.025352 126.63123 -44.108124 122.29299 -12.07443 -96.922928
13850000000 -27.79558 -0.74159151 -44.008549 104.83527 -43.695026 100.63278 -12.34424 -100.17578
13860000000 -28.193405 -6.9682617 -43.667023 83.477791 -43.615627 75.529739 -12.579185 -103.31609
13870000000 -29.84551 -6.6703525 -43.985199 60.790257 -44.517368 53.802799 -12.724038 -106.00986
13880000000 -31.126114 -3.6728835 -43.368252 38.686039 -44.246246 35.501865 -12.893244 -108.67833
13890000000 -29.357538 12.197533 -43.912064 12.751553 -44.399208 12.95111 -13.132553 -111.58865
13900000000 -27.776207 -1.2933098 -44.219959 -7.7419796 -44.438648 -9.7517433 -13.406979 -114.60462
13910000000 -27.371943 -2.2762794 -44.282047 -25.189425 -44.696308 -28.086178 -13.6041 -117.98885
13920000000 -26.242826 -16.058327 -43.530468 -47.437939 -44.160946 -50.318634 -13.730238 -121.60951
13930000000 -27.264559 -29.640835 -43.589672 -75.19416 -44.67638 -75.065369 -13.851949 -124.78674
13940000000 -28.508558 -38.166443 -44.236275 -96.765877 -44.69376 -94.819893 -14.034062 -127.73761
13950000000 -30.473997 -45.161167 -44.173214 -118.46993 -44.596409 -117.12289 -14.316161 -130.27573
13960000000 -32.737892 -44.638634 -44.554794 -139.03549 -44.875553 -135.57092 -14.62362 -133.47481
13970000000 -32.944397 -26.649817 -44.41029 -161.00157 -44.635563 -158.58606 -14.91842 -137.82101
13980000000 -30.995745 -30.490273 -44.752853 175.2457 -45.11874 179.16473 -15.144758 -143.04442
13990000000 -29.088345 -37.316864 -45.092945 154.4095 -45.022499 159.94623 -15.275929 -148.5614
14000000000 -28.200788 -55.134495 -45.043156 133.75275 -44.642216 136.98866 -15.284612 -153.64214
14010000000 -27.951099 -61.940601 -45.449318 112.3801 -45.23917 113.06976 -15.241063 -158.47475
14020000000 -27.901829 -71.927399 -45.478428 90.348579 -45.362373 92.223465 -15.203179 -163.18114
14030000000 -28.245081 -78.623993 -46.019314 69.509583 -45.77977 73.087234 -15.235241 -167.81485
14040000000 -29.789545 -84.946953 -46.178123 45.894821 -45.41301 51.349651 -15.254641 -172.46008
14050000000 -29.925861 -79.263329 -46.868351 30.512651 -45.419128 30.994255 -15.203834 -177.29909
14060000000 -30.933966 -84.694405 -46.589725 11.22253 -45.506088 10.060564 -15.143193 177.64458
14070000000 -30.712061 -81.352165 -46.117962 -11.594642 -45.287224 -14.136662 -15.064222 172.57025
14080000000 -30.919273 -97.403816 -46.141895 -35.909073 -45.694077 -38.400726 -14.99329 167.89346
14090000000 -32.162968 -91.421158 -47.178692 -55.352795 -45.9314 -58.07029 -14.928233 163.0235
14100000000 -30.311726 -101.93241 -47.081203 -70.633217 -46.134602 -78.001999 -14.867693 157.83049
14110000000 -29.709452 -104.02228 -46.326382 -90.598984 -46.204826 -99.901314 -14.737225 152.27646
14120000000 -28.261127 -117.09282 -46.236511 -117.244 -46.638622 -122.95367 -14.511216 146.40343
14130000000 -27.742132 -124.1647 -46.736023 -135.83743 -46.501812 -139.94002 -14.191605 140.8224
14140000000 -27.314068 -136.34026 -46.515621 -159.13707 -46.509056 -163.12595 -13.837985 136.0508
14150000000 -28.575447 -142.05035 -47.134243 -179.76434 -46.776642 175.90698 -13.549277 131.43585
14160000000 -28.585745 -147.79668 -46.55547 163.55138 -46.607334 153.70117 -13.340475 126.75278
14170000000 -31.096519 -149.73582 -46.187744 138.15424 -46.80949 131.38103 -13.164976 121.86987
14180000000 -31.121344 -138.80983 -46.467224 111.37035 -47.236626 107.99738 -12.895687 116.61188
14190000000 -29.963415 -134.618 -47.56319 91.803398 -48.037762 88.725945 -12.522509 111.41685
14200000000 -27.847101 -137.72784 -47.872746 77.821014 -48.183361 71.464981 -12.095404 106.50521
14210000000 -26.811831 -148.67761 -46.752308 58.983929 -47.795837 53.534878 -11.728547 102.04353
14220000000 -26.20994 -158.60696 -46.35651 32.530537 -47.429447 30.380867 -11.436292 97.907097
14230000000 -26.375229 -169.92212 -46.702358 4.6019773 -47.877171 6.2526379 -11.197256 93.875259
14240000000 -27.339022 -173.43521 -47.813358 -15.821389 -47.79073 -15.105116 -10.92302 89.701637
14250000000 -27.952446 -175.66344 -48.123486 -32.650692 -48.703579 -37.563732 -10.607313 85.17469
14260000000 -28.973873 -174.17838 -47.714622 -50.957539 -49.130241 -54.316391 -10.316012 80.595078
14270000000 -29.144243 -163.61057 -47.247871 -72.50882 -48.883442 -68.441505 -10.067069 76.318222
14280000000 -28.300364 -164.29729 -47.080681 -99.836464 -47.982536 -94.967041 -9.8650074 72.08419
14290000000 -27.157127 -165.89763 -48.19862 -124.44694 -48.903095 -117.56303 -9.6724672 67.729294
14300000000 -27.128847 -173.91495 -49.08688 -137.83789 -49.430664 -131.23842 -9.4581614 63.089714
14310000000 -27.159548 -178.5661 -48.006824 -155.95389 -48.496078 -150.37755 -9.2017727 58.237362
14320000000 -27.49358 175.05513 -48.11269 179.41296 -48.41111 -171.89497 -8.9442587 53.494881
14330000000 -27.266102 176.47031 -47.035858 155.50862 -47.263756 165.28255 -8.7024355 49.116852
14340000000 -27.695852 169.50444 -48.586926 124.51456 -47.84444 135.78986 -8.5203676 45.063648
14350000000 -27.91053 174.25529 -50.162132 101.5413 -49.19519 110.86905 -8.3903418 41.168251
14360000000 -28.516888 172.41882 -50.782764 98.495575 -49.058941 106.28831 -8.2893257 37.019531
14370000000 -28.226667 177.50241 -49.64806 78.028946 -48.131115 81.522949 -8.2268181 32.253418
14380000000 -28.263788 175.51108 -49.063267 53.605236 -47.5047 58.15152 -8.1815758 27.245544
14390000000 -28.029018 177.84738 -49.236179 27.762047 -47.14135 28.862854 -8.1367626 22.37356
14400000000 -28.015671 176.29311 -50.110397 5.5294981 -48.23806 1.807198 -8.0653324 17.661924
14410000000 -27.381929 176.42834 -51.394291 -7.0888987 -49.403416 -15.929953 -7.9814496 13.249861
14420000000 -27.012367 169.35976 -50.162384 -24.438457 -48.792805 -31.547617 -7.9316669 8.7428083
14430000000 -27.373053 162.39088 -49.866207 -49.964664 -48.495033 -58.412422 -7.9616156 4.1913176
14440000000 -28.849781 163.21063 -49.85133 -76.97953 -48.812847 -81.804321 -8.0417356 -0.29306662
14450000000 -28.689098 171.90987 -51.289032 -89.170181 -49.475159 -104.82654 -8.1532965 -4.7679005
14460000000 -28.462572 175.5235 -50.670174 -110.06491 -50.02264 -125.18518 -8.2729664 -9.2530508
14470000000 -27.691292 178.96355 -50.029812 -127.95942 -50.067928 -139.73271 -8.3984146 -13.821241
14480000000 -26.762846 -177.0764 -50.200344 -157.92285 -49.901833 -171.05074 -8.6194124 -18.693233
14490000000 -26.284895 177.3488 -50.831944 -174.15454 -51.487923 170.17361 -8.8931742 -23.526468
14500000000 -25.918739 175.71164 -50.041187 161.76396 -50.550556 150.21426 -9.162879 -28.692751
14510000000 -26.457973 166.91241 -50.312798 137.93813 -50.761051 127.73254 -9.3818769 -34.096176
14520000000 -28.175112 172.49512 -50.279606 115.96548 -51.282101 101.7091 -9.5713043 -39.417065
14530000000 -27.894789 175.18819 -50.514206 94.142715 -52.261021 81.847923 -9.7649574 -44.08564
14540000000 -27.139301 -172.74063 -51.810261 74.766815 -54.173309 63.528137 -10.043409 -48.105225
14550000000 -25.558758 179.56992 -50.597435 58.088158 -53.793003 57.603199 -10.412364 -51.893112
14560000000 -25.540718 -179.27841 -48.753162 31.718822 -50.44072 28.395798 -10.84303 -56.319286
14570000000 -24.38921 175.98463 -49.264057 -7.6618896 -51.131855 -10.989693 -11.347788 -61.64711
14580000000 -24.127895 174.70135 -51.256519 -40.640156 -53.994404 -40.665649 -11.875734 -67.548615
14590000000 -24.383818 166.37791 -55.546169 -62.089371 -61.282341 -55.912209 -12.385813 -73.099655
14600000000 -25.131485 173.35652 -55.019043 -52.587589 -57.236706 -26.234083 -12.828671 -78.371033
14610000000 -24.7118 174.02011 -51.470818 -75.112022 -52.731384 -57.447144 -13.280535 -83.896126
14620000000 -24.303911 179.89661 -50.435463 -121.24713 -51.923546 -104.10207 -13.788022 -90.146065
14630000000 -23.473089 174.64069 -52.886364 -168.42603 -55.815392 -154.43369 -14.319567 -96.722237
14640000000 -23.328127 174.52762 -60.978996 159.52676 -63.914288 -140.28429 -14.829461 -103.23077
14650000000 -22.964174 172.29326 -60.348492 -156.67015 -57.433102 -121.91561 -15.300746 -108.98861
14660000000 -22.264635 170.13304 -56.101707 167.50044 -53.827541 -165.41966 -15.789397 -114.20637
14670000000 -22.304646 165.53801 -55.393486 118.61237 -54.106434 152.78763 -16.371134 -120.3355
14680000000 -22.032507 163.1069 -57.667309 57.379646 -58.43623 97.7938 -17.107922 -128.02528
14690000000 -22.561134 162.65712 -65.990959 -15.328808 -69.745949 134.12306 -17.899643 -137.43898
14700000000 -21.959698 164.62115 -68.028671 -137.84422 -60.213474 150.07579 -18.509087 -147.81607
14710000000 -21.918642 162.78497 -64.001862 144.39742 -56.898499 104.76817 -18.833143 -158.00876
14720000000 -21.886707 161.5309 -62.001312 70.440094 -56.166866 60.602745 -18.793653 -167.26886
14730000000 -21.785269 163.62592 -65.986076 -48.792442 -59.007729 2.2669384 -18.585686 -176.74164
14740000000 -20.870695 160.97874 -65.014618 176.62865 -79.022232 -0.48967013 -18.47366 174.27692
14750000000 -20.662527 156.68423 -59.240444 143.40533 -67.976112 110.60387 -18.453617 166.26205
14760000000 -20.380253 150.82674 -55.089943 83.335693 -58.752411 53.704628 -18.580654 157.90593
14770000000 -21.077427 147.2787 -55.938244 27.256708 -58.419987 -10.930684 -18.778946 149.65475
14780000000 -20.742363 146.61896 -61.721024 -21.218521 -62.82378 -81.619987 -18.614206 141.80518
14790000000 -21.271875 145.76912 -63.640774 58.167271 -67.030441 114.4987 -17.993294 133.08485
14800000000 -20.867443 147.47815 -55.072998 21.153067 -58.206902 35.652534 -17.365435 124.22542
14810000000 -20.948034 148.13484 -52.743404 -31.219927 -55.174847 -29.089861 -16.95286 116.74069
14820000000 -20.144056 148.88943 -54.711571 -86.790215 -58.692791 -93.598289 -16.809706 111.20772
14830000000 -19.68519 145.18539 -58.815414 -95.070938 -64.976181 -66.138916 -16.550785 107.67541
14840000000 -19.568449 137.80742 -60.917587 -82.593384 -59.212147 -48.886513 -16.010983 103.26698
14850000000 -20.583218 133.51517 -56.403648 -95.388893 -55.758724 -80.412773 -15.509 97.640213
14860000000 -20.786545 133.45912 -54.199688 -130.10297 -54.522709 -117.31982 -15.184008 92.135963
14870000000 -21.392204 132.22137 -53.539185 -165.08995 -54.772266 -150.1302 -15.190276 87.208275
14880000000 -21.202381 132.03214 -56.657379 -178.09358 -55.512764 -152.64229 -15.329853 83.881393
14890000000 -21.432775 132.41606 -54.191486 162.3788 -52.377743 178.99666 -15.168118 80.062218
14900000000 -20.646282 131.78891 -55.808125 154.27863 -53.423477 157.85396 -14.737705 74.355698
14910000000 -20.351099 130.01845 -53.440048 130.81808 -51.736156 132.69608 -14.284464 67.992577
14920000000 -19.969902 123.0844 -53.540688 114.90672 -52.284248 116.4595 -13.993672 63.3036
14930000000 -20.739746 120.85381 -52.919914 95.416733 -51.120148 98.749947 -13.932289 60.353436
14940000000 -21.072542 119.63762 -51.835194 79.955093 -49.558506 78.036774 -14.006424 59.461094
14950000000 -21.507864 122.5901 -50.75256 61.464504 -48.775661 53.128441 -13.906369 57.830318
14960000000 -21.451746 119.44147 -48.588512 29.630604 -47.987083 19.95726 -13.816765 53.243397
14970000000 -22.48831 119.68408 -50.104263 11.330273 -47.426796 1.6623285 -13.914333 47.766754
14980000000 -22.643965 118.96401 -47.589844 -12.221461 -47.279606 -25.446436 -14.143321 43.616711
14990000000 -22.695467 125.34746 -47.002464 -43.982304 -47.73806 -48.064117 -14.375752 41.293629
15000000000 -22.008633 119.52209 -47.952751 -71.713409 -48.32518 -68.31723 -14.493003 39.64801
15010000000 -22.164015 118.02153 -49.850849 -86.335968 -47.352669 -84.757721 -14.447668 35.97007
15020000000 -22.224545 110.47097 -47.350422 -95.530762 -45.94252 -110.64798 -14.532747 30.043837
15030000000 -22.993301 112.39986 -44.940281 -120.80608 -45.753258 -136.14989 -14.735797 25.389973
15040000000 -23.098549 108.29684 -44.956589 -159.02655 -46.217625 -162.7209 -14.982039 23.389959
15050000000 -24.201309 111.57506 -46.265236 178.20096 -46.399414 -178.67973 -15.127427 24.790871
15060000000 -24.617147 116.21947 -46.998066 167.7267 -45.622402 161.98169 -15.126198 25.072401
15070000000 -24.17396 125.69389 -44.850712 148.97818 -44.765446 137.07143 -15.488217 22.379339
15080000000 -23.26343 123.05798 -43.241264 120.56736 -44.154911 110.59592 -16.403471 18.091845
15090000000 -23.186354 119.33617 -43.26189 85.495094 -44.984974 82.450218 -17.528938 16.104561
15100000000 -23.905933 114.5017 -44.694836 59.155605 -45.42168 63.494907 -18.104641 16.964874
15110000000 -24.869209 117.01796 -45.804817 44.338196 -45.176552 45.091362 -17.996548 17.309324
15120000000 -25.229736 118.64301 -44.121243 32.663231 -44.161007 24.444145 -18.024864 14.519238
15130000000 -25.28858 121.1899 -43.09898 4.2528219 -44.064838 0.37657434 -18.81476 11.897611
15140000000 -25.500713 124.50856 -42.770481 -25.115561 -43.630161 -23.847427 -19.904335 13.970007
15150000000 -24.612419 128.98215 -43.569717 -52.611694 -43.707264 -51.381622 -20.286449 20.414255
15160000000 -23.942822 127.00872 -44.472313 -69.240425 -44.36105 -69.970757 -19.772413 25.349171
15170000000 -23.635502 124.17793 -43.931755 -85.990837 -44.235699 -91.783142 -19.457397 25.333979
15180000000 -23.926086 121.76968 -42.936203 -110.32254 -43.963615 -111.23758 -20.110315 27.073652
15190000000 -24.169022 125.51071 -42.404816 -138.72256 -42.991753 -135.16748 -20.912157 35.498955
15200000000 -23.966461 128.01108 -43.481483 -165.72966 -43.347103 -161.99815 -20.59399 45.012554
15210000000 -23.333986 126.83527 -43.893578 175.07509 -43.806644 175.35501 -19.931608 46.985191
15220000000 -23.819763 125.48887 -44.163048 159.9294 -44.375698 157.95016 -19.648781 44.618881
15230000000 -23.660269 126.47392 -42.605354 141.69197 -43.239857 141.42406 -19.919615 43.49226
15240000000 -23.614504 127.44188 -42.033512 110.87453 -42.497852 115.02759 -19.875795 46.851379
15250000000 -23.28759 125.15311 -42.321228 82.417633 -42.432262 85.649559 -19.0021 49.893841
15260000000 -23.420183 123.73409 -43.380081 58.311607 -43.061153 62.677547 -17.925114 48.945816
15270000000 -23.295343 125.57584 -43.877125 41.91037 -43.770489 41.411644 -17.090456 45.819752
15280000000 -22.382652 124.05188 -43.074314 24.974388 -43.405228 25.980391 -16.755453 43.97464
15290000000 -22.069288 118.89881 -42.656815 -1.587435 -42.71767 2.9138663 -16.507822 45.699352
15300000000 -22.302851 112.59666 -42.668221 -26.282499 -42.160198 -22.758305 -16.052643 47.856537
15310000000 -23.284826 111.58805 -43.220581 -49.967545 -42.555271 -47.776943 -15.556721 47.303837
15320000000 -23.569283 114.24957 -43.236439 -66.9748 -42.717354 -69.231758 -15.298152 44.186047
15330000000 -23.569187 118.5043 -43.174648 -91.044075 -42.785927 -92.029221 -15.270963 39.991249
15340000000 -22.998819 116.11348 -42.817917 -113.88393 -42.545891 -112.4256 -15.316588 37.31179
15350000000 -23.071171 118.55048 -42.958271 -139.089 -42.300369 -136.86359 -15.012124 35.841957
15360000000 -22.191885 113.28384 -43.369057 -158.67088 -42.320438 -160.41595 -14.605732 33.416725
15370000000 -22.423082 108.55579 -43.023003 177.96397 -42.1399 173.38463 -14.284601 29.652662
15380000000 -22.320784 98.936729 -43.14415 156.92339 -43.001602 150.7585 -14.145719 24.785315
15390000000 -24.211454 94.884087 -43.258873 133.00983 -43.431732 131.55333 -14.100162 21.2428
15400000000 -25.053268 98.021225 -43.717724 111.94428 -42.913502 113.96769 -13.842143 19.165773
15410000000 -25.157877 105.87871 -43.132229 93.497055 -42.223377 88.431519 -13.521741 17.467421
15420000000 -24.375029 102.4151 -42.640488 69.065491 -42.298134 60.888447 -13.350847 15.046347
15430000000 -24.68405 102.62223 -42.809937 41.127907 -43.070164 33.558117 -13.518393 11.819627
15440000000 -24.198853 98.201256 -43.394775 18.979198 -43.811741 14.502785 -13.906869 7.6893654
15450000000 -24.760319 94.466301 -43.798584 -5.1609769 -43.743923 -6.593163 -14.196401 2.9483621
15460000000 -24.853134 87.515457 -44.719826 -25.728437 -44.091637 -30.479023 -14.19381 -2.4352026
15470000000 -26.864834 83.17408 -43.985977 -35.999706 -44.360783 -47.217018 -14.033534 -8.1493778
15480000000 -27.536713 85.851791 -42.592857 -62.339874 -43.580605 -69.548965 -13.949974 -13.384889
15490000000 -28.01004 92.355965 -42.635757 -94.009941 -43.764591 -95.533539 -14.10806 -17.855837
15500000000 -27.381693 85.029282 -43.841076 -120.37494 -44.040264 -120.06371 -14.374224 -21.237694
15510000000 -28.60198 81.456604 -45.108631 -140.03413 -44.811501 -143.02547 -14.547827 -24.770647
15520000000 -29.775988 74.810478 -45.021603 -153.5609 -45.208149 -164.26732 -14.692005 -29.29863
15530000000 -31.134405 83.947853 -44.577766 -175.39645 -46.405781 176.55925 -14.926716 -34.639511
15540000000 -31.555956 78.798676 -43.743279 159.83458 -45.402264 161.78687 -15.409167 -40.9231
15550000000 -32.737167 87.443596 -44.686115 130.62317 -45.349648 137.34306 -16.144848 -47.2164
15560000000 -33.360157 79.911819 -45.047436 113.24853 -44.933697 113.50237 -16.812777 -53.610104
15570000000 -34.66444 92.884842 -44.86058 93.147835 -45.659737 88.936127 -17.118502 -61.493404
15580000000 -34.673904 68.692207 -44.316883 68.216324 -45.897358 68.566887 -17.174341 -71.084419
15590000000 -39.121258 59.13448 -44.779633 39.110256 -46.181747 47.066292 -17.217272 -80.753777
15600000000 -42.517643 -14.352085 -45.888062 14.009574 -45.892948 24.343548 -17.37534 -89.194107
15610000000 -40.450081 -139.80614 -47.046101 -5.4340763 -46.586559 -0.4005881 -17.60533 -95.588799
15620000000 -41.663364 -159.64157 -47.063072 -19.168106 -47.547485 -18.642384 -17.824593 -101.40341
15630000000 -38.116161 -173.64771 -46.694626 -39.168179 -47.479805 -33.547916 -18.093046 -108.61026
15640000000 -42.676449 -169.20877 -46.063427 -65.202446 -46.216709 -52.30732 -18.486076 -118.07287
15650000000 -39.206718 -157.38672 -46.707142 -94.720619 -45.71875 -82.693329 -18.753397 -129.31807
15660000000 -41.347317 -126.05415 -48.45182 -114.57543 -46.789238 -110.05396 -18.734987 -141.30719
15670000000 -35.116802 -124.6362 -48.614548 -132.15424 -47.519508 -131.8056 -18.330265 -150.63153
15680000000 -31.399372 -117.54279 -48.232368 -150.87321 -48.040829 -147.20168 -17.624741 -158.03903
15690000000 -28.741848 -138.31168 -48.281544 -177.21616 -47.393734 -168.68111 -17.088638 -164.74457
15700000000 -28.531771 -146.28032 -49.68647 160.63953 -47.593502 167.36343 -16.748728 -171.20212
15710000000 -28.750715 -152.72112 -49.919613 145.47194 -47.639496 143.08827 -16.475401 -177.50041
15720000000 -29.040539 -147.31595 -50.322853 127.21754 -48.406635 121.75291 -16.17577 176.44276
15730000000 -28.277336 -144.99016 -50.092461 108.81611 -48.485832 101.14381 -15.815424 171.3183
15740000000 -27.71398 -142.15587 -48.910275 84.923431 -47.790154 80.74437 -15.495553 166.45853
15750000000 -26.904196 -141.92903 -49.654297 55.537121 -47.762897 49.720608 -15.269379 161.10439
15760000000 -25.876812 -140.97063 -51.070068 35.215359 -48.832088 23.779974 -15.073493 154.9651
15770000000 -24.912014 -147.55861 -51.912056 19.358137 -50.651569 1.646332 -14.725371 148.56487
15780000000 -24.93615 -150.87347 -52.061935 11.221088 -51.308876 -7.6190119 -14.221471 143.47571
15790000000 -25.035856 -153.40604 -49.973179 -11.913139 -49.850422 -29.253614 -13.575184 140.02393
15800000000 -24.760288 -148.47356 -49.997082 -43.720531 -50.134449 -57.963718 -13.045545 137.50549
15810000000 -23.623186 -149.17986 -50.974216 -67.635277 -51.001686 -83.61673 -12.751014 135.56371
15820000000 -23.171555 -151.44908 -52.623985 -89.871765 -52.865238 -110.91465 -12.643167 133.17796
15830000000 -22.827034 -154.20056 -52.280983 -100.93551 -54.369713 -120.15369 -12.621076 130.26999
15840000000 -22.861977 -153.88208 -51.700752 -126.47115 -54.346821 -140.26605 -12.534371 126.69657
15850000000 -22.596544 -155.57454 -52.02644 -151.59622 -53.979492 -157.89111 -12.396373 122.8121
15860000000 -22.857931 -153.48297 -53.677261 -171.05423 -55.696152 178.0022 -12.168818 118.95212
15870000000 -22.596678 -153.0545 -53.329403 177.60152 -56.416527 165.42638 -11.940553 115.28174
15880000000 -22.258188 -148.20198 -53.041737 154.51768 -57.851624 153.50529 -11.679016 111.90758
15890000000 -21.160746 -150.93597 -52.041836 131.38188 -56.52647 140.4619 -11.42794 108.77504
15900000000 -20.849598 -155.5715 -52.650536 105.97358 -55.873241 129.05548 -11.155705 106.26954
15910000000 -20.9142 -159.75981 -53.844124 87.460861 -54.583275 107.56785 -10.912013 104.07358
15920000000 -21.155687 -160.00847 -53.791756 69.091728 -54.820793 86.844681 -10.719275 102.32822
15930000000 -21.206835 -158.43686 -53.057083 46.649071 -54.665127 60.387665 -10.595475 100.3526
15940000000 -20.96237 -154.33095 -53.981079 16.419897 -55.410534 41.120911 -10.554532 98.333939
15950000000 -20.329988 -153.7267 -54.495731 2.1238546 -53.525597 32.471363 -10.557514 96.121033
15960000000 -19.80028 -152.17433 -54.896675 -21.937187 -52.934227 -0.41011006 -10.569283 93.571793
15970000000 -19.038044 -154.01755 -55.043442 -35.673599 -52.570457 -23.992329 -10.554235 90.544388
15980000000 -18.961813 -156.95895 -54.019257 -68.745171 -53.417194 -56.510895 -10.491836 87.248817
15990000000 -19.095694 -158.20807 -56.794544 -99.903206 -55.62471 -69.732254 -10.356305 83.973022
16000000000 -19.448847 -157.09097 -59.74509 -105.00741 -54.114548 -79.286636 -10.189014 81.142067
16010000000 -19.058865 -153.3242 -57.593533 -107.83311 -52.676048 -108.28104 -10.011095 79.152115
16020000000 -18.555231 -153.32278 -56.241398 -143.01512 -52.6106 -144.82376 -9.883029 77.570351
16030000000 -17.945494 -154.01711 -59.147285 -176.89546 -54.927952 -176.12555 -9.8415651 76.009888
16040000000 -17.581154 -155.77736 -61.359291 -176.23381 -57.000923 178.62627 -9.9056053 73.857811
16050000000 -17.276417 -158.04634 -63.229633 172.61682 -55.684391 161.3031 -10.015284 71.399742
16060000000 -17.260439 -158.84172 -62.028076 169.29518 -55.154259 132.66713 -10.101322 68.675224
16070000000 -17.147699 -157.84663 -59.748627 152.80104 -55.875168 101.6748 -10.144224 65.983734
16080000000 -16.874039 -155.15523 -58.655968 127.42728 -58.475887 78.416115 -10.168621 63.102139
16090000000 -16.133045 -154.32632 -60.177711 113.97304 -60.894363 68.010086 -10.25266 60.114502
16100000000 -15.638539 -156.46191 -57.220982 103.16784 -58.87281 75.708138 -10.338549 56.965237
16110000000 -15.338668 -158.64516 -55.590328 75.830185 -56.655987 32.077972 -10.370632 53.739597
16120000000 -15.371049 -160.6812 -54.056969 39.510719 -57.104702 3.0001817 -10.323626 50.772663
16130000000 -15.286223 -160.95863 -56.169991 -0.24701336 -59.250172 -42.910152 -10.244052 48.599674
16140000000 -15.285427 -159.62146 -61.405117 -18.698956 -68.889793 -102.72687 -10.243313 47.135094
16150000000 -14.716816 -159.54419 -57.808582 3.163259 -62.047245 19.38077 -10.411318 45.662201
16160000000 -14.326538 -159.81279 -54.688576 -27.819799 -59.907261 -29.473852 -10.75481 43.757793
16170000000 -13.643336 -161.00882 -53.745998 -65.416702 -59.996883 -54.577732 -11.132826 40.77174
16180000000 -13.289406 -163.57861 -54.883652 -105.21667 -59.652847 -92.5121 -11.515876 36.63319
16190000000 -13.068446 -166.24609 -56.618118 -134.85486 -60.622719 -109.62075 -11.79273 32.315987
16200000000 -13.25424 -166.98608 -58.188805 -147.12787 -61.448833 -141.05054 -12.038118 28.406567
16210000000 -13.076076 -166.14395 -58.770756 -163.44441 -64.734596 -130.18083 -12.280024 24.939072
16220000000 -12.910164 -164.88802 -60.449165 163.76881 -64.67347 -140.74818 -12.58379 21.408518
16230000000 -12.347129 -165.70787 -62.081848 157.04921 -58.983646 -155.92267 -12.938272 17.821682
16240000000 -12.125025 -166.57327 -60.348469 140.01524 -57.777271 166.33138 -13.312833 14.415844
16250000000 -11.724728 -169.0341 -59.45219 123.24471 -58.168732 139.50284 -13.715103 12.133101
16260000000 -11.586809 -171.2827 -58.232632 65.269417 -58.130123 90.501343 -14.174151 10.328605
16270000000 -11.412465 -173.52408 -62.580418 25.395248 -63.711742 60.299267 -14.885363 8.5672789
16280000000 -11.420593 -174.81357 -70.149384 -54.73098 -71.1605 97.745125 -15.895627 5.5172486
16290000000 -11.190899 -174.64957 -68.802544 112.50198 -60.926189 81.650528 -17.205925 0.75273985
16300000000 -10.912341 -175.12222 -66.661476 55.088432 -61.363571 43.272503 -18.533697 -4.9994249
16310000000 -10.515371 -176.12981 -67.694626 16.328543 -62.916851 10.228762 -19.721365 -12.088921
16320000000 -10.356883 -177.30113 -76.338699 70.351715 -66.635254 20.824312 -20.772713 -19.470152
16330000000 -10.0758 -178.36789 -68.858467 52.236137 -62.683426 -9.6901731 -22.295158 -27.66551
16340000000 -10.021237 -179.62991 -62.794022 29.11512 -64.634331 -22.664248 -24.24951 -33.811932
16350000000 -9.8058252 179.56163 -62.559216 -8.2843056 -62.882523 -38.374027 -26.407785 -42.683441
16360000000 -9.7029943 178.26495 -64.235321 -32.772118 -63.738575 -52.50087 -29.770145 -52.930431
16370000000 -9.504776 177.07791 -61.599644 -42.524212 -61.09528 -78.593147 -34.388924 -74.715805
16380000000 -9.3429317 175.43393 -62.387936 -48.313168 -67.562157 -81.818291 -36.259052 -150.93555
16390000000 -9.1754217 173.57144 -57.335056 -70.512024 -60.27998 -91.465477 -29.512087 170.5163
16400000000 -9.1347733 172.20135 -55.944614 -107.18786 -58.703686 -116.64423 -25.190268 160.99361
16410000000 -8.9890957 171.55426 -55.863598 -147.45528 -57.587337 -152.47934 -22.812143 157.32922
16420000000 -8.8367109 171.42889 -58.678898 -162.91695 -59.742435 -176.95549 -21.212244 155.3484
16430000000 -8.4597368 170.92751 -57.253574 171.79057 -59.790543 162.49348 -20.059368 151.86281
16440000000 -8.2519674 169.59329 -58.820194 150.6981 -63.856384 132.9149 -18.968281 146.8501
16450000000 -8.0028343 168.13817 -58.56205 149.43449 -60.84515 161.43047 -18.096701 141.7205
16460000000 -7.9437795 166.32019 -56.10434 127.84283 -57.628735 132.78548 -17.276672 138.45129
16470000000 -7.9122958 164.94096 -55.376213 105.20945 -56.639725 102.70415 -16.508541 134.61015
16480000000 -7.9785333 163.91537 -55.049423 73.519508 -59.014866 75.279991 -15.894096 130.22983
16490000000 -7.9104528 163.70195 -54.914993 57.908928 -56.758053 75.167419 -15.24065 125.59258
16500000000 -7.7740245 163.78061 -54.142487 33.986614 -55.091774 44.717705 -14.467476 121.7034
16510000000 -7.3955426 162.73859 -53.855328 3.5257752 -54.410946 17.322968 -13.693014 118.94168
16520000000 -7.1939507 161.31517 -56.462494 -10.801139 -57.139263 -6.2359662 -13.072013 117.44426
16530000000 -6.9006691 159.21939 -54.334309 -25.248257 -54.555012 -14.423982 -12.725651 116.46258
16540000000 -6.8908038 157.66539 -53.197071 -46.808197 -53.373417 -37.398739 -12.489878 114.74308
16550000000 -6.7871842 156.47261 -52.104954 -75.983627 -52.376263 -66.929657 -12.384905 111.81709
16560000000 -6.8227272 156.06436 -52.20755 -105.81876 -52.49646 -93.626068 -12.18521 108.32848
16570000000 -6.6763577 155.87349 -52.679478 -128.73714 -51.978016 -115.38596 -11.910655 104.88634
16580000000 -6.5466523 155.87447 -53.077209 -150.38197 -51.587124 -141.81459 -11.593166 102.03291
16590000000 -6.2641606 154.90448 -53.463623 -177.48676 -51.675766 -169.18207 -11.357371 99.51284
16600000000 -6.1025324 153.37311 -53.357864 164.97079 -51.74543 167.93524 -11.128155 97.004814
16610000000 -5.9394522 151.62347 -53.42284 143.20782 -51.711948 149.17343 -10.903673 94.282677
16620000000 -5.8904219 150.24387 -53.510864 120.35966 -51.877228 124.03069 -10.600838 91.679222
16630000000 -5.725101 148.97078 -53.549824 107.23356 -51.325333 105.41248 -10.306137 89.858734
16640000000 -5.6597538 148.03804 -52.451542 79.266365 -50.871189 76.253593 -10.043343 88.864075
16650000000 -5.4553876 147.30917 -53.080715 55.423336 -51.471031 50.96962 -9.9158983 87.737061
16660000000 -5.2816768 146.59393 -53.733162 30.981697 -51.515903 26.543507 -9.9279108 86.182846
16670000000 -5.0559192 145.49951 -53.245262 17.114433 -52.156792 7.8173008 -10.033018 83.651009
16680000000 -4.9369979 144.39813 -54.190601 -10.125005 -51.834175 -20.3162 -10.051659 80.462273
16690000000 -4.7634964 143.37062 -54.062038 -25.252651 -52.941299 -44.219521 -9.9663143 76.9132
16700000000 -4.6657906 142.30173 -53.774113 -41.797146 -54.179512 -56.388409 -9.8011932 74.007095
16710000000 -4.487134 141.1236 -52.556 -62.733204 -53.216156 -72.754326 -9.5980959 71.550957
16720000000 -4.3800902 139.89011 -51.824539 -89.959106 -51.98402 -98.187248 -9.4412985 69.619316
16730000000 -4.1999574 138.45502 -52.446907 -115.3093 -52.128834 -125.82322 -9.3247395 67.817352
16740000000 -4.0839753 137.07242 -52.323109 -139.37727 -52.755688 -151.299 -9.2625523 66.186325
16750000000 -3.935282 135.67419 -53.215431 -157.76118 -54.033417 -172.289 -9.1769943 64.565826
16760000000 -3.8126302 134.52226 -52.713734 -177.59238 -53.978298 174.16553 -9.1714535 62.871784
16770000000 -3.64027 133.29628 -52.622459 165.23822 -54.070454 158.60736 -9.2012691 61.079063
16780000000 -3.5019784 132.20049 -50.996746 140.95901 -52.330975 139.33038 -9.2958469 58.935413
16790000000 -3.3338089 130.91388 -51.163986 108.70837 -52.161568 105.4725 -9.3856373 56.314072
16800000000 -3.2003989 129.57982 -51.893097 84.995804 -53.230793 80.734047 -9.4574928 53.044151
16810000000 -3.0690281 128.02229 -52.322319 65.33429 -53.784554 66.220146 -9.4585953 49.664394
16820000000 -2.9845705 126.51565 -52.445061 44.327309 -53.048321 47.6409 -9.4032364 46.105469
16830000000 -2.8722396 124.98845 -52.034569 25.432226 -52.093903 22.670065 -9.2934456 42.982208
16840000000 -2.7692301 123.58865 -51.365139 0.58889121 -52.398899 -0.83312917 -9.1891813 40.478508
16850000000 -2.6318088 122.03301 -51.303024 -28.034603 -52.218746 -28.059912 -9.0836182 38.726219
16860000000 -2.5160415 120.56285 -52.30619 -52.867569 -52.665024 -51.848953 -9.0493364 37.333439
16870000000 -2.3768704 119.06674 -53.239391 -75.86824 -53.692501 -73.71154 -9.0818987 36.155766
16880000000 -2.2590213 117.66506 -52.805195 -91.681122 -53.327499 -90.050941 -9.2056093 34.367916
16890000000 -2.1348419 116.23232 -52.32687 -116.43933 -52.792267 -113.53694 -9.4156094 31.80158
16900000000 -2.0381401 114.9298 -52.295063 -145.64125 -52.915588 -141.16196 -9.6343374 28.227045
16910000000 -1.9314845 113.44196 -53.0924 -171.9575 -53.249538 -168.0753 -9.7845316 24.492485
16920000000 -1.8580108 112.04466 -53.902012 164.56517 -54.109322 172.17891 -9.801137 20.487085
16930000000 -1.7695072 110.50193 -54.452087 144.50862 -54.281261 145.4388 -9.7560644 16.725769
16940000000 -1.7040758 108.94663 -54.802303 124.09776 -54.171837 130.43002 -9.6965408 13.136063
16950000000 -1.6151996 107.32841 -54.437572 102.46505 -54.599609 103.3254 -9.7167473 10.014238
16960000000 -1.5300008 105.70509 -55.100075 74.093323 -54.939629 82.639404 -9.7591457 7.0142369
16970000000 -1.4277856 104.03713 -55.884209 49.426838 -54.966579 52.769142 -9.8631859 4.379961
16980000000 -1.3468477 102.41614 -57.285862 34.157887 -55.944035 32.795944 -9.9896088 1.4951526
16990000000 -1.25059 100.8498 -57.155724 15.941672 -56.152737 10.185176 -10.177084 -1.397097
17000000000 -1.1692178 99.33387 -57.041485 -7.8000693 -56.807079 -7.0817924 -10.392829 -5.0386171
