!Keysight Technologies,P9374A,MY57211807,A.19.30.04
!Date: Friday, May 08, 2026 14:26:17
!Correction: S11(C  2-Port  ) 
!S21(C  2-Port  ) 
!S12(C  2-Port  ) 
!S22(C  2-Port  ) 
!S2P File: Measurements: S11, S21, S12, S22:
# Hz S  dB   R 50
13000000000 -18.954569 57.957005 -49.233128 100.60312 -48.72821 100.01206 -9.6289682 -91.35672
13010000000 -18.974524 58.635902 -48.751972 93.212624 -48.643135 88.575401 -9.8737555 -94.758858
13020000000 -19.466648 59.334209 -47.376339 69.907791 -47.290215 67.684364 -10.160614 -98.434196
13030000000 -19.403381 62.03027 -46.720318 43.45607 -46.50444 40.987991 -10.482143 -102.18201
13040000000 -19.926504 62.16507 -46.883934 17.759451 -46.696842 14.661686 -10.823621 -106.09616
13050000000 -19.628197 64.925453 -47.624886 -7.796905 -47.563557 -11.448792 -11.172672 -110.3062
13060000000 -19.81148 63.538383 -48.291237 -28.46693 -48.193401 -30.11521 -11.501449 -115.08714
13070000000 -19.75536 63.349754 -49.367809 -40.423759 -49.486328 -43.684704 -11.773789 -120.24481
13080000000 -19.799044 63.158241 -47.269375 -56.92392 -47.685875 -58.629185 -11.98108 -125.21352
13090000000 -19.51767 60.936367 -46.900177 -86.984299 -46.960346 -87.961838 -12.225261 -129.78757
13100000000 -19.858776 61.259457 -47.047684 -109.91319 -47.10527 -111.33147 -12.517336 -134.22067
13110000000 -19.423597 61.636345 -46.909744 -133.89809 -47.093975 -134.60117 -12.872827 -138.88222
13120000000 -19.740778 60.598278 -47.677113 -161.37099 -47.84647 -161.45728 -13.232329 -144.60115
13130000000 -19.393951 61.126362 -48.346272 -176.13512 -48.581451 -177.23306 -13.523092 -150.98724
13140000000 -19.637257 62.597687 -47.829105 161.70218 -47.840549 162.37509 -13.718903 -157.29919
13150000000 -19.133965 61.57193 -47.499657 137.22202 -47.263084 137.35359 -13.907748 -163.52374
13160000000 -19.538826 61.010262 -48.880611 109.22171 -48.700878 107.69884 -14.124122 -169.71118
13170000000 -19.416121 60.776936 -49.629276 95.133682 -49.309269 94.810959 -14.37999 -176.82536
13180000000 -19.518875 60.075325 -49.455631 76.34935 -49.084171 73.610184 -14.52167 175.12598
13190000000 -19.252815 59.354523 -48.486713 54.175468 -48.035908 53.106209 -14.4527 166.82053
13200000000 -19.316031 56.602547 -48.292305 32.441605 -48.14077 28.607716 -14.256769 159.4467
13210000000 -19.077467 55.478962 -47.854565 2.4772279 -47.93597 0.44241548 -14.017746 153.05901
13220000000 -19.287743 53.034981 -48.355171 -20.369802 -48.136253 -23.498642 -13.900538 146.81548
13230000000 -19.212082 51.44928 -49.222454 -56.233551 -48.884365 -59.017185 -13.856733 139.5854
13240000000 -19.747643 51.855408 -51.913532 -74.327118 -52.145256 -78.830276 -13.748286 131.43958
13250000000 -19.390957 53.209522 -51.914417 -88.319153 -51.914509 -90.111061 -13.383938 123.24293
13260000000 -19.472876 53.287144 -51.911751 -108.63982 -52.095242 -113.12287 -12.870305 115.9435
13270000000 -19.171518 51.564323 -51.826607 -131.27977 -51.902573 -131.98318 -12.374165 110.12996
13280000000 -19.17593 50.564793 -50.769859 -162.87427 -51.046227 -166.62952 -11.985238 104.96352
13290000000 -19.080204 45.946251 -52.986202 163.39693 -53.286301 159.36687 -11.711248 99.644424
13300000000 -19.537683 44.056431 -55.039391 131.82628 -55.615223 131.43625 -11.429112 93.741554
13310000000 -19.710081 41.42535 -60.521675 119.00639 -60.566589 115.71317 -11.062878 87.42379
13320000000 -20.006716 41.075008 -59.869244 119.76959 -60.711868 119.35466 -10.632671 81.496338
13330000000 -19.972567 39.277538 -58.200603 88.321671 -58.23315 88.194176 -10.232421 76.505226
13340000000 -20.182085 40.17807 -61.940685 39.9394 -62.478931 29.970549 -9.891367 72.045853
13350000000 -20.294008 38.064411 -66.14946 4.4423747 -72.587555 -14.561113 -9.6228218 67.429482
13360000000 -20.119413 41.032551 -73.999283 -140.95776 -77.7341 -165.72504 -9.3933859 62.161205
13370000000 -19.894348 37.062157 -63.476433 150.11304 -63.54348 144.52855 -9.1146832 56.452335
13380000000 -19.82033 36.18306 -62.091808 105.41518 -63.378391 97.752777 -8.7520075 51.106724
13390000000 -20.181055 30.963686 -68.156044 101.31497 -67.336815 120.11287 -8.3646936 46.295315
13400000000 -20.412197 30.49188 -60.562881 103.8005 -59.140125 104.99734 -8.0186901 42.251389
13410000000 -20.956924 24.626589 -55.291351 84.463272 -55.655975 75.25367 -7.7832732 38.53318
13420000000 -21.748735 27.075607 -53.616261 43.026478 -54.488724 44.051933 -7.6175666 34.443893
13430000000 -22.042063 25.025848 -51.932552 19.866451 -52.357124 19.794779 -7.4857874 29.819305
13440000000 -22.204947 27.766001 -51.898613 -20.615797 -52.440174 -17.572031 -7.3791733 24.973595
13450000000 -21.902771 27.136553 -52.980709 -36.814144 -52.706158 -35.875896 -7.2038717 20.208282
13460000000 -21.449467 27.593782 -52.210926 -48.568501 -51.75692 -50.939304 -6.9972649 15.934607
13470000000 -21.623415 20.402643 -50.018749 -71.186432 -50.011742 -73.198578 -6.8232388 11.977693
13480000000 -21.848028 20.569353 -49.414005 -99.910736 -49.518444 -101.36117 -6.6845803 8.1251593
13490000000 -22.428413 14.67966 -49.101295 -121.84391 -49.094658 -121.47614 -6.6036587 4.1951566
13500000000 -22.690357 14.930219 -48.260464 -145.09923 -48.261127 -145.61252 -6.5876055 0.10658437
13510000000 -23.878927 11.43429 -47.638447 -170.12918 -47.431786 -170.59389 -6.5778646 -3.9601233
13520000000 -24.731527 16.35397 -47.382103 159.52402 -47.189026 159.06815 -6.5774274 -7.8800902
13530000000 -24.79447 16.443012 -47.735222 139.59193 -47.704086 138.67564 -6.5860372 -11.66466
13540000000 -24.880638 19.547342 -47.633034 116.42955 -47.552246 114.88737 -6.5878448 -15.436277
13550000000 -24.459503 18.104345 -47.430653 95.283684 -47.331646 96.486794 -6.6307406 -19.4394
13560000000 -23.679075 17.250677 -47.298901 73.869522 -46.864006 73.507706 -6.7187133 -23.585564
13570000000 -24.381636 8.8910952 -46.27364 56.1161 -46.103886 52.700432 -6.7983055 -27.517134
13580000000 -24.646427 7.4091368 -45.777298 26.044956 -45.823021 25.355688 -6.8647318 -31.205502
13590000000 -26.091854 2.4465809 -46.333908 3.7265713 -46.128399 3.3546088 -6.9110832 -34.587608
13600000000 -26.879169 9.0441837 -46.363602 -14.988352 -46.320316 -16.493011 -6.9595613 -37.86113
13610000000 -27.88908 14.586657 -44.90419 -36.409504 -44.591351 -38.024666 -7.0820556 -41.153591
13620000000 -27.618732 22.300787 -45.167309 -65.524513 -45.024536 -68.213463 -7.2661524 -44.543358
13630000000 -27.520308 24.189503 -44.650021 -88.948082 -44.685875 -91.201447 -7.4619541 -47.929699
13640000000 -26.343307 20.441851 -45.284386 -115.60187 -45.523289 -115.98702 -7.6265583 -51.526749
13650000000 -27.095446 14.039048 -45.772327 -136.40327 -45.719837 -136.56952 -7.7686133 -55.131973
13660000000 -26.957079 12.273443 -45.627632 -150.67986 -45.542656 -152.44115 -7.8905635 -58.552856
13670000000 -28.28694 7.2566037 -44.699894 -174.11398 -44.76548 -175.22894 -8.0331669 -61.659172
13680000000 -28.323034 11.162601 -44.004517 160.05702 -44.180828 159.36348 -8.1965351 -64.589745
13690000000 -29.442074 10.925554 -44.591259 131.00002 -44.511681 130.96118 -8.4071465 -67.433174
13700000000 -29.539125 23.367682 -44.683361 111.58915 -44.726391 111.92912 -8.6215534 -70.4748
13710000000 -28.590494 29.427618 -44.666153 88.005135 -44.563171 88.001526 -8.8369646 -73.717987
13720000000 -27.575012 28.193384 -44.874664 64.6642 -44.592976 63.814198 -9.0443811 -76.987373
13730000000 -27.803093 26.465168 -45.520695 47.040432 -44.990177 45.466003 -9.2505865 -80.109917
13740000000 -26.86508 25.106163 -44.550503 22.935776 -44.210491 20.75948 -9.4569273 -82.951057
13750000000 -27.897861 14.896658 -44.929306 -0.38556859 -44.845188 -2.3314302 -9.6974487 -85.877205
13760000000 -28.2307 13.959945 -44.540379 -23.661934 -44.581894 -24.333889 -9.9941311 -88.963623
13770000000 -30.091858 10.545144 -44.68718 -46.483475 -44.397472 -48.746399 -10.289765 -92.345512
13780000000 -29.96796 17.911402 -44.726376 -68.877029 -44.496399 -73.173485 -10.514994 -96.018929
13790000000 -29.840166 20.699541 -45.192768 -93.392937 -45.189785 -97.651619 -10.68361 -99.672112
13800000000 -28.97641 24.30588 -45.125278 -113.81273 -45.440632 -116.52024 -10.823224 -102.66817
13810000000 -27.805573 20.485731 -45.263851 -137.98656 -45.367516 -139.33684 -10.997094 -105.16248
13820000000 -26.850588 13.164626 -45.672237 -156.4881 -45.724537 -158.10033 -11.239768 -107.46931
13830000000 -27.200338 11.096293 -44.708618 179.97871 -45.094181 178.57158 -11.567652 -110.15841
13840000000 -26.590569 2.6805298 -45.116009 151.55243 -45.403168 151.24023 -11.87739 -113.37991
13850000000 -27.823654 -2.9296176 -46.067722 130.72971 -46.004204 132.32605 -12.15896 -117.27232
13860000000 -28.26062 -6.3589368 -46.154778 111.0853 -46.232014 113.17761 -12.388167 -121.06294
13870000000 -29.919075 -5.7100334 -46.050594 91.4673 -45.761585 91.9254 -12.590816 -124.46885
13880000000 -30.115723 0.11625101 -45.867783 68.595825 -45.988987 66.662621 -12.8022 -127.56675
13890000000 -29.290356 3.3479934 -46.06221 47.109661 -46.050762 46.788223 -13.047564 -131.00368
13900000000 -28.813255 -2.9242289 -46.411613 22.460131 -45.982742 22.086355 -13.295881 -134.82402
13910000000 -27.852964 -1.05035 -46.822384 1.103207 -46.414486 1.3137578 -13.475747 -138.90263
13920000000 -26.774725 -12.017899 -46.923294 -18.49399 -46.700466 -20.627356 -13.596075 -142.75316
13930000000 -27.318359 -25.26092 -46.76643 -37.651463 -46.710999 -40.956615 -13.710665 -146.13564
13940000000 -28.217743 -33.260448 -46.430855 -59.738735 -46.354607 -63.464737 -13.88906 -149.13907
13950000000 -29.216167 -39.835632 -46.219059 -84.508041 -46.465668 -87.278389 -14.150104 -152.39072
13960000000 -30.881367 -49.316044 -46.752655 -107.49271 -46.557964 -109.12408 -14.470979 -156.46411
13970000000 -32.540565 -41.714977 -46.903503 -131.95963 -46.91671 -134.48732 -14.714188 -161.49226
13980000000 -32.170525 -40.905312 -47.397007 -152.84862 -47.917336 -156.2079 -14.850374 -167.16248
13990000000 -30.783503 -40.502262 -47.40263 -170.79817 -47.687691 -171.21843 -14.855301 -172.59245
14000000000 -29.579971 -49.396652 -46.918739 164.85381 -47.146385 163.35579 -14.758716 -177.53688
14010000000 -28.126293 -54.495163 -47.723663 142.44753 -47.974468 141.26875 -14.644913 178.07884
14020000000 -27.677502 -64.085136 -47.784294 118.95309 -47.716232 118.38464 -14.555494 173.73781
14030000000 -27.432066 -74.468063 -48.56683 100.51065 -48.544052 100.09029 -14.516905 169.55493
14040000000 -28.199949 -85.62915 -47.776169 81.590218 -47.982719 80.946693 -14.465661 165.40462
14050000000 -29.419891 -86.643173 -47.785458 59.417454 -47.764687 61.281597 -14.388175 161.22379
14060000000 -30.750929 -93.60865 -47.594341 33.7356 -47.431705 35.933571 -14.248557 156.85388
14070000000 -32.317009 -88.467789 -47.65147 9.000061 -47.273212 9.4413366 -14.113167 152.45192
14080000000 -32.283131 -93.793816 -48.365929 -12.872105 -48.261017 -15.576035 -14.014206 148.20294
14090000000 -32.373791 -86.711006 -48.317913 -32.82243 -48.118362 -33.602539 -13.935639 144.00247
14100000000 -30.034389 -97.048004 -47.921242 -53.248638 -47.77668 -57.028172 -13.805494 139.42616
14110000000 -29.252975 -104.72469 -48.219627 -78.154274 -48.41235 -80.654427 -13.62699 134.51445
14120000000 -28.267321 -118.17512 -48.297699 -98.642921 -48.306446 -99.626892 -13.37971 129.72572
14130000000 -28.111242 -124.81209 -47.843956 -123.54507 -48.000584 -126.53924 -13.05378 125.48215
14140000000 -27.541574 -133.48659 -47.625679 -150.57057 -47.850998 -152.05342 -12.710819 121.64738
14150000000 -28.195244 -140.63914 -49.102047 -178.17079 -49.404373 179.40137 -12.463493 117.93924
14160000000 -28.517508 -146.94019 -49.768013 170.67371 -49.974052 170.67659 -12.290064 114.20168
14170000000 -30.379135 -147.39488 -49.162064 145.6001 -48.869671 143.71094 -12.116916 110.0947
14180000000 -30.195114 -145.53687 -48.845535 121.06816 -49.069347 119.12975 -11.861278 105.69009
14190000000 -30.312641 -142.38771 -49.546192 96.206444 -49.512302 96.239586 -11.540443 101.33164
14200000000 -29.221708 -142.33824 -49.541592 72.513268 -49.637833 75.911102 -11.193952 97.31929
14210000000 -27.828419 -142.73709 -50.103947 49.017521 -49.678967 47.711494 -10.874853 93.803413
14220000000 -26.296398 -152.60107 -50.621578 25.882769 -50.194374 23.772982 -10.589843 90.418243
14230000000 -26.13987 -164.59344 -50.582848 6.6143265 -50.280891 3.7233896 -10.365158 86.75029
14240000000 -26.399069 -171.95996 -49.828331 -16.590017 -49.875191 -19.956621 -10.143623 83.099281
14250000000 -27.281031 -175.29105 -49.955742 -46.105553 -50.087414 -47.84705 -9.8824615 79.295372
14260000000 -28.266602 -179.89664 -50.080654 -70.958549 -50.22327 -71.622688 -9.6324472 75.434425
14270000000 -29.78117 -171.36406 -50.749123 -90.18322 -50.590656 -92.162071 -9.423728 71.813026
14280000000 -29.045156 -167.13472 -49.520893 -118.50977 -49.505108 -122.18659 -9.2388592 68.159805
14290000000 -27.997801 -161.54039 -50.958897 -145.22926 -50.848587 -147.77695 -9.0531111 64.171715
14300000000 -27.288103 -171.35202 -50.002716 -164.07202 -50.295639 -168.25964 -8.8817711 59.723995
14310000000 -26.898277 -173.24059 -49.239075 162.32051 -49.799202 160.65511 -8.6884184 55.483624
14320000000 -26.871468 175.42218 -49.928204 131.66708 -50.427273 132.10924 -8.4482794 51.450706
14330000000 -26.923113 176.2635 -50.689293 113.64993 -50.71349 110.79939 -8.194706 47.520885
14340000000 -27.357244 167.36696 -49.720398 82.978836 -50.057072 81.759933 -8.0343914 43.757748
14350000000 -28.018341 171.98349 -49.846394 50.662506 -50.062561 48.789864 -7.9236884 40.254917
14360000000 -28.376284 170.32877 -50.89571 24.94293 -51.587894 25.908512 -7.8470669 36.387131
14370000000 -28.774427 175.30501 -51.00629 2.4892416 -50.785587 3.7493346 -7.8198247 31.988012
14380000000 -28.8762 175.58405 -50.488846 -14.499641 -50.770164 -16.580559 -7.8006597 27.562515
14390000000 -28.073559 -177.35297 -48.768562 -46.759464 -48.910202 -48.276653 -7.73278 23.056217
14400000000 -27.734848 177.42244 -49.260403 -78.384583 -49.267437 -78.761589 -7.6607561 18.382639
14410000000 -27.094191 175.6945 -48.875217 -109.52049 -48.60677 -107.42568 -7.627655 14.015751
14420000000 -27.324903 168.61812 -49.560623 -131.85794 -49.189011 -135.33116 -7.6086674 9.9608173
14430000000 -26.998693 165.63776 -48.704315 -160.70241 -48.81477 -161.7334 -7.6270432 5.8310361
14440000000 -28.327761 158.86462 -49.886375 174.09245 -49.386818 174.92171 -7.6925592 1.4979851
14450000000 -28.645544 170.29105 -48.88446 154.87711 -48.503162 152.29213 -7.8298869 -2.7569673
14460000000 -29.005928 173.45901 -47.736546 127.89659 -47.758461 126.16753 -7.9519424 -6.8665571
14470000000 -27.848421 -179.04376 -47.777336 96.600891 -47.72929 95.179642 -8.0995712 -11.355279
14480000000 -27.125647 -177.16345 -47.408909 80.511711 -47.205139 77.732468 -8.3606577 -15.813075
14490000000 -26.000706 -179.61632 -46.86478 48.670837 -46.628628 46.724117 -8.6275005 -20.255695
14500000000 -26.212835 175.78093 -46.590816 22.722122 -46.311607 20.520897 -8.8958015 -25.456606
14510000000 -26.018652 169.75389 -46.41988 -1.8949041 -46.399384 -4.9726877 -9.1914368 -30.93656
14520000000 -27.898712 172.57791 -45.968491 -29.652645 -46.066216 -30.513718 -9.4361153 -35.787159
14530000000 -26.857508 171.97017 -46.276436 -51.728111 -46.070053 -52.588303 -9.6157913 -40.12851
14540000000 -27.988956 178.68747 -45.50655 -76.301003 -45.401802 -78.990387 -9.8719521 -44.113705
14550000000 -26.177458 -179.04868 -45.298695 -101.51369 -45.386177 -103.87331 -10.273465 -47.962444
14560000000 -25.838171 -175.81844 -45.16626 -127.98103 -45.239025 -128.06834 -10.825273 -51.840511
14570000000 -24.185789 177.52647 -45.138023 -150.44533 -45.03957 -151.33398 -11.356406 -56.254601
14580000000 -24.55172 174.98328 -45.074245 -172.90649 -44.873608 -174.21992 -11.877052 -61.801144
14590000000 -24.023607 171.48322 -44.27618 162.47681 -44.114925 161.19211 -12.457415 -67.450554
14600000000 -24.415766 174.59903 -44.148705 134.31293 -44.088432 132.3792 -13.001332 -72.519699
14610000000 -23.924995 168.65337 -44.664612 110.87692 -44.740505 110.00646 -13.545522 -78.03849
14620000000 -25.029652 174.08118 -44.787117 92.201797 -44.720364 91.013069 -14.193267 -84.001297
14630000000 -24.03075 174.85429 -44.038048 69.740898 -43.820889 68.841537 -14.812927 -89.929955
14640000000 -23.639568 176.57558 -43.750324 46.414536 -43.536476 44.035484 -15.316322 -96.106262
14650000000 -22.949398 173.5777 -43.159851 21.89303 -43.22731 17.833096 -15.825827 -102.39156
14660000000 -22.303373 173.05084 -43.351067 -5.0039549 -43.407642 -5.7392993 -16.533869 -107.88838
14670000000 -21.877914 166.06787 -43.753094 -26.812235 -43.524628 -28.9701 -17.334488 -112.90578
14680000000 -21.853138 163.96031 -43.677174 -47.261448 -43.6087 -49.378307 -18.208336 -120.12357
14690000000 -22.005451 159.77225 -43.250702 -70.072975 -43.337826 -71.786453 -19.25416 -130.03113
14700000000 -22.321955 161.73557 -42.944866 -92.220901 -42.944195 -93.302261 -20.136715 -141.49403
14710000000 -22.336393 161.88994 -42.955978 -115.51926 -42.922924 -116.77525 -20.490776 -153.25928
14720000000 -22.142202 165.47084 -42.550274 -138.29359 -42.638752 -140.26736 -20.391556 -166.21684
14730000000 -21.385555 163.68083 -42.455212 -161.34338 -42.525223 -163.08372 -20.338274 -178.14027
14740000000 -20.734703 160.4915 -42.376881 175.73561 -42.241043 174.90077 -20.275414 173.29774
14750000000 -20.756174 154.48105 -42.085133 153.60022 -42.040855 152.90662 -20.041916 165.47769
14760000000 -20.62575 152.38861 -42.01403 128.74689 -41.833736 127.84666 -19.922241 156.24135
14770000000 -20.799879 148.11562 -41.827961 108.11637 -41.671604 106.62798 -19.926979 146.04482
14780000000 -20.889282 146.50082 -41.677509 83.55394 -41.736507 81.660767 -19.697412 136.24712
14790000000 -21.018847 145.95938 -41.892574 63.866291 -41.900505 62.743111 -19.030785 126.90158
14800000000 -20.859516 147.7272 -41.474903 41.351429 -41.532162 40.086113 -18.354492 118.57458
14810000000 -20.640785 146.43799 -40.951622 20.378662 -40.772461 19.016668 -17.758774 112.98396
14820000000 -20.352917 146.60371 -40.610352 -6.5384407 -40.626331 -9.1067696 -17.155275 107.8998
14830000000 -20.179525 144.04808 -40.97768 -29.413725 -40.885777 -31.088737 -16.63682 102.66119
14840000000 -20.047306 141.38089 -40.671989 -50.779095 -40.645065 -52.60519 -16.251949 97.030067
14850000000 -20.233723 137.31929 -40.645813 -74.180031 -40.621094 -75.332283 -15.928019 93.0252
14860000000 -20.368937 134.78845 -40.5275 -95.956253 -40.461597 -97.55098 -15.474243 89.597519
14870000000 -20.767637 130.54797 -40.080872 -119.14499 -40.15036 -120.39417 -15.232035 85.151016
14880000000 -21.235985 128.51463 -39.949833 -142.16125 -39.973866 -142.99429 -15.231795 80.889809
14890000000 -21.407301 130.61353 -39.61483 -167.83809 -39.591255 -168.88698 -15.101724 76.397858
14900000000 -21.06811 129.17839 -40.011852 170.43494 -39.88723 169.53038 -14.761039 70.437218
14910000000 -20.919098 131.2758 -39.554256 146.14355 -39.450935 144.66832 -14.408928 65.143005
14920000000 -20.261126 127.396 -39.862423 123.74998 -39.794907 122.45766 -13.997603 62.201057
14930000000 -20.378138 124.40191 -39.641022 101.96245 -39.635181 99.807892 -13.617476 59.74601
14940000000 -20.439018 120.71973 -39.41103 78.993408 -39.463978 78.009605 -13.554724 57.142956
14950000000 -20.939774 118.97268 -39.157368 53.925068 -39.007072 53.184471 -13.695977 54.482994
14960000000 -21.689295 115.98357 -39.189762 30.347015 -39.182789 28.538649 -13.801087 51.506439
14970000000 -22.360411 120.24187 -39.233841 6.8298941 -39.259682 5.5556722 -13.79044 47.845253
14980000000 -22.704622 119.23219 -39.239586 -17.199547 -39.16605 -17.803261 -13.861347 44.072636
14990000000 -22.51948 123.92305 -39.141537 -40.629906 -38.941326 -42.074623 -13.925413 41.354572
15000000000 -22.292807 119.32566 -39.219742 -64.884346 -39.132069 -66.613159 -14.03765 37.955387
15010000000 -22.246803 118.30922 -39.157455 -88.159821 -39.186523 -90.423782 -14.278009 33.427143
15020000000 -22.357157 112.65775 -39.620682 -114.579 -39.741447 -115.79333 -14.588704 30.052761
15030000000 -22.646742 111.94811 -39.949448 -132.25121 -39.968304 -134.32358 -14.466797 27.615282
15040000000 -23.259329 109.46309 -39.918266 -154.41808 -39.872398 -156.41585 -14.304194 24.680223
15050000000 -23.740034 111.74567 -39.39323 -176.75243 -39.538719 -178.60623 -14.483666 23.728525
15060000000 -24.369492 115.32876 -39.32531 156.46301 -39.483349 155.93492 -14.772863 23.756912
15070000000 -24.187286 119.32115 -39.510971 130.4994 -39.631641 130.09596 -15.328092 22.760015
15080000000 -24.292509 122.60224 -39.863167 106.78616 -39.93232 105.30085 -16.088846 21.284483
15090000000 -23.635992 122.49607 -40.69173 83.842819 -40.945751 82.578743 -16.723852 19.620724
15100000000 -23.937029 121.16935 -40.878403 63.436687 -41.088619 64.091972 -17.093382 17.554949
15110000000 -24.046181 118.14942 -41.073273 42.498417 -40.958473 43.684635 -17.464048 15.115651
15120000000 -24.71685 119.55231 -40.628307 21.683249 -40.471878 20.93716 -18.020594 15.114374
15130000000 -24.688856 115.86125 -40.822433 -3.3950357 -40.630363 -3.6074147 -18.394449 16.618259
15140000000 -25.564388 120.15592 -40.760376 -25.811199 -40.705414 -26.686775 -18.646921 17.077364
15150000000 -25.259142 124.36365 -40.956356 -51.44648 -40.986141 -51.39492 -19.020403 18.481071
15160000000 -24.963985 129.8074 -41.343658 -72.345665 -41.036823 -72.214005 -19.176809 22.344038
15170000000 -24.013657 129.44456 -41.640026 -93.657799 -41.155666 -96.302719 -19.075809 25.613445
15180000000 -23.555752 128.31566 -41.478695 -117.0607 -41.293724 -120.38319 -19.377424 29.696663
15190000000 -23.224476 126.20765 -41.248615 -139.6339 -41.31757 -141.28789 -19.580996 36.347599
15200000000 -23.16917 124.39664 -41.695969 -165.10983 -41.662445 -167.18112 -19.499739 40.790714
15210000000 -23.607107 119.9337 -42.16116 173.25211 -42.310299 171.08115 -19.591364 42.707962
15220000000 -24.390852 125.55238 -41.979156 152.15187 -42.039349 149.53819 -19.56106 44.51947
15230000000 -23.988218 125.79684 -42.005665 128.39133 -42.253578 126.76827 -19.290569 45.455902
15240000000 -24.044155 129.76915 -41.848888 102.95477 -42.117271 101.48824 -18.932981 45.505814
15250000000 -23.343834 128.44553 -42.123474 78.118729 -42.381573 78.128433 -18.48209 46.172962
15260000000 -22.78204 127.50169 -42.759949 54.074074 -42.877529 54.12962 -17.807581 46.399509
15270000000 -22.594572 123.35378 -42.564758 32.449856 -42.700359 31.199129 -16.99453 45.72226
15280000000 -22.407024 120.03391 -43.24543 5.3246856 -43.539444 6.6444359 -16.436539 44.893703
15290000000 -22.553633 116.8177 -43.773056 -16.241913 -43.670048 -15.329545 -15.977806 45.944965
15300000000 -22.630796 115.29746 -43.969509 -38.130135 -44.046978 -37.47691 -15.577859 46.606556
15310000000 -23.114426 113.80862 -44.130207 -63.677471 -44.095032 -61.691978 -15.372418 46.126652
15320000000 -23.246716 114.82749 -44.20211 -87.528763 -44.039513 -87.23645 -15.271136 45.24905
15330000000 -23.401354 116.29352 -44.978977 -113.26191 -44.936546 -113.49337 -15.014391 42.821266
15340000000 -23.074883 115.50413 -45.446316 -138.01897 -45.263813 -137.82214 -14.828936 39.070404
15350000000 -23.155079 117.75974 -46.246815 -162.3018 -45.873581 -160.00539 -14.673904 36.271473
15360000000 -22.418505 112.86812 -47.195644 176.58972 -46.395741 175.82181 -14.415358 33.725479
15370000000 -22.866529 108.92902 -46.904163 157.51765 -46.65514 156.53909 -14.240373 30.679148
15380000000 -22.519257 103.92773 -47.087009 127.93872 -46.531277 128.46173 -14.028674 27.203537
15390000000 -23.37273 98.327431 -47.870152 104.62186 -47.3428 100.51539 -13.795154 23.920439
15400000000 -24.132486 95.84903 -48.127373 75.316826 -47.952808 72.967812 -13.448111 21.012884
15410000000 -25.063908 97.742714 -50.653893 52.431549 -50.420403 46.688816 -13.19296 18.5947
15420000000 -25.297121 100.8253 -51.02425 40.423302 -50.994926 38.734833 -13.216579 16.789558
15430000000 -24.871544 104.0769 -49.674923 13.628531 -49.561394 10.251697 -13.357891 15.208195
15440000000 -24.499544 98.875618 -50.000595 -20.804419 -50.088135 -24.965002 -13.532131 11.503271
15450000000 -24.958809 97.097008 -51.338882 -55.153633 -51.17931 -57.571831 -13.828479 5.6892014
15460000000 -24.990231 91.480682 -53.080982 -76.661804 -53.285572 -83.663956 -14.020291 -0.0098625841
15470000000 -25.815722 87.798943 -53.262596 -106.15999 -54.235756 -107.94837 -13.932328 -5.3654451
15480000000 -26.798147 82.630188 -56.252304 -138.69594 -57.13472 -138.68999 -13.88916 -10.257959
15490000000 -27.568268 84.184868 -55.285973 -152.42097 -55.406391 -146.7263 -13.965782 -13.835621
15500000000 -28.382963 81.061623 -54.508427 170.55455 -54.856304 171.00732 -14.045327 -17.396595
15510000000 -29.192722 81.40229 -54.699764 123.72101 -54.78492 125.32738 -14.22788 -21.77161
15520000000 -30.78919 78.12336 -55.221615 89.82618 -55.913795 91.135719 -14.515745 -26.463039
15530000000 -31.072821 89.120308 -55.538025 48.045734 -55.984573 50.860638 -14.900721 -30.768351
15540000000 -31.45433 84.302094 -56.045475 22.228834 -56.838558 29.616442 -15.350771 -35.363327
15550000000 -31.120174 91.418938 -54.505733 -8.6510029 -54.442913 -4.2199402 -15.921337 -41.419731
15560000000 -32.047646 78.628006 -54.101738 -42.469093 -53.935452 -38.771 -16.616238 -48.481392
15570000000 -33.384449 71.918098 -54.180485 -78.47522 -53.919693 -76.324852 -17.125488 -56.987236
15580000000 -37.449238 48.388958 -54.016987 -105.56338 -54.028763 -101.96982 -17.381836 -66.541306
15590000000 -43.142418 65.019463 -54.625538 -126.71133 -53.798492 -123.54185 -17.513288 -76.180824
15600000000 -52.093739 -76.393486 -52.569721 -145.02049 -52.690205 -145.351 -17.578735 -83.796577
15610000000 -41.313435 179.87025 -51.09576 -173.57802 -50.820011 -171.41862 -17.630222 -90.810013
15620000000 -42.542789 -164.68501 -50.80373 155.86774 -50.1357 155.49281 -17.917553 -97.431534
15630000000 -40.472206 170.3284 -50.759369 131.62172 -50.934704 130.95583 -18.399626 -104.39523
15640000000 -45.61887 -141.48694 -50.182507 108.6834 -50.037788 106.0295 -18.962063 -112.82983
15650000000 -40.006416 -138.10579 -50.015247 83.56427 -49.777878 81.350769 -19.300901 -123.69657
15660000000 -36.011303 -125.75149 -48.950047 60.177689 -48.98666 57.019577 -19.262852 -136.41112
15670000000 -34.480247 -138.62106 -48.984066 29.135006 -49.093204 29.717617 -18.806137 -147.5336
15680000000 -31.601696 -130.27231 -49.663906 7.1915312 -49.674892 6.316607 -18.144674 -156.34897
15690000000 -31.132406 -143.00584 -49.603863 -7.9685845 -49.358398 -8.4083672 -17.565382 -163.2162
15700000000 -29.328558 -138.31163 -47.910378 -33.347878 -48.012177 -33.225727 -17.123892 -169.56154
15710000000 -29.079632 -143.26956 -47.582481 -59.71595 -47.603275 -59.352657 -16.804193 -175.61319
15720000000 -27.292629 -142.60909 -47.524849 -83.56881 -47.246613 -83.340332 -16.426638 178.52937
15730000000 -27.589828 -149.95035 -47.236225 -108.40229 -47.289696 -112.51104 -16.094028 173.05675
15740000000 -27.322142 -147.00256 -47.328041 -134.03992 -47.65274 -135.00903 -15.822934 168.22075
15750000000 -27.389614 -147.64328 -47.601601 -156.86021 -47.577564 -154.87654 -15.621673 162.86569
15760000000 -26.485178 -144.5567 -47.868855 -179.27968 -47.733353 -178.54201 -15.396995 156.68434
15770000000 -26.210428 -143.27364 -47.716854 161.29655 -47.578259 160.18329 -15.004916 150.10999
15780000000 -24.854239 -143.37665 -47.3862 139.9592 -47.289764 139.2711 -14.427615 144.6114
15790000000 -24.180319 -147.73146 -46.881817 117.46323 -47.108395 115.1953 -13.781085 140.81856
15800000000 -23.452406 -152.45555 -46.53297 94.834488 -46.54372 94.23732 -13.21401 138.54669
15810000000 -23.738853 -155.69331 -46.26403 66.582993 -46.131859 66.682938 -12.894532 136.82242
15820000000 -23.550179 -155.57706 -47.313343 39.741985 -47.159447 39.055344 -12.76121 134.93794
15830000000 -23.623405 -154.21274 -47.536167 20.719742 -47.631577 19.246988 -12.707727 132.28102
15840000000 -23.247568 -150.85269 -47.906197 1.1498033 -48.100685 0.48500159 -12.644636 128.81209
15850000000 -22.766535 -150.63174 -47.706047 -18.394238 -47.447712 -19.316177 -12.53542 124.74545
15860000000 -22.090899 -150.96585 -47.195427 -38.839092 -47.377663 -41.002102 -12.361542 120.85151
15870000000 -21.980892 -153.33997 -47.013508 -63.452553 -47.051624 -65.825737 -12.121003 117.19905
15880000000 -21.695541 -154.15315 -46.894066 -85.555 -47.310909 -86.581894 -11.867044 113.84346
15890000000 -21.83075 -155.5235 -47.954334 -108.57766 -47.797916 -108.07587 -11.561065 110.88653
15900000000 -21.587996 -155.82779 -47.035988 -126.72307 -46.942005 -127.49991 -11.249911 108.22246
15910000000 -21.426998 -155.55756 -47.047203 -150.83868 -47.086174 -151.16377 -11.000783 106.15098
15920000000 -20.88303 -155.89847 -47.098644 -174.18062 -47.101601 -174.97614 -10.794662 104.49478
15930000000 -20.735258 -156.44252 -47.862141 162.83974 -47.745617 161.00629 -10.667773 102.883
15940000000 -20.384001 -156.47533 -48.349472 147.164 -48.247059 147.2867 -10.627396 101.13163
15950000000 -20.230524 -156.56973 -47.255508 127.89023 -47.155239 127.36927 -10.646474 99.17807
15960000000 -19.949232 -155.33809 -47.279819 103.65644 -47.021687 103.0694 -10.657893 96.584892
15970000000 -19.601654 -154.83351 -46.630463 83.079193 -46.436577 80.919113 -10.689898 93.543243
15980000000 -19.312683 -154.74928 -46.383259 58.318825 -46.170231 55.087513 -10.636606 90.270721
15990000000 -18.988125 -154.75562 -46.770359 32.227737 -46.929893 30.44537 -10.494356 87.131378
16000000000 -18.961594 -155.99756 -47.16674 11.39576 -47.140594 11.049327 -10.282845 84.347664
16010000000 -18.783041 -155.05002 -47.6548 -9.437149 -47.328964 -12.59173 -10.085687 82.306725
16020000000 -18.476505 -155.75726 -47.478683 -24.650454 -47.511997 -29.578226 -9.9288721 80.839203
16030000000 -18.264803 -154.71642 -46.887444 -49.071144 -47.341873 -50.954769 -9.8916988 79.333275
16040000000 -17.691418 -155.39787 -46.399731 -73.777138 -46.7761 -74.841019 -9.9563093 77.54026
16050000000 -17.393543 -157.32962 -46.856808 -100.66 -46.98856 -100.23631 -10.084645 75.410904
16060000000 -17.157995 -157.62419 -47.771606 -121.72157 -47.691437 -122.82211 -10.151237 73.033752
16070000000 -17.010588 -157.35023 -48.343716 -139.77785 -48.471516 -140.58342 -10.177401 70.10965
16080000000 -16.61425 -156.2915 -47.531116 -159.85672 -47.867199 -161.08731 -10.236617 67.120148
16090000000 -16.310236 -155.87769 -47.952595 178.88435 -48.099243 179.24893 -10.357646 64.070587
16100000000 -15.77457 -156.30205 -47.520939 156.12804 -47.482632 155.94443 -10.464843 61.150841
16110000000 -15.536314 -158.11011 -47.850677 133.42741 -47.71183 133.73967 -10.463969 57.990963
16120000000 -15.250722 -159.41348 -47.559692 113.21949 -47.478542 110.57003 -10.381302 55.039928
16130000000 -15.26887 -160.29419 -48.30574 86.340088 -48.076839 84.810944 -10.280641 52.732082
16140000000 -15.00001 -160.16927 -49.249146 74.147171 -49.274822 71.845398 -10.278171 51.273796
16150000000 -14.754599 -160.41072 -48.169216 57.228561 -48.157932 55.852776 -10.415087 50.038246
16160000000 -14.288266 -160.77837 -47.413456 30.647736 -47.358143 28.015362 -10.771787 48.267399
16170000000 -13.811192 -161.67982 -47.531422 3.8075385 -47.560101 2.858402 -11.188706 45.610268
16180000000 -13.437174 -163.36989 -48.018082 -19.402571 -48.320995 -20.904102 -11.629598 41.8106
16190000000 -13.236553 -164.94881 -48.861477 -42.04221 -48.822643 -39.892143 -11.912249 37.622303
16200000000 -13.094662 -165.4622 -49.687916 -58.158001 -49.771942 -58.952423 -12.153046 33.092747
16210000000 -12.877305 -166.02545 -49.723721 -70.19915 -49.661556 -70.046677 -12.421412 29.247959
16220000000 -12.689822 -166.04582 -47.508118 -90.255661 -47.656639 -92.182167 -12.751414 25.4797
16230000000 -12.412595 -167.07687 -47.19725 -120.40237 -47.372311 -121.14483 -13.120844 22.465343
16240000000 -12.200234 -167.54265 -47.590324 -149.82767 -47.486237 -149.16531 -13.431922 19.084494
16250000000 -11.974991 -169.35316 -49.371773 -170.23473 -49.169403 -169.74129 -13.827454 16.553684
16260000000 -11.767243 -170.17595 -50.12719 168.98868 -50.073574 169.22272 -14.323084 14.730041
16270000000 -11.410084 -171.56938 -49.47813 162.4848 -49.11882 160.53481 -15.118753 13.316479
16280000000 -11.151305 -173.68744 -48.997021 136.63498 -48.857075 132.73221 -16.150156 10.89858
16290000000 -10.969665 -175.32829 -48.473843 115.84422 -48.502254 112.56065 -17.543406 6.3520746
16300000000 -10.783328 -176.52348 -48.995407 86.681992 -49.207756 85.752579 -18.987278 -0.25935671
16310000000 -10.658515 -177.72078 -50.063553 71.506729 -49.721706 68.525017 -20.435276 -8.6405344
16320000000 -10.507402 -177.66693 -48.783752 58.497608 -48.706066 54.277718 -21.727474 -16.00893
16330000000 -10.326419 -177.70801 -47.939003 28.773853 -48.186134 25.366825 -23.140507 -24.743296
16340000000 -9.9839096 -178.09689 -48.069382 4.4524522 -48.592262 1.2940683 -25.082174 -33.339977
16350000000 -9.7204742 -179.62187 -48.973663 -20.926481 -49.062992 -22.003231 -27.258816 -45.070179
16360000000 -9.4814434 178.25243 -50.343815 -38.842831 -50.695812 -39.53767 -30.917118 -61.383492
16370000000 -9.4525318 176.19035 -49.054333 -51.756809 -49.178253 -50.059425 -35.032425 -96.601158
16380000000 -9.3246737 174.39349 -49.500702 -73.418556 -49.382504 -73.723625 -33.406719 -161.94296
16390000000 -9.3619785 173.05496 -47.658867 -94.955101 -47.885128 -95.023834 -27.804617 173.7616
16400000000 -9.1983509 172.68269 -47.837746 -123.9384 -47.698856 -123.89806 -24.083645 166.07962
16410000000 -9.0314388 172.32291 -48.383221 -149.84978 -47.927216 -149.47328 -21.736893 163.72002
16420000000 -8.6824341 171.65981 -49.096405 -167.23354 -48.784332 -170.80148 -20.202662 161.04358
16430000000 -8.4743118 170.53273 -49.017643 170.76552 -48.800404 167.35292 -19.25333 158.40024
16440000000 -8.2066898 169.35516 -49.289249 147.90492 -49.246109 145.09724 -18.259514 154.62129
16450000000 -8.0795231 167.763 -49.422707 130.44048 -49.390873 129.22052 -17.432892 150.10143
16460000000 -7.9720912 166.51079 -49.486824 111.94554 -49.247787 109.55172 -16.615789 146.09064
16470000000 -7.9706187 165.32138 -48.194073 90.220978 -48.333012 85.054848 -16.029291 142.20288
16480000000 -7.8768439 164.49548 -47.942677 63.758369 -48.458023 61.253555 -15.456364 138.4523
16490000000 -7.8160157 163.4502 -47.868301 39.263367 -48.087086 36.901913 -14.846199 133.69063
16500000000 -7.6998458 162.88933 -48.299023 10.258396 -48.657902 9.2328396 -14.126924 129.80487
16510000000 -7.5140138 162.05798 -49.016758 -12.473407 -49.112381 -11.603309 -13.37447 126.78566
16520000000 -7.2640319 161.23997 -49.968067 -32.078289 -49.94363 -31.864992 -12.738491 125.63354
16530000000 -7.0341835 159.68224 -49.72831 -49.085262 -49.632816 -50.385796 -12.303313 124.44105
16540000000 -6.8700933 158.41197 -49.98521 -70.28154 -49.885269 -71.241432 -12.096057 122.96119
16550000000 -6.7397938 157.10179 -49.222805 -92.173477 -49.40239 -92.500191 -11.988609 120.44122
16560000000 -6.6540737 156.05717 -49.055019 -117.0595 -49.015152 -116.06912 -11.831967 117.36339
16570000000 -6.6364536 155.15015 -48.782101 -143.28745 -48.628811 -143.16135 -11.570772 114.07375
16580000000 -6.5379786 155.01358 -49.103554 -169.52531 -48.801365 -172.9135 -11.31372 111.14526
16590000000 -6.3936887 154.4765 -50.774582 163.36003 -50.905216 161.76346 -11.075037 108.50701
16600000000 -6.1888943 153.54918 -51.288536 150.22459 -50.80674 150.03407 -10.872541 106.01935
16610000000 -6.0198131 152.28873 -50.813683 129.91075 -50.811016 128.00449 -10.626049 103.42773
16620000000 -5.8181391 150.83916 -51.016499 106.31376 -50.759129 103.07757 -10.320952 100.87043
16630000000 -5.6710382 149.10268 -51.151924 84.109344 -51.163631 83.609352 -9.9983969 98.953438
16640000000 -5.5681338 147.86407 -50.743725 63.320576 -50.973251 62.684288 -9.747591 97.871475
16650000000 -5.4432592 146.9283 -51.226391 39.944065 -51.425865 37.481686 -9.6091032 96.972511
16660000000 -5.2818966 146.14041 -51.136047 14.184659 -50.974419 15.394903 -9.6135292 95.774483
16670000000 -5.1284795 145.36833 -51.463043 -11.552385 -51.392521 -13.699179 -9.6871262 93.65081
16680000000 -4.9615951 144.47969 -52.05632 -40.479305 -52.065517 -40.523098 -9.725687 90.501427
16690000000 -4.8081732 143.6694 -54.2314 -59.593864 -53.623997 -60.886383 -9.6906538 87.128906
16700000000 -4.6159992 142.48129 -54.244122 -72.224838 -54.248577 -80.339172 -9.541049 84.007652
16710000000 -4.4936991 141.16653 -53.892452 -96.112564 -54.615906 -98.487694 -9.378109 81.414093
16720000000 -4.343966 139.87402 -53.766003 -123.78703 -53.999161 -121.5645 -9.2124453 79.411499
16730000000 -4.1904659 138.36171 -54.639721 -150.03001 -55.069489 -146.78517 -9.0915918 77.661346
16740000000 -4.0647626 136.87767 -54.68618 -167.97443 -54.550621 -168.07513 -8.9664145 76.135239
16750000000 -3.9620945 135.60129 -55.211994 165.45532 -55.443089 160.35791 -8.8713999 74.516373
16760000000 -3.8113835 134.44006 -56.556583 143.02132 -57.161182 145.66901 -8.8434753 72.962006
16770000000 -3.6689415 133.3418 -57.726032 117.81044 -57.977795 117.9883 -8.8846378 71.341064
16780000000 -3.497195 132.23448 -59.831985 110.24506 -59.501297 114.22535 -8.9841976 69.656303
16790000000 -3.3419554 131.00226 -57.606136 79.794937 -57.500648 86.559395 -9.1019878 67.233971
16800000000 -3.1882541 129.54276 -59.045959 48.86235 -58.884838 52.593163 -9.1843891 64.205849
16810000000 -3.0729804 128.0567 -61.036396 27.658066 -60.084263 36.318039 -9.2249451 60.459702
16820000000 -2.9718149 126.49493 -63.057838 17.695604 -61.54108 13.706664 -9.2353878 56.762123
16830000000 -2.8656697 124.95494 -62.877327 2.7433398 -61.429783 -0.72739965 -9.1502581 53.473545
16840000000 -2.7672069 123.49522 -64.209549 -25.73077 -63.360836 -29.251221 -9.0372906 50.790131
16850000000 -2.6430683 122.01523 -64.292603 -38.346565 -62.895275 -46.98196 -8.9051046 48.804531
16860000000 -2.5133553 120.52126 -64.675842 -70.47496 -63.184113 -73.427238 -8.8344345 47.282261
16870000000 -2.3860905 119.08202 -65.034668 -82.582611 -65.696968 -94.956055 -8.8508863 46.133022
16880000000 -2.2626429 117.65035 -66.214355 -103.59814 -69.946907 -130.76915 -8.9742613 44.625301
16890000000 -2.1438589 116.29691 -71.688286 -93.408905 -73.642845 -86.519951 -9.2045574 42.405121
16900000000 -2.0294218 114.94428 -65.779968 -106.92126 -66.0382 -107.26972 -9.4647875 39.173203
16910000000 -1.9230802 113.4659 -65.394012 -146.73555 -66.541901 -154.56819 -9.6818857 35.239326
16920000000 -1.8517777 111.97785 -66.815163 -176.19502 -71.299881 -171.45146 -9.7734861 30.933231
16930000000 -1.7708212 110.43681 -72.050591 124.25819 -89.731598 75.428093 -9.7857943 26.642208
16940000000 -1.7071482 108.87358 -72.206932 -104.17549 -66.330231 -121.67579 -9.7632446 22.668112
16950000000 -1.6217972 107.28764 -65.622559 -175.23592 -62.604836 176.71191 -9.8046904 19.160032
16960000000 -1.5357851 105.68188 -65.794807 133.83775 -65.059509 121.79594 -9.8310452 16.00457
16970000000 -1.4344569 104.09769 -68.098679 118.51261 -67.420982 98.008896 -9.9350328 13.053425
16980000000 -1.3387046 102.43995 -70.476723 100.14193 -71.09304 108.09985 -10.088313 10.224967
16990000000 -1.2461421 100.82898 -69.566589 92.474091 -68.504372 83.644188 -10.322603 7.3157892
17000000000 -1.168584 99.304306 -70.895042 71.679047 -68.575645 39.228344 -10.60269 3.8644147
