!Keysight Technologies,P9374A,MY57211807,A.19.30.04
!Date: Friday, May 08, 2026 14:24:08
!Correction: S11(C  2-Port  ) 
!S21(C  2-Port  ) 
!S12(C  2-Port  ) 
!S22(C  2-Port  ) 
!S2P File: Measurements: S11, S21, S12, S22:
# Hz S  dB   R 50
13000000000 -19.193914 59.737709 -48.151897 -175.7605 -48.240784 -176.45673 -13.489591 -102.1313
13010000000 -19.006781 61.404213 -47.39534 167.8136 -47.545296 166.98682 -13.944321 -106.33868
13020000000 -19.033587 61.226341 -45.971478 148.22549 -46.064739 146.46671 -14.418943 -111.22545
13030000000 -19.111061 61.178055 -45.508488 122.96718 -45.591393 121.71247 -14.971721 -116.54533
13040000000 -19.485767 59.33942 -44.624775 100.13395 -44.741909 98.635612 -15.557615 -122.33175
13050000000 -20.075539 61.115425 -45.015079 71.376724 -45.153061 70.927711 -16.135683 -128.68236
13060000000 -20.319317 63.163712 -45.89328 55.509888 -45.974159 53.802139 -16.596685 -135.97542
13070000000 -20.140244 66.28405 -45.121674 40.657299 -45.216751 40.151417 -16.851345 -143.91194
13080000000 -19.660913 66.428314 -44.087261 16.581795 -44.048424 16.167377 -16.984388 -151.47482
13090000000 -19.151199 63.503696 -43.915112 -5.0415845 -43.93058 -5.8604093 -17.213722 -158.4456
13100000000 -19.099382 60.297623 -43.526222 -27.052979 -43.468636 -28.101479 -17.477125 -165.0415
13110000000 -19.262075 57.438786 -42.987267 -49.039745 -43.034561 -49.873039 -17.805717 -172.66335
13120000000 -19.958164 56.182014 -43.199486 -73.365685 -43.17049 -73.172623 -17.97192 178.60858
13130000000 -20.129599 59.93375 -42.826035 -93.61483 -42.82943 -94.401474 -17.85721 169.5751
13140000000 -20.235037 65.112206 -42.769051 -118.80546 -42.770889 -119.54563 -17.63739 161.29459
13150000000 -19.433666 66.522881 -43.237648 -140.65569 -43.250309 -140.74593 -17.391384 154.0125
13160000000 -18.970325 65.110138 -43.643875 -157.24255 -43.715752 -157.09007 -17.166168 146.80666
13170000000 -18.581909 61.463543 -43.085865 -173.66461 -43.121391 -174.42798 -16.861399 138.81845
13180000000 -18.855104 55.680935 -42.164627 168.03343 -42.196651 167.57584 -16.361691 130.80055
13190000000 -19.286835 53.280983 -41.27372 140.94673 -41.26889 140.64923 -15.739619 124.34327
13200000000 -19.944296 52.064659 -40.86549 114.77322 -40.947357 114.79731 -15.114889 119.39653
13210000000 -20.248554 56.7132 -41.784775 87.190598 -41.664333 86.586494 -14.650392 115.23342
13220000000 -19.658913 58.483665 -42.505405 69.489006 -42.411598 68.878586 -14.321857 110.74932
13230000000 -19.098902 58.023338 -43.110027 55.484093 -43.104794 53.471153 -13.983292 105.34288
13240000000 -18.707603 55.293056 -41.95245 41.258484 -41.947334 40.476505 -13.531565 99.421745
13250000000 -18.511175 50.965836 -40.6059 19.243824 -40.665554 18.359509 -12.938371 94.129173
13260000000 -19.020123 46.747822 -40.209667 -7.6016283 -40.185596 -7.7986937 -12.294421 89.899017
13270000000 -19.566582 45.480358 -40.258404 -32.739479 -40.165985 -33.4515 -11.796286 86.525383
13280000000 -20.15011 47.520241 -40.764652 -53.06543 -40.693329 -53.969971 -11.424983 83.454956
13290000000 -20.349262 49.779488 -40.68898 -72.907806 -40.664677 -74.2304 -11.138225 79.934975
13300000000 -19.640602 51.794991 -40.096825 -91.726219 -40.050625 -92.473495 -10.842244 75.937622
13310000000 -19.205317 47.430859 -39.990341 -114.19419 -39.976768 -115.31477 -10.427042 71.667206
13320000000 -18.867443 43.23344 -39.624222 -136.37778 -39.624432 -137.22562 -10.006539 67.692055
13330000000 -19.104218 35.599133 -39.408836 -156.3461 -39.38163 -157.19821 -9.6363068 64.284538
13340000000 -19.865398 33.604599 -39.0993 -177.64384 -39.018467 -178.69524 -9.3494473 61.113338
13350000000 -20.718941 32.14933 -38.452652 159.91849 -38.440262 158.64516 -9.1286383 57.785492
13360000000 -21.204298 38.458324 -38.429161 136.21269 -38.381321 135.11346 -8.9039669 53.781116
13370000000 -20.813272 41.779186 -38.214844 114.68204 -38.208027 113.55506 -8.6058254 49.373272
13380000000 -19.896795 42.326599 -38.124939 92.302269 -38.057484 91.325874 -8.2569208 45.224808
13390000000 -19.690548 36.065372 -38.051651 71.258217 -38.055386 70.209999 -7.8909073 41.590538
13400000000 -19.506672 31.747734 -37.745148 50.607185 -37.667789 49.139755 -7.572082 38.467789
13410000000 -20.171305 21.682302 -37.253021 28.632217 -37.252476 27.573833 -7.36378 35.541626
13420000000 -21.532034 21.06374 -36.706341 6.0380559 -36.688179 4.5719104 -7.2291656 32.179375
13430000000 -22.376179 19.293568 -36.586506 -18.381145 -36.574986 -19.576046 -7.1081052 28.408356
13440000000 -23.189003 25.882801 -36.348953 -41.900238 -36.340176 -42.995487 -6.9998069 24.149218
13450000000 -22.509577 31.787096 -36.317245 -65.018936 -36.331089 -66.129784 -6.8641973 19.967497
13460000000 -21.532646 30.390762 -36.286346 -88.372192 -36.250336 -89.528984 -6.6726179 16.189695
13470000000 -21.214441 24.999765 -36.247253 -109.40246 -36.257278 -110.6084 -6.5191894 12.624824
13480000000 -21.176226 19.63942 -36.116589 -130.80377 -36.109829 -132.04289 -6.4019318 9.1156569
13490000000 -22.04784 11.20492 -35.694679 -152.69583 -35.67157 -153.88588 -6.3592467 5.5703321
13500000000 -23.147766 10.928389 -35.398941 -175.28963 -35.380798 -176.55801 -6.3784256 1.9015019
13510000000 -24.399946 13.567939 -34.97374 159.82446 -34.990936 159.0162 -6.3995385 -1.7614228
13520000000 -24.796114 18.050817 -34.895 134.66663 -34.88327 133.49477 -6.4371319 -5.4232774
13530000000 -24.464319 19.936489 -35.155186 111.03069 -35.171013 109.82487 -6.5063505 -9.0253248
13540000000 -24.152609 17.126268 -35.273018 88.613861 -35.293163 87.175713 -6.5872879 -12.51792
13550000000 -24.133478 14.71252 -35.074059 68.094696 -35.043449 67.038879 -6.6920161 -16.125015
13560000000 -24.026064 9.6591406 -34.74202 44.130413 -34.75428 43.024727 -6.8408146 -19.945147
13570000000 -25.871208 8.0803423 -34.661259 19.367151 -34.646881 18.292974 -6.9832416 -23.584917
13580000000 -25.546103 12.113591 -34.776398 -4.2910671 -34.755722 -5.6920786 -7.1156683 -26.982609
13590000000 -26.22077 15.097338 -35.002445 -26.80644 -34.992626 -27.943161 -7.2236018 -29.980001
13600000000 -25.445522 16.052912 -34.936714 -49.058289 -34.943604 -50.431763 -7.3507133 -32.914581
13610000000 -25.949383 14.185712 -34.753925 -70.89563 -34.723839 -72.112442 -7.5578136 -35.627445
13620000000 -26.072725 8.4665852 -34.626038 -96.815849 -34.604313 -98.062378 -7.8217678 -38.368454
13630000000 -28.312113 5.5469899 -34.823063 -120.22551 -34.799202 -121.35037 -8.0759983 -41.191925
13640000000 -29.2216 10.854592 -35.218521 -144.52269 -35.186584 -145.83308 -8.3379641 -44.308548
13650000000 -29.929447 25.537266 -35.276306 -165.49472 -35.271881 -166.92377 -8.5720625 -47.359913
13660000000 -27.796993 29.872206 -35.454571 171.89038 -35.425259 170.71542 -8.7642555 -50.223434
13670000000 -26.92544 25.096527 -35.467541 149.17899 -35.457241 147.93135 -8.9642429 -52.82206
13680000000 -25.735264 17.495359 -35.725872 127.01307 -35.659462 126.09367 -9.187746 -55.113991
13690000000 -26.188763 5.5755653 -35.642612 104.81892 -35.635082 103.50729 -9.4378796 -57.228149
13700000000 -28.017012 0.097718813 -35.857494 81.891937 -35.795868 80.529091 -9.7079344 -59.454979
13710000000 -30.742882 5.652473 -36.16119 59.244022 -36.084019 58.091503 -9.9773598 -61.94466
13720000000 -32.039604 25.359413 -36.202625 37.222469 -36.196205 36.035507 -10.237411 -64.481812
13730000000 -29.950577 49.426868 -36.491207 15.762659 -36.461269 14.489685 -10.49507 -66.97364
13740000000 -26.441128 42.786682 -36.401802 -4.6972127 -36.386478 -5.5938272 -10.770536 -69.161873
13750000000 -25.958544 29.157753 -36.39682 -26.998436 -36.350166 -28.383776 -11.068828 -71.095886
13760000000 -25.6728 17.334721 -36.369507 -49.232735 -36.352768 -50.516815 -11.402778 -73.314079
13770000000 -26.726799 1.8605828 -36.505802 -73.751053 -36.54586 -74.654839 -11.751081 -76.096596
13780000000 -29.170902 -8.6144047 -36.926563 -94.790314 -36.826836 -96.335762 -12.064806 -79.287994
13790000000 -32.318085 -1.8495417 -37.065346 -116.1571 -37.075268 -117.10371 -12.302212 -82.559761
13800000000 -33.439587 25.679535 -37.121536 -136.29459 -37.071365 -137.31329 -12.482239 -85.168633
13810000000 -28.913517 39.339989 -37.002785 -156.27434 -36.915695 -158.14825 -12.675962 -86.941772
13820000000 -26.644566 26.185104 -36.933525 179.97987 -36.911449 178.50266 -12.891704 -88.465973
13830000000 -25.637234 20.566778 -37.055111 158.33633 -37.014408 157.52371 -13.24512 -90.432777
13840000000 -24.764769 2.2751799 -37.340237 135.13969 -37.344433 133.76762 -13.671092 -92.985924
13850000000 -26.460354 -8.974225 -37.35648 116.15136 -37.385841 114.97505 -14.062106 -96.151199
13860000000 -27.693638 -18.609898 -37.370003 95.148682 -37.359665 93.966164 -14.401269 -99.551498
13870000000 -31.391497 -17.859972 -37.060513 74.400932 -37.050663 73.455093 -14.680176 -102.53902
13880000000 -32.136253 -2.5734615 -36.914471 50.394661 -36.854198 48.846138 -14.95103 -105.30447
13890000000 -30.279196 17.450583 -37.080975 27.556995 -37.100922 26.393959 -15.269066 -108.49185
13900000000 -27.871449 2.8316898 -37.284744 5.2422013 -37.315098 4.1714606 -15.624468 -112.36043
13910000000 -27.183285 0.43981498 -37.503448 -14.012406 -37.574677 -15.090508 -15.956668 -116.7161
13920000000 -26.228575 -15.606682 -37.275772 -34.237118 -37.172127 -35.153828 -16.204504 -120.57232
13930000000 -27.530014 -27.191225 -36.771236 -56.728146 -36.766552 -58.488182 -16.369228 -123.93776
13940000000 -28.089466 -35.470322 -36.966293 -80.857872 -36.974094 -82.098709 -16.574455 -126.93434
13950000000 -30.407637 -41.519253 -36.857288 -101.75271 -36.851078 -103.24601 -16.957661 -130.14479
13960000000 -31.118282 -41.307835 -36.834587 -125.35456 -36.862114 -126.51753 -17.475159 -134.20557
13970000000 -31.633844 -36.40414 -36.980381 -148.35533 -36.944733 -149.61765 -17.990463 -139.8988
13980000000 -30.953327 -40.977131 -37.266243 -170.57423 -37.241936 -171.68881 -18.388123 -147.05907
13990000000 -29.763069 -46.223919 -37.37072 170.63564 -37.349091 169.41281 -18.543028 -154.24423
14000000000 -29.215168 -60.000248 -36.838657 149.84822 -36.907032 148.67842 -18.453396 -161.05267
14010000000 -29.506783 -64.60054 -36.695461 125.52406 -36.646378 124.35518 -18.269859 -167.39745
14020000000 -29.562479 -63.859558 -36.62315 101.86001 -36.617474 100.61143 -18.13834 -173.32399
14030000000 -29.018473 -67.361488 -36.879238 78.182152 -36.826237 77.06398 -18.036039 -179.12682
14040000000 -28.655077 -70.074348 -37.073639 57.647629 -37.101875 56.151276 -17.959452 174.94122
14050000000 -28.036032 -74.504211 -36.936886 36.241936 -36.908066 35.36121 -17.841064 169.54016
14060000000 -28.426552 -86.033737 -36.712196 14.207179 -36.767731 12.610355 -17.596922 163.93103
14070000000 -28.882223 -96.273994 -36.636402 -9.2939529 -36.573418 -10.475507 -17.366421 158.27373
14080000000 -29.823175 -114.55036 -36.621998 -33.378735 -36.642006 -34.816547 -17.117104 152.9321
14090000000 -33.753445 -121.4187 -36.98101 -55.179962 -37.023251 -56.203312 -16.885206 147.2999
14100000000 -34.504013 -111.9162 -36.811031 -76.625679 -36.842079 -77.503403 -16.621729 141.42595
14110000000 -33.220749 -92.668129 -36.814922 -99.542015 -36.854359 -100.74565 -16.29837 135.35458
14120000000 -29.942488 -98.14222 -37.086227 -121.45445 -37.049648 -122.42624 -15.843112 129.77567
14130000000 -27.621922 -106.26311 -36.869213 -143.20114 -36.880966 -143.91972 -15.307995 124.8472
14140000000 -25.781485 -120.69574 -36.972748 -165.59088 -36.984165 -166.36647 -14.769077 120.74051
14150000000 -25.700266 -136.4859 -36.84787 172.31914 -36.840775 171.4295 -14.360984 116.73976
14160000000 -25.726297 -152.53043 -36.832817 149.81721 -36.79269 149.12636 -14.052942 112.78815
14170000000 -28.253042 -169.88596 -36.802727 127.38747 -36.753143 126.12394 -13.741541 108.36929
14180000000 -31.394369 -173.41536 -36.756535 105.05468 -36.721558 103.94879 -13.361191 103.66632
14190000000 -35.258083 -151.03305 -36.631481 82.194649 -36.582081 80.89473 -12.876355 99.07476
14200000000 -32.036362 -124.28341 -36.749985 57.656673 -36.776764 56.696072 -12.399717 95.054436
14210000000 -28.095322 -125.58955 -37.02953 37.473488 -37.043015 36.557823 -11.958495 91.57132
14220000000 -25.482288 -139.39464 -36.806683 15.327756 -36.802402 14.488539 -11.573556 88.255226
14230000000 -24.352188 -156.66771 -36.712032 -5.6037164 -36.670429 -6.6620326 -11.234587 84.661865
14240000000 -24.434162 -172.12929 -36.402603 -28.020111 -36.453308 -28.997374 -10.927264 80.830345
14250000000 -25.485868 174.92775 -36.195354 -51.792446 -36.143742 -52.830875 -10.611609 77.271919
14260000000 -27.939142 163.88129 -36.131222 -75.374779 -36.09964 -76.667175 -10.272138 73.702415
14270000000 -31.490877 171.78271 -36.108974 -99.782288 -36.105381 -100.82591 -9.9590197 70.125374
14280000000 -32.629997 -163.69273 -36.227207 -122.43562 -36.206276 -123.34306 -9.7229042 66.330261
14290000000 -28.58873 -147.35452 -36.283161 -143.47391 -36.259426 -144.09192 -9.5209169 62.422924
14300000000 -27.006721 -158.63646 -35.995918 -165.97913 -35.9431 -166.70518 -9.2861843 58.354378
14310000000 -25.319668 -167.16948 -35.730537 170.91206 -35.685711 169.88951 -9.0096836 54.137306
14320000000 -25.54064 174.42787 -35.467251 147.35394 -35.436584 146.5948 -8.7107344 50.034393
14330000000 -25.956093 170.39337 -35.296352 123.34289 -35.276161 122.38389 -8.4553099 46.367104
14340000000 -27.328497 158.12833 -35.167683 98.818504 -35.113075 97.669342 -8.2387352 43.024937
14350000000 -29.085989 167.40523 -35.276352 74.337799 -35.221004 73.39476 -8.0614786 39.552166
14360000000 -29.875448 172.86217 -35.121376 51.441299 -35.121971 50.001972 -7.9636955 35.67445
14370000000 -28.578812 -176.4333 -35.104687 26.448627 -35.088989 25.443638 -7.9145794 31.444033
14380000000 -28.050209 177.03981 -34.913425 3.4724963 -34.935196 2.5255766 -7.8878155 27.150913
14390000000 -27.628401 -179.7402 -34.895229 -21.741119 -34.896805 -22.434748 -7.8117499 22.878204
14400000000 -27.80492 172.38451 -34.897282 -45.553314 -34.825237 -46.844688 -7.7010026 18.506155
14410000000 -27.832661 174.7076 -34.835102 -69.718933 -34.813789 -70.676834 -7.6213889 14.103829
14420000000 -27.925726 172.17322 -34.817738 -93.350571 -34.792313 -94.841225 -7.620234 9.992732
14430000000 -27.240902 173.34378 -34.634415 -119.12011 -34.634453 -120.22817 -7.6544046 6.2055626
14440000000 -27.192928 167.2989 -34.804775 -143.34787 -34.803055 -144.26212 -7.6819329 2.3648331
14450000000 -26.887356 166.37454 -34.931454 -168.35732 -34.901295 -169.59549 -7.7521729 -1.9343158
14460000000 -28.079929 161.22063 -35.002308 169.01181 -34.946888 168.20761 -7.9072137 -6.2496781
14470000000 -29.208735 167.61664 -35.070568 143.714 -35.069935 142.57616 -8.0962181 -10.162569
14480000000 -29.46764 -175.98524 -35.16436 121.68949 -35.09053 120.55293 -8.3049126 -14.231877
14490000000 -27.543316 -171.326 -34.863911 97.680504 -34.820175 96.042007 -8.5677319 -18.758324
14500000000 -26.053719 -168.07408 -34.821598 71.499199 -34.752754 70.211449 -8.8871508 -23.779232
14510000000 -24.716805 -179.36488 -34.944378 46.202213 -34.932205 44.701138 -9.2027578 -28.799673
14520000000 -24.930861 173.78703 -35.236378 22.767548 -35.215321 21.651943 -9.4363775 -33.481613
14530000000 -25.001963 159.54036 -35.092354 -0.68476576 -35.076973 -2.0330682 -9.6126003 -37.710228
14540000000 -27.801788 160.20837 -35.129543 -24.192759 -35.108299 -25.448118 -9.8772669 -41.713261
14550000000 -28.818735 164.90018 -35.13575 -49.190666 -35.038784 -50.574093 -10.33163 -45.387222
14560000000 -28.661772 -169.51683 -35.229889 -72.589531 -35.195255 -74.348434 -10.891649 -48.732258
14570000000 -25.740412 -167.14555 -35.099445 -96.215202 -35.014286 -97.706467 -11.43165 -52.856068
14580000000 -23.450802 -167.73833 -34.940113 -121.9956 -34.950535 -123.76994 -11.983232 -58.045078
14590000000 -22.139391 177.26872 -35.085484 -147.40598 -35.069405 -148.99347 -12.60065 -63.658714
14600000000 -22.288946 170.86551 -35.373798 -172.04469 -35.357716 -173.15569 -13.282415 -68.7509
14610000000 -22.872299 157.69817 -35.391304 165.13686 -35.343391 163.78857 -13.947125 -73.503914
14620000000 -25.187649 158.75055 -35.453934 141.32603 -35.438671 140.0475 -14.636594 -79.235893
14630000000 -26.261713 165.04056 -35.197853 115.98145 -35.245728 115.15701 -15.323426 -85.684464
14640000000 -25.805529 -176.72227 -35.483288 91.195511 -35.461891 89.704002 -16.054028 -92.428391
14650000000 -23.660685 -173.06041 -35.617695 68.224693 -35.588863 66.535194 -16.726431 -97.903481
14660000000 -21.40451 -178.40244 -35.488373 44.455708 -35.497623 43.213608 -17.412889 -103.39379
14670000000 -20.784834 170.42564 -35.535828 19.626934 -35.570118 18.124882 -18.433292 -109.54301
14680000000 -20.416866 161.98067 -35.374146 -4.0730553 -35.400124 -5.5655074 -19.741228 -116.9062
14690000000 -21.437174 152.83875 -35.676956 -30.572306 -35.697483 -31.61624 -21.154612 -127.28079
14700000000 -22.34663 154.16728 -35.853771 -53.787823 -35.83477 -55.001984 -22.239748 -140.8362
14710000000 -23.432981 156.81061 -36.006111 -77.17144 -36.039543 -78.153976 -22.616657 -157.33694
14720000000 -23.059473 166.59062 -35.970928 -99.811356 -35.997917 -100.83636 -22.535875 -174.0135
14730000000 -22.092583 169.55951 -35.896378 -123.8559 -35.887619 -125.18054 -22.167376 172.48573
14740000000 -20.482252 165.13533 -35.965885 -147.57278 -35.954967 -148.72301 -21.712599 161.90862
14750000000 -20.412287 157.96338 -35.859676 -171.32846 -35.84156 -172.59769 -21.226587 152.94736
14760000000 -19.896528 152.05075 -35.765724 162.43236 -35.791054 161.16637 -20.845987 143.64157
14770000000 -20.661282 145.95482 -36.145172 138.61121 -36.130882 137.47649 -20.478266 132.99593
14780000000 -20.667526 145.02553 -36.413799 115.83611 -36.414387 115.04037 -19.926008 122.83243
14790000000 -21.243629 144.00748 -36.537834 95.373085 -36.473537 94.444923 -19.099997 114.0643
14800000000 -20.888163 147.69086 -36.12463 72.612602 -36.099033 71.566483 -18.213953 107.37617
14810000000 -20.76296 146.09958 -35.950153 48.182446 -35.958141 47.045509 -17.437786 102.08874
14820000000 -20.31872 145.67493 -35.848564 23.837439 -35.820518 22.869286 -16.826559 97.501938
14830000000 -20.533741 142.9192 -35.881954 -1.5356195 -35.8615 -2.5384233 -16.304873 93.443275
14840000000 -20.339687 141.75549 -36.189487 -23.492823 -36.190926 -24.571192 -15.765486 89.495338
14850000000 -20.749889 139.43462 -35.991776 -47.377228 -35.979507 -48.296215 -15.288281 85.684235
14860000000 -20.261599 139.45259 -36.112972 -69.106369 -36.062222 -70.321945 -14.908846 82.427513
14870000000 -20.393478 133.8085 -35.878029 -92.901054 -35.843666 -94.001404 -14.68917 79.17675
14880000000 -20.121561 130.81354 -35.736446 -115.78741 -35.62101 -117.04413 -14.559894 75.40168
14890000000 -20.513519 124.62452 -35.399303 -139.37119 -35.371948 -140.73537 -14.40655 70.617973
14900000000 -20.854458 121.78532 -35.349262 -165.09398 -35.289574 -166.38228 -14.106303 65.546974
14910000000 -21.835775 122.47965 -35.569729 170.97897 -35.552284 169.88716 -13.685742 61.238888
14920000000 -21.81851 126.43925 -35.63866 148.91808 -35.584747 147.75214 -13.247911 58.539482
14930000000 -21.673256 131.632 -35.4095 126.77422 -35.354862 125.5684 -12.896721 56.52631
14940000000 -20.600477 131.09099 -35.013729 102.5752 -34.948921 101.45065 -12.794987 54.532211
14950000000 -20.08074 128.45343 -34.871891 76.430588 -34.779179 74.973534 -12.843023 52.17252
14960000000 -19.72233 119.10429 -35.039955 52.322411 -34.994011 50.761497 -12.932151 49.116646
14970000000 -20.701141 112.45321 -35.129181 29.409901 -35.087524 28.03161 -12.965796 46.064999
14980000000 -21.903967 104.8443 -34.862961 6.7833381 -34.861839 5.4508896 -12.997445 42.917801
14990000000 -24.123125 109.16689 -34.458847 -17.468859 -34.420582 -18.887405 -13.024673 40.128933
15000000000 -24.869219 115.62943 -34.351505 -44.29155 -34.331982 -45.827583 -13.198227 36.865707
15010000000 -24.376205 130.01807 -34.454586 -71.128693 -34.461079 -72.114128 -13.409123 33.585117
15020000000 -22.5606 128.70021 -35.032028 -94.891029 -35.02816 -95.930893 -13.490443 30.071861
15030000000 -21.430479 125.00402 -35.174404 -116.2434 -35.140221 -117.40997 -13.46408 27.070959
15040000000 -20.8575 113.02092 -35.039616 -136.89978 -34.997108 -138.2513 -13.36266 25.384115
15050000000 -21.671478 104.68329 -34.632874 -160.72461 -34.59367 -161.92769 -13.421683 24.675352
15060000000 -23.391787 97.943771 -34.316452 174.92581 -34.281364 173.74098 -13.71347 24.55999
15070000000 -25.812073 103.17936 -34.080166 146.55562 -34.085079 145.22588 -14.243237 24.029762
15080000000 -27.200592 119.50031 -34.623604 120.13921 -34.624676 119.12026 -14.893977 23.322882
15090000000 -25.61375 135.9157 -35.023579 96.190392 -35.00053 95.171288 -15.422318 21.701368
15100000000 -23.708754 136.63316 -35.481026 74.604279 -35.438171 74.041939 -15.842666 19.847433
15110000000 -22.637136 128.5601 -35.282429 53.83427 -35.279633 52.994305 -16.209957 18.596869
15120000000 -22.65489 119.33802 -35.00338 30.573689 -34.956059 29.44718 -16.512894 18.738569
15130000000 -23.326031 110.70526 -34.78373 5.8712316 -34.772289 4.5717874 -16.81105 19.210495
15140000000 -24.964125 107.71478 -34.875145 -19.350126 -34.863674 -20.364666 -17.048912 20.337816
15150000000 -26.298124 114.93852 -35.06802 -43.494759 -35.012573 -44.523232 -17.185856 22.080151
15160000000 -26.635279 127.66392 -35.109188 -67.774185 -35.06052 -69.034874 -17.226873 24.991238
15170000000 -24.970261 136.97716 -35.353157 -91.362404 -35.285061 -92.299858 -17.155746 28.477819
15180000000 -23.46629 133.97821 -35.323017 -114.63679 -35.295677 -115.54322 -17.156406 32.515442
15190000000 -22.676689 129.56058 -35.353088 -138.90315 -35.35733 -139.85982 -17.226549 36.462364
15200000000 -22.923964 124.44058 -35.654922 -162.58977 -35.573761 -163.53177 -17.305647 39.593521
15210000000 -23.137054 122.1545 -35.67099 173.54918 -35.635895 172.63524 -17.346708 41.406937
15220000000 -23.940176 122.44316 -36.007111 150.62558 -35.985733 149.47581 -17.284136 42.128769
15230000000 -23.87694 125.08212 -35.821175 129.72119 -35.823444 128.51366 -17.084103 42.309502
15240000000 -23.968729 126.5354 -35.608337 104.7919 -35.614182 104.1794 -16.747311 42.408817
15250000000 -23.278521 127.13625 -35.487797 80.284592 -35.435425 79.501991 -16.280985 42.02784
15260000000 -23.134211 122.88188 -35.682602 52.70816 -35.654308 51.745052 -15.778897 41.350323
15270000000 -23.237101 122.66759 -36.387665 29.597506 -36.34465 28.91728 -15.253194 41.326767
15280000000 -23.256594 120.68711 -36.618172 8.5523205 -36.623249 7.7423587 -14.697552 41.530476
15290000000 -23.014254 123.41003 -36.705563 -11.809267 -36.682087 -12.447775 -14.257002 41.755722
15300000000 -22.56613 121.30931 -36.342037 -33.869347 -36.268349 -34.637947 -14.026793 42.074764
15310000000 -22.196899 119.95409 -35.927261 -59.606541 -35.888634 -60.750893 -13.900297 42.179451
15320000000 -21.822365 114.27445 -36.044495 -85.392746 -36.06414 -86.648079 -13.748963 41.134815
15330000000 -22.175474 109.83655 -36.274632 -112.39555 -36.232681 -113.40424 -13.626873 38.554073
15340000000 -22.848526 103.05183 -36.947594 -135.32404 -36.98267 -135.67036 -13.477573 35.547085
15350000000 -24.570513 107.27 -37.265194 -156.17899 -37.195675 -156.99574 -13.314121 32.811916
15360000000 -24.520226 109.77419 -37.088696 -176.41994 -37.032314 -177.21695 -13.137925 30.615629
15370000000 -24.718235 120.53243 -36.67424 160.45401 -36.672253 159.339 -12.962271 28.17662
15380000000 -22.781332 117.6449 -36.430058 134.0024 -36.385387 132.98431 -12.753017 25.348185
15390000000 -22.26561 112.42557 -36.586464 106.99792 -36.535858 106.13358 -12.510324 22.375639
15400000000 -21.659796 100.71499 -37.298237 81.448341 -37.237743 80.327927 -12.256085 20.089907
15410000000 -22.631269 92.090576 -37.753838 61.438644 -37.731956 60.401646 -12.018678 18.347206
15420000000 -23.714062 80.655174 -37.642994 41.306561 -37.598412 40.509319 -11.986886 16.607172
15430000000 -26.521883 82.767212 -37.295311 17.771442 -37.339203 16.623709 -12.179489 14.622979
15440000000 -28.108648 90.259666 -37.178158 -9.1608114 -37.095787 -10.00116 -12.470201 11.860973
15450000000 -28.135372 111.78615 -37.388935 -34.514561 -37.342678 -35.421799 -12.671357 7.4523997
15460000000 -25.753778 112.46972 -37.70713 -59.359432 -37.72031 -60.603348 -12.762278 1.9361273
15470000000 -24.365917 107.79882 -37.99078 -81.197159 -37.984711 -82.585297 -12.754253 -3.2652605
15480000000 -23.571997 92.046921 -38.145351 -105.73125 -38.204483 -106.59972 -12.769458 -7.3497353
15490000000 -24.555267 78.389893 -38.132721 -127.37383 -38.142159 -128.41704 -12.811051 -10.433168
15500000000 -25.889961 61.716251 -38.186741 -152.39967 -38.165306 -153.50026 -12.940534 -13.600446
15510000000 -29.648359 54.788227 -38.338379 -177.30554 -38.294491 -178.25394 -13.195142 -16.981995
15520000000 -33.916584 50.091599 -38.548454 158.60301 -38.627827 157.40134 -13.521401 -20.434874
15530000000 -36.568993 108.96815 -39.135803 135.1194 -39.143833 134.66951 -13.928815 -23.683247
15540000000 -32.952496 112.96124 -39.168888 114.01737 -39.077698 112.91351 -14.368372 -27.289921
15550000000 -29.599642 112.75319 -39.145424 89.051048 -39.141006 87.95063 -14.945385 -32.181412
15560000000 -29.203329 89.125633 -39.359394 64.081322 -39.374386 63.446381 -15.706255 -38.283875
15570000000 -30.673805 74.224739 -39.574127 41.308624 -39.621918 40.357063 -16.473698 -45.028877
15580000000 -32.774067 46.822842 -40.337448 17.899927 -40.339203 17.389282 -17.02389 -52.370869
15590000000 -39.808266 30.151569 -40.096943 -1.2623837 -39.994331 -2.7569029 -17.337122 -60.684826
15600000000 -41.58749 -26.787949 -40.251022 -23.99221 -40.259453 -25.286194 -17.649815 -68.485527
15610000000 -40.352707 -132.31975 -39.647957 -48.780762 -39.602074 -50.059586 -18.144802 -74.73452
15620000000 -40.361595 -140.80197 -39.728443 -76.016563 -39.783176 -77.539558 -18.746906 -79.411964
15630000000 -36.856312 -163.31116 -40.486904 -102.37709 -40.514935 -103.2043 -19.401972 -84.529518
15640000000 -40.684994 -158.08951 -41.200413 -122.18472 -41.118725 -123.3292 -20.43428 -92.708061
15650000000 -36.20813 -158.98581 -41.56163 -143.68962 -41.474136 -144.64168 -21.674761 -104.26876
15660000000 -38.272568 -146.2332 -41.444469 -163.95985 -41.423985 -165.12036 -22.617136 -119.45212
15670000000 -34.934345 -151.5419 -41.51276 173.90918 -41.518074 172.31377 -22.625467 -134.45244
15680000000 -35.517532 -135.41368 -41.256741 152.05089 -41.23455 151.0829 -21.797886 -146.80089
15690000000 -32.706047 -133.8058 -40.806713 129.49733 -40.797848 127.89516 -21.049362 -157.55652
15700000000 -30.523972 -124.99357 -40.703014 101.60832 -40.66317 99.879196 -20.572477 -166.58078
15710000000 -28.288794 -129.78935 -40.974659 74.921303 -40.988472 73.43116 -20.242907 -174.61891
15720000000 -26.047564 -135.20534 -42.06086 48.427402 -42.165878 47.109245 -19.774733 178.43501
15730000000 -25.480659 -147.37599 -42.748371 31.089119 -42.837681 28.856915 -19.165985 172.1456
15740000000 -25.435318 -154.66411 -42.553188 12.021148 -42.582016 11.038382 -18.74995 165.62311
15750000000 -26.416979 -163.4109 -42.190071 -9.1545238 -42.141537 -10.602616 -18.55224 158.7243
15760000000 -27.960066 -160.69887 -42.18634 -34.509865 -42.096722 -35.596439 -18.296768 151.65645
15770000000 -28.914574 -148.33112 -42.051838 -55.578354 -42.062382 -56.804592 -17.617664 144.16409
15780000000 -27.161745 -130.99503 -41.882378 -81.348694 -41.878494 -82.253067 -16.718733 137.83488
15790000000 -24.547657 -132.46207 -42.081593 -108.6699 -42.068649 -109.88227 -15.829499 133.81911
15800000000 -22.436367 -139.29422 -43.041481 -133.11168 -43.026421 -134.15944 -15.177966 132.10559
15810000000 -21.636332 -150.45676 -43.606113 -154.12543 -43.515972 -154.43748 -14.755251 131.47401
15820000000 -21.535265 -160.53 -43.964664 -170.52202 -43.946953 -172.23669 -14.490069 129.99997
15830000000 -22.387936 -167.68263 -43.61824 168.26883 -43.57893 166.70068 -14.390302 127.02296
15840000000 -24.060242 -166.81039 -43.375233 147.01355 -43.312778 146.10371 -14.339128 123.38386
15850000000 -25.115688 -159.00169 -43.187237 122.51254 -43.206657 121.58017 -14.193927 119.54177
15860000000 -24.449055 -141.03093 -42.983601 99.600273 -43.010933 98.340004 -13.91832 115.78729
15870000000 -22.306387 -139.75294 -43.230114 74.65657 -43.167675 73.505791 -13.568058 112.06303
15880000000 -20.867901 -142.7252 -43.496578 52.071495 -43.437767 50.291744 -13.222306 108.37865
15890000000 -19.972815 -151.42488 -43.881073 29.150814 -43.764835 28.28511 -12.8619 105.51659
15900000000 -20.016499 -160.19374 -44.440369 7.5630531 -44.359348 6.5093031 -12.455314 103.24271
15910000000 -20.525875 -166.15868 -44.889343 -9.7082758 -44.776962 -10.409425 -12.088017 101.39439
15920000000 -21.592859 -166.97908 -44.16954 -26.026541 -44.168011 -26.980524 -11.818216 99.933723
15930000000 -22.286388 -160.89279 -43.057369 -49.179359 -42.950943 -51.055004 -11.682868 98.735313
15940000000 -21.825594 -151.73442 -42.782047 -77.462868 -42.729984 -79.020348 -11.610586 97.578537
15950000000 -20.431635 -147.92999 -43.367165 -102.19212 -43.289188 -103.76629 -11.582554 95.717316
15960000000 -19.48937 -149.3452 -43.807732 -124.33257 -43.827614 -125.80627 -11.604817 93.158272
15970000000 -18.623871 -152.96883 -43.807423 -143.04022 -43.726189 -144.5639 -11.628013 90.103622
15980000000 -18.623823 -157.30867 -43.695839 -163.81367 -43.615341 -165.79129 -11.545534 86.940147
15990000000 -18.786844 -158.82722 -43.469536 174.62489 -43.447834 172.85941 -11.314892 83.772202
16000000000 -19.174829 -159.88937 -43.145424 153.09183 -43.200665 151.79407 -11.03258 80.861893
16010000000 -19.204916 -156.4917 -42.899712 130.92599 -42.808617 128.99228 -10.775056 78.885796
16020000000 -18.981638 -154.9579 -42.547417 107.47457 -42.543346 106.09173 -10.602131 77.671288
16030000000 -18.422939 -152.78493 -42.421616 81.718666 -42.427876 80.010193 -10.51515 76.67131
16040000000 -17.731192 -153.87227 -42.918999 59.245541 -42.752872 56.942074 -10.50207 75.2061
16050000000 -17.280165 -155.61893 -43.11356 37.660576 -43.088085 35.490055 -10.562532 73.152473
16060000000 -17.030638 -156.91771 -42.576176 19.535238 -42.606087 17.342903 -10.658568 70.666168
16070000000 -16.715408 -156.83499 -42.145325 -5.045917 -42.170364 -6.6084085 -10.70543 68.059509
16080000000 -16.466007 -157.16232 -41.89056 -28.812054 -41.903969 -31.447403 -10.75242 65.311203
16090000000 -16.09729 -157.30997 -41.834766 -52.565872 -41.889381 -54.222416 -10.797733 62.253391
16100000000 -15.882011 -158.28772 -42.014153 -75.80854 -42.057987 -78.09539 -10.855398 58.991444
16110000000 -15.716711 -158.98351 -41.852409 -97.324356 -41.915615 -98.799187 -10.846992 55.757469
16120000000 -15.52564 -159.47032 -41.592232 -120.19994 -41.572701 -122.30792 -10.701113 53.052139
16130000000 -15.399017 -159.57791 -41.435291 -144.38849 -41.479427 -145.82259 -10.513048 50.99511
16140000000 -15.206899 -158.51317 -41.222324 -167.49251 -41.312241 -169.14777 -10.428662 49.697449
16150000000 -14.553099 -158.76132 -41.163353 167.25616 -41.208973 165.46376 -10.53409 48.607841
16160000000 -14.115067 -159.59518 -41.650944 142.65848 -41.714493 141.24022 -10.857818 47.13055
16170000000 -13.507361 -162.12627 -41.854134 121.13239 -41.915771 119.73304 -11.288659 44.52425
16180000000 -13.279179 -164.61171 -42.068558 101.67362 -42.058746 100.4977 -11.702275 40.807915
16190000000 -13.137052 -166.91209 -41.547245 81.950333 -41.559498 80.24958 -11.993668 36.396595
16200000000 -13.310536 -167.50652 -40.790272 58.456665 -40.804104 56.501732 -12.211806 32.213715
16210000000 -13.191562 -166.70776 -40.356686 30.765228 -40.386848 29.153921 -12.337139 28.507746
16220000000 -13.126498 -164.53943 -40.654694 3.6361487 -40.685841 2.8089116 -12.531437 24.236971
16230000000 -12.44393 -164.44292 -41.138855 -19.065006 -41.16156 -21.082426 -12.824711 20.32674
16240000000 -12.034155 -164.79738 -41.588673 -40.876331 -41.629097 -42.597591 -13.19348 17.266556
16250000000 -11.498616 -168.68198 -41.497993 -61.063667 -41.532612 -62.412788 -13.488262 15.801882
16260000000 -11.362024 -171.60376 -41.581932 -81.417198 -41.521801 -82.067757 -13.843738 14.776715
16270000000 -11.237861 -174.82304 -40.915558 -104.67268 -40.883686 -106.48667 -14.434704 13.262625
16280000000 -11.435252 -176.4911 -40.937851 -128.15074 -40.900864 -129.94957 -15.450266 10.275127
16290000000 -11.390602 -176.30127 -40.636669 -153.89108 -40.556499 -154.56596 -16.781586 6.0469599
16300000000 -11.23219 -175.05518 -40.581192 -178.24397 -40.630352 -179.04913 -18.053951 0.085256837
16310000000 -10.722135 -174.46584 -40.796867 157.43048 -40.743763 156.46826 -19.159985 -8.0544395
16320000000 -10.314244 -175.23744 -40.707424 131.7924 -40.668293 130.50877 -20.174673 -15.419396
16330000000 -9.823844 -177.16418 -41.397133 106.20614 -41.328259 104.28425 -21.258968 -22.444372
16340000000 -9.696557 -179.80844 -41.761791 84.230484 -41.791763 83.252777 -22.674335 -28.581453
16350000000 -9.6285028 177.76837 -42.187737 65.266403 -42.184032 64.044502 -24.205 -33.710514
16360000000 -9.7518425 176.33115 -41.83329 46.15855 -41.802933 45.115833 -26.389347 -40.764153
16370000000 -9.7258158 175.83064 -41.236168 20.63113 -41.252193 19.649456 -29.979248 -49.497684
16380000000 -9.6351671 175.62299 -41.233227 -3.1730134 -41.212437 -4.701004 -37.151642 -79.927414
16390000000 -9.3574047 174.96623 -41.419716 -30.570353 -41.324608 -32.142578 -34.632935 -171.89293
16400000000 -9.0941334 174.10867 -41.799408 -55.675663 -41.782352 -56.546387 -28.040709 170.32619
16410000000 -8.7314272 172.49547 -42.737686 -78.967911 -42.656696 -80.008949 -24.602636 166.79117
16420000000 -8.5723219 170.88197 -43.018993 -96.685883 -42.980343 -97.055161 -22.796589 164.36714
16430000000 -8.3928099 169.28732 -42.97979 -118.10169 -42.825817 -118.77862 -21.695639 162.06242
16440000000 -8.3233595 168.49339 -42.815632 -142.26961 -42.757919 -143.84715 -20.588573 158.4426
16450000000 -8.171546 167.5609 -42.802658 -164.91409 -42.730072 -166.64345 -19.569874 153.55576
16460000000 -8.1105061 166.61392 -43.123837 171.23116 -43.122448 169.90637 -18.590292 148.7932
16470000000 -7.990591 165.98419 -42.934124 148.76085 -42.942329 146.67877 -17.867962 144.03754
16480000000 -7.8972259 164.98399 -43.645279 122.67461 -43.575611 121.37518 -17.250254 139.16461
16490000000 -7.7556944 163.67517 -43.77655 102.5275 -43.776184 101.42271 -16.572618 134.05412
16500000000 -7.6742315 163.1463 -44.326065 77.462662 -44.074806 76.931335 -15.743656 129.89676
16510000000 -7.4351439 161.91731 -44.738987 59.114422 -44.740814 57.104031 -14.834314 127.37605
16520000000 -7.2484999 161.0757 -44.953232 38.354385 -44.884453 36.501804 -14.056849 126.49487
16530000000 -6.973393 159.41333 -44.818222 17.957491 -44.702797 15.6547 -13.541998 125.98851
16540000000 -6.8972483 157.98045 -44.717571 -5.6835957 -44.667793 -7.3768749 -13.299682 124.69859
16550000000 -6.7412877 156.66388 -44.609486 -31.119547 -44.505638 -33.171455 -13.215572 122.12158
16560000000 -6.7770333 155.91304 -45.181778 -58.444992 -45.132469 -59.822109 -13.122024 118.78639
16570000000 -6.6830668 155.50549 -46.141193 -80.556564 -46.244858 -81.945808 -12.87939 115.60584
16580000000 -6.5912166 155.63251 -46.63633 -97.889702 -46.357437 -99.124023 -12.553453 112.66913
16590000000 -6.3294921 155.112 -46.5378 -118.64548 -46.481056 -120.41413 -12.249798 110.09071
16600000000 -6.1118722 153.8414 -46.807331 -141.50952 -46.633427 -142.72046 -11.961449 107.65292
16610000000 -5.8698645 152.04622 -47.290962 -164.28639 -47.215698 -165.95059 -11.678816 104.78352
16620000000 -5.7727513 150.02773 -47.559811 177.79773 -47.695698 176.05527 -11.335352 102.2635
16630000000 -5.69379 148.28107 -47.697838 157.61089 -47.823986 156.21149 -10.97034 100.44753
16640000000 -5.6886048 147.29567 -47.77145 137.71858 -47.763058 135.62245 -10.691408 99.626991
16650000000 -5.555253 147.05161 -47.484409 115.62401 -47.658825 114.39112 -10.516589 99.085182
16660000000 -5.401876 146.83403 -47.377712 92.391426 -47.32077 90.731354 -10.512648 97.949951
16670000000 -5.0842876 146.3053 -48.007454 65.512833 -48.087193 64.053612 -10.610267 95.833878
16680000000 -4.8679194 145.08965 -49.15937 41.114201 -49.404129 41.586349 -10.641695 92.661728
16690000000 -4.6415129 143.54292 -50.181942 28.791727 -50.352528 27.69166 -10.583013 89.024651
16700000000 -4.5468755 141.68491 -49.827881 16.573601 -49.801373 16.630796 -10.413242 85.781242
16710000000 -4.4804688 140.29568 -48.452816 -7.1253409 -48.694199 -8.1684141 -10.207339 83.15097
16720000000 -4.4699945 139.09363 -48.83773 -30.684748 -48.91795 -31.587553 -10.012483 81.106575
16730000000 -4.3216143 138.43491 -48.466785 -54.386589 -48.489986 -55.365093 -9.87467 79.430283
16740000000 -4.1771245 137.62344 -48.941338 -77.030167 -49.21859 -79.08477 -9.7251835 78.005455
16750000000 -3.9307563 136.43179 -49.073147 -99.546501 -49.263672 -98.973213 -9.5954485 76.49279
16760000000 -3.7185595 134.95035 -49.635082 -120.36579 -49.67083 -119.49534 -9.5529823 74.969452
16770000000 -3.5433531 133.2803 -49.723488 -139.72867 -49.648609 -140.92828 -9.5826874 73.452744
16780000000 -3.4287231 131.62601 -49.794426 -158.22884 -49.725857 -159.13373 -9.6783009 71.608215
16790000000 -3.3379076 130.21657 -49.466888 -177.75656 -49.468262 -178.48959 -9.8201065 69.221565
16800000000 -3.288434 129.19862 -49.230324 156.63388 -48.963421 157.64059 -9.8941793 66.107674
16810000000 -3.1509995 128.12129 -49.041191 135.34135 -49.237507 134.90854 -9.9218912 62.325237
16820000000 -3.0221648 126.87402 -49.037514 112.71181 -48.972088 111.28786 -9.9005156 58.413021
16830000000 -2.8626773 125.39938 -49.437748 89.12574 -49.207909 86.725983 -9.8163118 54.919357
16840000000 -2.7284873 123.77546 -49.370972 67.759987 -49.152836 65.503784 -9.7036629 52.128254
16850000000 -2.5727048 121.99715 -49.447857 44.168835 -49.22155 41.995926 -9.5585833 50.169582
16860000000 -2.4864075 120.28485 -49.862362 20.958426 -49.594574 18.954081 -9.4637203 48.725056
16870000000 -2.3784318 118.765 -50.130775 3.0665209 -50.095631 0.20948704 -9.4551353 47.595062
16880000000 -2.2848706 117.49617 -49.749527 -18.047825 -49.570755 -21.335499 -9.5689344 46.114502
16890000000 -2.1635602 116.18813 -49.22102 -41.268723 -49.242695 -42.280872 -9.7934027 43.801125
16900000000 -2.0588694 114.99785 -49.012684 -70.571449 -49.093929 -72.830498 -10.069604 40.556572
16910000000 -1.9328719 113.56628 -49.587818 -96.413933 -49.487312 -98.848961 -10.277201 36.670433
16920000000 -1.8502622 112.11272 -50.853661 -122.40946 -50.777927 -123.17488 -10.355042 32.272896
16930000000 -1.7568136 110.49212 -51.754253 -138.2267 -51.647366 -141.32967 -10.355064 27.65926
16940000000 -1.6963764 108.92223 -51.339661 -155.23433 -51.049229 -157.89865 -10.344245 23.447378
16950000000 -1.6063983 107.23898 -50.819458 -179.38261 -50.855694 178.33528 -10.366529 19.793871
16960000000 -1.527594 105.60249 -50.507484 155.80856 -50.738998 153.01715 -10.374519 16.612738
16970000000 -1.4304558 103.96784 -50.972485 129.07935 -50.970352 128.17598 -10.43526 13.617334
16980000000 -1.3507792 102.36358 -51.56535 104.98907 -51.583122 101.50787 -10.56431 10.764693
16990000000 -1.2547297 100.77444 -51.571716 82.099266 -51.711941 80.572037 -10.79235 7.8040795
17000000000 -1.1783739 99.29673 -52.248402 55.470932 -52.476913 53.555199 -11.070293 4.4998245
