!Keysight Technologies,P9374A,MY57211807,A.19.30.04
!Date: Friday, May 08, 2026 14:25:28
!Correction: S11(C  2-Port  ) 
!S21(C  2-Port  ) 
!S12(C  2-Port  ) 
!S22(C  2-Port  ) 
!S2P File: Measurements: S11, S21, S12, S22:
# Hz S  dB   R 50
13000000000 -18.811277 57.504135 -45.89814 108.1827 -45.822865 107.2799 -11.256781 -99.223892
13010000000 -18.907551 57.129177 -45.434975 94.169785 -45.549129 92.827972 -11.580056 -103.06841
13020000000 -19.632092 59.43544 -44.668682 72.319 -44.427467 72.242783 -11.942501 -107.33685
13030000000 -19.533371 62.493355 -43.803913 45.988071 -43.958504 43.631969 -12.350556 -111.74896
13040000000 -19.748457 63.051647 -44.659595 21.495815 -44.593407 19.997301 -12.804507 -116.51901
13050000000 -19.596792 64.065697 -44.809727 -0.58487743 -44.888241 -1.303219 -13.256668 -121.7095
13060000000 -19.845106 63.402966 -45.316978 -23.695435 -45.187881 -21.949831 -13.644495 -127.58424
13070000000 -19.835024 62.590359 -46.051399 -38.12682 -45.809559 -38.970833 -13.913311 -133.88062
13080000000 -19.962343 63.704323 -44.763515 -55.606674 -44.337875 -57.413239 -14.090957 -139.90883
13090000000 -19.502449 62.484852 -44.524857 -82.467598 -44.481075 -84.002632 -14.332411 -145.4377
13100000000 -19.598852 61.697685 -44.758694 -104.35434 -44.550365 -105.36848 -14.630898 -150.88426
13110000000 -19.275963 60.652088 -44.772484 -125.7188 -44.588371 -126.92107 -15.007901 -156.80078
13120000000 -19.572561 59.513618 -44.863598 -147.90761 -44.581535 -150.18153 -15.309791 -163.8914
13130000000 -19.605225 59.325943 -44.751041 -166.00375 -44.78075 -167.92336 -15.469254 -171.64241
13140000000 -19.841873 62.414051 -43.794224 171.99142 -43.739689 167.96844 -15.511432 -178.97238
13150000000 -19.473577 62.465843 -43.710484 143.36964 -43.998341 141.34317 -15.526138 173.98837
13160000000 -19.414358 63.590611 -44.765171 117.34659 -44.953671 117.22678 -15.564133 166.95197
13170000000 -19.231409 60.999401 -45.278168 101.39889 -45.373684 100.23427 -15.565246 158.93817
13180000000 -19.348612 59.728161 -45.111164 82.361984 -44.922764 80.724991 -15.389778 150.57614
13190000000 -19.235483 58.361076 -44.47506 62.308121 -44.557449 57.115978 -14.990891 142.86678
13200000000 -19.299185 55.982506 -44.149399 38.950069 -44.632935 36.346451 -14.557254 136.53816
13210000000 -19.276846 55.431377 -43.562908 12.82598 -43.789402 14.311247 -14.183843 131.31174
13220000000 -19.192825 53.08189 -43.891258 -12.759592 -43.761265 -12.548312 -13.949633 125.87599
13230000000 -19.431267 51.432503 -44.332767 -41.369099 -44.007103 -43.464115 -13.725667 119.49484
13240000000 -19.54324 52.283379 -45.878727 -61.482052 -45.542686 -64.282738 -13.406155 112.42648
13250000000 -19.582987 52.196262 -45.829811 -79.154251 -46.259708 -82.434013 -12.882712 105.83245
13260000000 -19.529327 54.205345 -45.954987 -96.669106 -46.048168 -95.969582 -12.292972 100.24812
13270000000 -19.161911 52.881706 -45.16222 -119.08939 -45.05901 -118.08006 -11.804423 95.948349
13280000000 -18.935997 50.589977 -44.9888 -145.05283 -44.516541 -145.98708 -11.418113 92.001221
13290000000 -19.064529 45.966045 -45.027637 -172.18094 -44.563938 -175.70151 -11.135581 87.68029
13300000000 -19.387955 43.082542 -45.622143 161.72572 -45.837681 157.26851 -10.85298 82.926414
13310000000 -19.786478 41.06142 -47.014637 138.97592 -47.105804 138.28224 -10.478524 77.857803
13320000000 -20.018087 39.495914 -47.179726 123.22691 -47.151543 121.59837 -10.058834 73.132126
13330000000 -20.413881 39.938839 -46.761436 102.96484 -46.571007 100.10305 -9.6991301 69.053734
13340000000 -20.099455 41.945843 -46.681679 77.064537 -46.564777 72.97435 -9.3979168 65.405556
13350000000 -20.10014 39.569107 -47.225937 50.095753 -47.619713 44.144531 -9.1552258 61.59623
13360000000 -19.972004 39.661003 -48.255608 27.386023 -48.681717 26.49402 -8.9270906 57.002209
13370000000 -19.904392 37.294086 -49.274395 11.562825 -49.48011 12.851079 -8.6564407 52.031521
13380000000 -19.789553 35.102081 -48.546597 -7.7775474 -48.546074 -8.1463118 -8.3246651 47.468536
13390000000 -20.20808 31.364325 -48.736782 -36.854122 -48.648262 -39.923615 -7.9653697 43.405132
13400000000 -20.42742 30.316137 -49.081631 -59.39484 -49.845181 -61.242702 -7.6573224 39.925083
13410000000 -20.9673 24.455332 -50.51762 -88.156464 -51.052284 -88.688194 -7.4494238 36.771927
13420000000 -21.784361 25.833101 -51.969894 -102.42441 -52.381561 -97.856964 -7.3032889 33.150372
13430000000 -22.175791 24.67597 -52.512829 -120.10736 -52.348301 -116.42027 -7.1824222 28.974646
13440000000 -22.390392 28.753407 -51.979332 -139.07796 -51.384876 -137.63672 -7.1020441 24.449539
13450000000 -21.795391 29.088129 -52.936531 -159.7336 -52.544533 -160.65887 -6.9583778 20.122374
13460000000 -21.305737 27.209438 -51.723099 179.3627 -51.515739 176.97554 -6.7681484 16.178875
13470000000 -21.399137 20.669437 -53.663986 143.19043 -53.492645 144.52682 -6.6114178 12.481922
13480000000 -21.602858 18.556892 -54.994087 118.15711 -54.771259 119.88338 -6.4958096 8.8468161
13490000000 -22.525124 12.835276 -60.629555 110.29403 -58.006798 105.56016 -6.4488606 5.1920934
13500000000 -23.315456 14.110765 -60.422379 122.75627 -59.012268 109.16579 -6.4675655 1.3892779
13510000000 -24.017139 14.426676 -55.561844 115.59646 -58.591656 104.68441 -6.4880886 -2.4308619
13520000000 -24.504999 17.486034 -54.082619 79.118813 -55.445663 82.978043 -6.5259976 -6.1768651
13530000000 -24.727119 17.295856 -55.390751 48.326286 -55.706184 52.85231 -6.5815063 -9.8023815
13540000000 -24.695929 18.957115 -56.130905 35.702766 -56.908173 37.591316 -6.6401577 -13.404398
13550000000 -24.390093 16.979582 -55.466839 20.333221 -56.063049 15.103144 -6.7397423 -17.111555
13560000000 -23.890415 16.026106 -55.886139 -8.4593964 -57.346355 -7.250349 -6.8786535 -20.999229
13570000000 -24.372257 10.720729 -58.144337 -31.089668 -58.833733 -13.878448 -7.0080266 -24.697258
13580000000 -24.412107 6.9508853 -57.335678 -33.172424 -55.820953 -19.118845 -7.1249003 -28.14455
13590000000 -25.91445 1.1156541 -57.950748 -55.105316 -54.976978 -55.765228 -7.2341866 -31.249178
13600000000 -27.329523 7.6423345 -56.993763 -70.62146 -55.45689 -76.452225 -7.3558965 -34.162075
13610000000 -28.138979 15.704502 -55.400593 -82.857063 -54.922626 -86.343536 -7.5411582 -36.96841
13620000000 -27.81884 24.498432 -54.392082 -121.86873 -54.162399 -122.70685 -7.7944708 -39.906933
13630000000 -27.197176 27.26619 -55.226768 -142.10515 -54.099205 -146.53545 -8.0592642 -42.825226
13640000000 -26.018221 20.882263 -56.564564 -171.27982 -55.711903 178.48288 -8.3007326 -45.931622
13650000000 -26.726891 11.17903 -57.157906 172.78966 -56.551548 162.73412 -8.5175505 -49.048206
13660000000 -27.04397 10.335597 -57.972744 167.80843 -59.902119 141.8707 -8.7034092 -51.899132
13670000000 -28.303282 3.3724878 -56.738785 142.55304 -59.72543 141.2294 -8.8979158 -54.474255
13680000000 -29.272142 10.76102 -57.515648 118.18432 -58.937866 131.62038 -9.111166 -56.749149
13690000000 -29.595303 15.621295 -56.003769 106.40014 -55.120121 112.10162 -9.3560772 -58.83939
13700000000 -29.259064 25.742342 -55.250591 76.653374 -55.564423 73.460571 -9.6120911 -61.122559
13710000000 -28.320816 29.102982 -55.160851 37.081097 -56.528339 32.290352 -9.8871765 -63.639057
13720000000 -27.580891 29.285837 -58.66993 1.7954195 -60.590519 21.068886 -10.160561 -66.095116
13730000000 -27.226192 26.6891 -65.167267 -4.4813027 -63.159309 19.802586 -10.40436 -68.402344
13740000000 -26.787678 22.106422 -63.697514 11.791121 -59.414631 16.45962 -10.636527 -70.440727
13750000000 -28.168629 13.32087 -62.300556 0.77881777 -59.607883 -8.6963625 -10.898241 -72.405693
13760000000 -28.527529 14.180993 -59.860905 -21.209558 -58.912453 -32.68856 -11.218547 -74.635826
13770000000 -29.957424 8.0643644 -59.830353 -44.682281 -57.923862 -58.029015 -11.564208 -77.249382
13780000000 -31.108501 20.882324 -59.442516 -80.659477 -60.038094 -92.230644 -11.855471 -80.108971
13790000000 -29.708546 24.893297 -63.891674 -93.779793 -62.739281 -94.706032 -12.058533 -83.120659
13800000000 -28.583323 27.250233 -62.043297 -83.900078 -62.644135 -113.92764 -12.216357 -85.506546
13810000000 -26.996426 19.949713 -58.779495 -104.10538 -61.443581 -106.20982 -12.377389 -87.091522
13820000000 -26.694595 10.461425 -57.699371 -129.27194 -59.817444 -123.8604 -12.590878 -88.478531
13830000000 -26.833429 8.2315989 -57.840839 -150.88179 -58.457542 -147.62381 -12.915291 -90.136993
13840000000 -26.950079 -2.5550561 -57.26963 -174.27545 -58.022724 -176.3779 -13.269611 -92.490486
13850000000 -28.840397 -3.3173571 -58.022133 154.07782 -59.125332 162.23154 -13.607073 -95.527298
13860000000 -28.71381 -1.8896416 -59.099464 143.90683 -58.967907 157.75465 -13.897057 -98.517494
13870000000 -29.747086 -2.7666993 -56.543533 128.37677 -55.55463 127.79926 -14.101223 -101.05621
13880000000 -29.982157 2.4927895 -57.28566 95.188728 -57.366512 96.467766 -14.319771 -103.65341
13890000000 -28.780239 3.6208975 -57.096481 65.5811 -56.85672 75.37973 -14.614929 -106.33408
13900000000 -28.455059 -3.2501547 -60.96312 48.371849 -58.563385 51.407532 -14.943863 -109.52157
13910000000 -27.708946 -3.5518975 -60.949909 71.795387 -59.396431 49.953175 -15.207761 -113.13303
13920000000 -26.884283 -14.814653 -56.207714 31.128679 -56.478516 21.976873 -15.387294 -116.60932
13930000000 -27.506859 -24.187492 -57.584087 2.0805383 -57.419365 3.4995804 -15.514738 -119.63663
13940000000 -27.909203 -33.799648 -56.322731 -18.512009 -56.204445 -27.955072 -15.715132 -122.27819
13950000000 -29.75959 -44.863083 -58.273197 -50.465816 -58.658504 -49.960606 -16.040386 -124.7624
13960000000 -31.770052 -46.335083 -58.917572 -58.356686 -59.089912 -67.72821 -16.471605 -128.05994
13970000000 -32.947224 -38.974636 -60.722843 -78.785225 -60.233719 -97.661316 -16.899368 -132.61098
13980000000 -31.892235 -34.043106 -59.699615 -77.994812 -62.383934 -79.068626 -17.259058 -138.58134
13990000000 -29.886602 -39.885223 -57.832458 -101.89991 -59.207523 -101.8845 -17.468102 -144.84753
14000000000 -28.985512 -49.095272 -55.969624 -123.23882 -57.145618 -119.68211 -17.505148 -150.7234
14010000000 -27.817001 -57.903545 -57.014278 -157.72607 -58.127407 -153.31256 -17.437279 -156.44125
14020000000 -27.447601 -69.82988 -58.002415 -173.85205 -58.28928 -168.39294 -17.388882 -161.83897
14030000000 -28.161625 -78.309799 -58.280781 169.1647 -57.766579 176.50829 -17.411573 -167.13539
14040000000 -28.970554 -83.379601 -60.287128 146.03654 -60.724701 147.84579 -17.44002 -172.27325
14050000000 -29.648394 -84.891411 -57.155731 140.97003 -57.320656 151.64606 -17.365021 -177.43651
14060000000 -30.911758 -92.5429 -57.557693 113.65208 -55.627201 117.20263 -17.227331 176.8069
14070000000 -32.114754 -86.281181 -58.017334 92.401215 -56.391525 89.390427 -17.090816 171.12526
14080000000 -31.678049 -92.625923 -58.510704 73.824684 -57.992355 66.210533 -16.964912 165.78232
14090000000 -32.455414 -89.415039 -58.770786 64.700394 -57.977821 57.059353 -16.861744 160.21815
14100000000 -29.970694 -93.602043 -59.317364 47.273087 -59.45092 42.586365 -16.74247 154.49101
14110000000 -28.848244 -104.94485 -57.013741 44.291584 -57.149914 37.723248 -16.529282 148.07936
14120000000 -27.550571 -118.89972 -54.681988 11.552565 -54.762104 13.848433 -16.192461 141.68648
14130000000 -27.993258 -131.50117 -54.237213 -13.024722 -54.157539 -16.327599 -15.721936 136.08353
14140000000 -27.825848 -136.73494 -55.828072 -39.102043 -56.739441 -48.375641 -15.198684 131.36365
14150000000 -29.174131 -146.00793 -54.480938 -44.07732 -55.636536 -41.968277 -14.79711 126.7202
14160000000 -29.662907 -143.91927 -53.79694 -71.491356 -54.416325 -64.848763 -14.514797 122.16364
14170000000 -30.969524 -138.04655 -53.866604 -96.013268 -53.021873 -90.717751 -14.253153 117.25479
14180000000 -29.233438 -136.18639 -53.577805 -109.57636 -53.362103 -112.47327 -13.903731 112.03241
14190000000 -28.891766 -143.12709 -53.133671 -134.68437 -53.190197 -137.81602 -13.446995 106.96982
14200000000 -28.307865 -146.37068 -53.111767 -148.46211 -52.725853 -147.88303 -12.935229 102.39675
14210000000 -27.635931 -151.3392 -51.957047 -169.84157 -51.413776 -172.44713 -12.475247 98.252167
14220000000 -26.999823 -157.27426 -51.487 168.01305 -51.243576 165.14134 -12.078968 94.388474
14230000000 -27.132582 -165.33777 -50.833817 146.50583 -50.386089 142.40671 -11.748947 90.386314
14240000000 -27.045713 -166.76128 -50.539375 120.70384 -50.579296 115.07328 -11.423314 86.290939
14250000000 -27.245504 -172.72261 -51.25528 102.35503 -51.648415 97.322052 -11.052756 82.159607
14260000000 -28.183819 -175.97397 -50.256813 84.349915 -50.448116 84.513893 -10.701449 78.04129
14270000000 -29.001286 -169.91904 -49.473083 64.310669 -49.434307 62.164146 -10.396495 74.119102
14280000000 -28.69746 -166.94038 -49.207588 43.972 -49.143444 40.184891 -10.131568 70.102592
14290000000 -27.882841 -165.42513 -47.376022 19.107283 -47.932957 16.978174 -9.8959999 65.866257
14300000000 -27.287947 -170.49437 -47.73093 -8.8109741 -48.222782 -8.0113268 -9.6477356 61.33691
14310000000 -26.488661 -175.99619 -47.623028 -29.34346 -47.914246 -28.401157 -9.3539314 56.780369
14320000000 -26.890169 171.97823 -47.25132 -52.257191 -47.019363 -51.162975 -9.045723 52.309765
14330000000 -27.633629 173.92944 -47.239929 -78.564941 -47.160851 -78.449059 -8.7461853 48.242302
14340000000 -27.845655 170.42184 -47.483692 -97.13826 -47.173618 -97.263367 -8.5057297 44.43034
14350000000 -28.244253 174.55174 -46.709572 -116.04752 -46.704071 -115.55137 -8.3229017 40.615219
14360000000 -28.253988 174.99107 -46.086735 -139.2766 -45.886658 -140.51859 -8.2215652 36.569908
14370000000 -28.081938 178.2603 -45.895149 -166.60159 -45.365959 -167.23387 -8.1477089 32.254414
14380000000 -27.96669 173.34041 -45.673008 171.31367 -45.427723 166.75056 -8.0662432 27.663786
14390000000 -28.207512 178.10512 -45.757442 147.2641 -45.925495 144.37517 -7.9613614 22.871265
14400000000 -27.838724 175.62198 -45.830048 125.55428 -45.901543 125.05173 -7.8790507 18.122124
14410000000 -27.486034 174.41913 -45.448364 106.11943 -45.310425 104.26696 -7.7925572 13.758629
14420000000 -27.297827 167.31587 -44.96125 81.400879 -45.001057 78.353905 -7.734426 9.4737797
14430000000 -27.818621 164.42508 -44.723133 61.378349 -44.921768 58.424175 -7.7302661 5.2943664
14440000000 -28.71117 164.03035 -44.452694 32.804523 -44.59853 32.431763 -7.7582464 1.0179422
14450000000 -28.766438 173.39227 -44.94981 9.4962559 -44.851715 9.4786825 -7.8389354 -3.3183851
14460000000 -28.353411 177.26984 -44.826244 -9.0481787 -44.752792 -10.406154 -7.948525 -7.6075349
14470000000 -27.17544 -177.63846 -43.994537 -31.679424 -44.114197 -32.302658 -8.0763493 -11.804789
14480000000 -26.241474 178.16011 -44.116093 -61.423756 -44.010651 -61.702927 -8.2696314 -16.227667
14490000000 -26.276438 172.89865 -44.381981 -82.70488 -44.256302 -83.281883 -8.5196104 -20.844328
14500000000 -27.13719 172.41812 -44.437218 -104.92325 -44.115643 -108.11309 -8.7802248 -25.911894
14510000000 -27.093508 172.5491 -44.539467 -125.61493 -44.77739 -128.3414 -9.0253544 -31.186012
14520000000 -27.872929 177.6674 -44.159718 -148.40756 -43.983994 -148.95355 -9.2081099 -36.186279
14530000000 -26.801767 177.29407 -44.195843 -175.51733 -43.92234 -177.48961 -9.3829966 -40.483715
14540000000 -27.003824 179.84758 -44.48682 163.27786 -44.318558 160.70522 -9.5928488 -44.214394
14550000000 -25.795223 178.85089 -44.265594 141.38116 -44.302891 138.20961 -9.9308338 -47.950844
14560000000 -25.757025 179.94943 -44.275818 118.44164 -44.491703 115.95689 -10.387445 -51.822639
14570000000 -24.543253 176.9527 -44.139503 94.010216 -44.356373 92.64315 -10.880798 -56.273338
14580000000 -24.453632 176.43956 -44.533024 70.088455 -44.407639 68.472435 -11.360312 -61.337852
14590000000 -23.748283 171.48866 -44.924438 47.866451 -44.942902 46.17041 -11.839059 -66.672073
14600000000 -24.622496 170.01424 -44.961624 29.557034 -45.04108 28.634457 -12.331389 -71.79657
14610000000 -24.68491 169.20181 -44.617947 4.7953782 -44.501747 4.2852459 -12.846576 -76.952911
14620000000 -25.158585 177.89822 -44.517689 -18.682455 -44.400757 -19.712519 -13.389482 -82.395439
14630000000 -23.890749 178.62578 -44.807175 -43.515167 -44.838276 -44.257305 -13.89012 -88.386993
14640000000 -23.241623 178.41696 -45.164188 -64.854805 -44.676098 -64.584076 -14.372382 -94.357712
14650000000 -22.129892 173.18175 -44.919392 -86.623962 -44.634945 -91.232056 -14.810376 -99.676331
14660000000 -21.923473 166.93808 -45.03014 -112.26775 -45.103512 -114.44743 -15.323482 -104.62528
14670000000 -22.183086 162.86894 -45.336338 -131.14606 -45.265667 -134.42107 -16.022552 -109.58396
14680000000 -22.470957 162.2034 -45.482071 -157.22397 -45.263058 -159.53232 -16.844492 -115.56684
14690000000 -22.483139 162.64438 -45.546116 -176.56979 -45.537426 178.6356 -17.770231 -123.60982
14700000000 -22.3771 164.63361 -45.921497 160.25993 -46.294819 155.88472 -18.588806 -133.26875
14710000000 -22.010706 164.35426 -45.598034 136.88542 -46.005886 136.25575 -19.08791 -144.15894
14720000000 -21.752665 164.50131 -45.658211 115.03719 -45.973549 113.32211 -19.286665 -155.33665
14730000000 -21.365217 162.55397 -46.023808 87.269623 -46.19759 89.250145 -19.311295 -166.00258
14740000000 -20.840416 160.25017 -46.947601 67.625549 -46.814419 66.366562 -19.339794 -174.82007
14750000000 -20.614777 155.3952 -46.990841 47.857704 -47.131111 47.675686 -19.312073 177.16183
14760000000 -20.380037 150.8188 -46.718479 27.19998 -46.572533 27.175968 -19.428064 168.95026
14770000000 -20.865753 145.66815 -46.681679 2.9235055 -46.580765 3.1766334 -19.555021 159.66302
14780000000 -21.086399 145.21053 -47.049599 -19.268826 -46.566601 -19.634855 -19.572027 148.93684
14790000000 -21.469845 145.26677 -47.253399 -42.646015 -46.777802 -44.892254 -19.208464 138.77025
14800000000 -21.298166 150.91373 -47.654739 -64.856384 -47.408215 -66.473099 -18.632597 129.49879
14810000000 -20.488211 150.62447 -47.869976 -85.608826 -47.428551 -89.127541 -18.019033 122.479
14820000000 -19.777237 148.47934 -47.65744 -104.85516 -47.826241 -108.69649 -17.463108 115.99008
14830000000 -19.694689 142.4306 -47.767174 -130.31108 -47.474754 -132.66937 -17.072645 110.2965
14840000000 -19.834869 138.48085 -47.928982 -150.37506 -48.057888 -154.8875 -16.588226 105.02837
14850000000 -20.438759 133.69389 -47.955685 -173.18005 -48.383961 -177.116 -16.170321 99.864868
14860000000 -20.923668 133.14314 -47.952023 162.20212 -47.994179 161.29924 -15.816001 95.608727
14870000000 -21.291922 131.83502 -47.47541 139.77382 -47.558834 137.97139 -15.600871 91.436554
14880000000 -21.277868 132.47467 -48.280186 111.57024 -48.174591 107.57198 -15.563389 86.869225
14890000000 -21.214096 131.86839 -48.798958 95.936455 -49.147312 92.787827 -15.490767 81.442039
14900000000 -20.947992 130.57393 -48.682568 70.61161 -49.13253 70.226852 -15.23901 75.370117
14910000000 -20.630898 130.923 -48.674988 52.752342 -49.222237 52.955383 -14.788682 69.856209
14920000000 -20.052563 126.7196 -48.197712 27.291683 -48.11269 28.07333 -14.313154 65.934555
14930000000 -20.284433 123.1013 -47.789024 -0.77741468 -47.783485 -2.319464 -13.990148 63.080956
14940000000 -20.419624 119.22388 -49.068737 -29.322094 -49.18351 -29.898569 -13.897161 60.932133
14950000000 -21.231682 116.89339 -50.278332 -49.103287 -50.239532 -48.422134 -13.968709 58.171814
14960000000 -22.062695 115.63351 -50.352005 -64.610527 -50.29211 -67.108109 -14.094236 54.739098
14970000000 -22.947884 123.19878 -49.007851 -89.07489 -49.020947 -87.5924 -14.18367 51.032879
14980000000 -22.391354 124.40101 -48.607059 -116.83103 -48.295612 -117.48837 -14.23938 47.71413
14990000000 -22.036306 124.44846 -49.263168 -149.22343 -49.01099 -149.72725 -14.265178 44.355488
15000000000 -21.785477 117.5585 -50.798058 -167.31801 -50.331081 -169.42729 -14.44551 40.65176
15010000000 -22.140179 115.56001 -50.2397 171.911 -49.813156 167.29402 -14.702101 36.567944
15020000000 -22.406908 109.25034 -48.610626 143.72784 -48.92971 140.43159 -14.899147 32.5662
15030000000 -23.458946 110.91807 -49.147366 105.59554 -49.470882 104.33142 -14.888187 29.366898
15040000000 -23.461889 112.49863 -50.199532 76.449295 -50.21109 80.038521 -14.752432 27.326162
15050000000 -23.730577 114.45433 -52.69059 48.336765 -51.876331 47.124653 -14.811573 26.256531
15060000000 -23.858007 114.5405 -53.289413 42.940872 -53.257984 31.423061 -15.164922 26.040001
15070000000 -24.305098 119.27822 -52.772942 19.787222 -53.808128 17.649992 -15.786428 25.601881
15080000000 -24.16608 121.71152 -50.701557 -4.7864561 -51.180103 -6.3002486 -16.567886 24.859962
15090000000 -23.933783 122.03992 -49.836098 -44.00127 -50.259197 -42.697586 -17.167347 22.751333
15100000000 -23.87014 122.4168 -50.445877 -81.94313 -50.831242 -80.950035 -17.760445 20.20686
15110000000 -23.868702 118.4358 -51.771564 -114.97864 -51.594101 -112.01447 -18.132225 18.739624
15120000000 -24.68539 116.36072 -53.039341 -146.18848 -53.141163 -144.44872 -18.587381 18.285421
15130000000 -25.169239 116.05502 -54.427696 -164.65253 -53.888668 -164.61812 -19.075645 19.457829
15140000000 -25.75782 122.44596 -54.647308 169.10422 -55.307888 166.69952 -19.449085 21.274481
15150000000 -25.059704 125.92025 -54.532902 152.56511 -54.215237 156.77693 -19.650877 23.914328
15160000000 -24.768349 129.40269 -53.352867 124.71252 -53.098194 124.00713 -19.72645 27.421806
15170000000 -23.815386 129.12334 -52.759964 88.610123 -52.006065 87.997375 -19.703222 31.869867
15180000000 -23.496801 126.15971 -53.893135 63.883217 -53.363941 58.919151 -19.760521 37.517944
15190000000 -23.536972 125.02654 -53.459061 33.532688 -52.812603 32.369907 -19.793228 43.538292
15200000000 -23.621866 126.42648 -53.165424 9.1820602 -52.810459 1.3039707 -19.80706 48.724781
15210000000 -23.366968 124.22732 -52.439568 -22.820053 -52.953232 -24.735716 -19.702293 51.947361
15220000000 -23.787199 124.32891 -52.529114 -46.188446 -52.790741 -48.022167 -19.444771 53.230549
15230000000 -23.77581 123.9999 -52.231548 -83.447487 -52.137165 -86.363121 -19.180428 53.2537
15240000000 -24.257511 125.83286 -53.373188 -103.32151 -53.724251 -109.52919 -18.773298 53.551529
15250000000 -23.870207 128.62521 -53.164928 -133.68633 -53.979118 -137.84898 -18.130508 53.408184
15260000000 -23.142145 129.17963 -52.682575 -152.63269 -54.641647 -151.06133 -17.462496 52.649662
15270000000 -22.553143 127.00531 -52.866894 178.12674 -53.666088 -174.83847 -16.706865 51.936981
15280000000 -21.938648 121.91918 -52.667244 161.77148 -52.344501 166.957 -16.01318 51.264919
15290000000 -22.029959 115.95576 -52.280731 132.35721 -51.917027 133.85617 -15.467186 50.861805
15300000000 -22.613871 111.22821 -52.012875 101.58715 -51.676456 105.49493 -15.172757 50.907448
15310000000 -23.46117 112.15833 -53.56271 81.32415 -53.193047 81.24321 -14.927844 50.877724
15320000000 -23.538843 114.44698 -53.824226 52.638004 -53.059437 58.333893 -14.75379 49.186703
15330000000 -23.693401 118.94621 -54.455494 44.650753 -52.919624 43.740704 -14.595551 46.512066
15340000000 -22.873594 117.59705 -52.604721 26.853157 -51.929539 22.622173 -14.412176 42.932655
15350000000 -22.799021 117.22263 -51.5145 2.3113148 -50.819275 -5.860487 -14.214124 39.608707
15360000000 -22.436153 110.41744 -50.740059 -28.548719 -50.396324 -36.330715 -14.031485 36.747204
15370000000 -23.011915 109.08887 -51.285618 -62.19627 -51.037819 -70.117294 -13.872951 33.888641
15380000000 -22.628214 104.79137 -53.282253 -79.140747 -54.003963 -91.58007 -13.651751 30.563133
15390000000 -23.382444 99.536087 -52.962944 -92.088356 -53.901466 -98.778542 -13.4053 26.808613
15400000000 -23.833046 96.520287 -50.632076 -104.95786 -51.678997 -108.17908 -13.154275 23.499989
15410000000 -24.744051 96.274315 -49.007015 -141.22871 -49.977524 -140.24684 -12.960366 21.247524
15420000000 -25.28544 96.597641 -49.396263 -174.35748 -50.185921 -171.34566 -12.949475 19.404312
15430000000 -25.722986 102.46964 -50.418808 156.59686 -51.073544 157.28604 -13.108797 17.442526
15440000000 -25.053427 103.63705 -52.297958 138.07338 -53.666294 145.43893 -13.384348 14.091137
15450000000 -24.582279 101.16407 -52.258121 128.67902 -52.007565 139.47055 -13.637455 8.8979654
15460000000 -24.498713 93.046143 -50.46225 102.68757 -49.636936 106.26285 -13.798748 2.5704093
15470000000 -25.104338 86.643867 -50.431305 77.289696 -50.036385 81.213806 -13.840558 -3.010222
15480000000 -26.310827 77.833786 -49.818207 54.004704 -48.751286 54.878891 -13.836825 -7.4656649
15490000000 -28.108631 77.242386 -50.700542 19.834723 -50.021507 21.340193 -13.905373 -11.03351
15500000000 -29.949213 79.316528 -52.045284 4.253336 -50.541538 1.7917902 -14.04365 -14.770268
15510000000 -29.959454 89.420013 -52.537361 -11.249916 -51.382053 -19.725201 -14.319676 -18.874344
15520000000 -30.077389 86.314857 -51.113609 -25.983162 -51.196907 -33.298401 -14.626144 -23.242462
15530000000 -30.153547 88.89595 -50.561756 -52.645092 -50.229206 -59.592834 -15.011103 -27.610893
15540000000 -30.97645 82.19944 -50.56181 -76.848488 -50.961914 -84.833656 -15.518392 -32.335987
15550000000 -31.083035 84.519363 -50.636692 -96.596024 -51.161812 -103.54343 -16.161663 -38.148628
15560000000 -32.831898 72.653023 -49.860947 -122.8315 -50.831215 -127.65388 -16.913774 -45.174915
15570000000 -34.412941 74.381927 -49.502686 -149.05617 -50.462799 -149.10782 -17.547705 -54.056599
15580000000 -37.957779 58.462143 -49.7281 -176.47346 -50.183994 -177.7364 -17.966473 -63.866825
15590000000 -41.676239 60.999329 -50.531937 159.37779 -51.179409 159.52925 -18.174244 -73.733589
15600000000 -49.329929 -66.639549 -50.985317 136.44276 -51.604336 135.68446 -18.30777 -82.204865
15610000000 -40.626484 -170.78853 -51.731964 115.10637 -52.214088 118.61781 -18.47401 -89.482826
15620000000 -42.636562 -171.34311 -51.3344 99.947624 -51.688084 104.63589 -18.783716 -96.213303
15630000000 -39.518326 178.65091 -51.091843 74.366333 -50.417763 78.384033 -19.213306 -103.95641
15640000000 -44.177738 -179.89076 -51.232605 47.195728 -50.586212 49.666317 -19.858564 -113.88958
15650000000 -44.623699 -136.00616 -51.631004 25.372528 -50.968346 27.756123 -20.323792 -125.97138
15660000000 -36.213085 -109.66795 -51.543598 4.1005192 -50.48283 2.2760024 -20.242382 -139.50081
15670000000 -32.96014 -130.80193 -51.701828 -24.798004 -51.197025 -27.49259 -19.60216 -151.50871
15680000000 -31.312183 -134.60524 -53.337719 -50.197483 -52.78035 -52.872952 -18.814606 -161.04997
15690000000 -30.451944 -141.31712 -54.58012 -67.408348 -53.951664 -73.574997 -18.186487 -168.06747
15700000000 -29.185625 -143.6636 -55.260174 -77.812668 -54.771717 -85.466515 -17.658766 -174.49463
15710000000 -29.263582 -146.60814 -54.289169 -94.641464 -54.222893 -103.16598 -17.236765 179.38579
15720000000 -28.063328 -144.94887 -52.838428 -118.96963 -53.11277 -126.99693 -16.783648 173.36597
15730000000 -27.974215 -145.78394 -53.068695 -146.08023 -54.034714 -154.16043 -16.371349 167.99341
15740000000 -27.1686 -145.77043 -54.282024 -174.91965 -54.839134 -179.00079 -16.088043 163.15019
15750000000 -27.43503 -146.15167 -53.950562 163.18608 -55.338432 161.62984 -15.88076 158.01291
15760000000 -26.413914 -142.10069 -55.469421 136.79645 -56.451881 132.76016 -15.617585 152.02171
15770000000 -25.569403 -142.07539 -57.122234 118.11493 -58.398975 118.99599 -15.16677 145.5719
15780000000 -24.584112 -146.56239 -58.465836 100.27869 -59.714546 101.34549 -14.542328 140.2263
15790000000 -24.235922 -150.2617 -60.165981 87.870972 -60.806736 104.14565 -13.857985 136.66077
15800000000 -23.717995 -153.673 -57.887901 87.870544 -57.764389 95.434471 -13.303778 134.65562
15810000000 -23.990065 -156.85742 -55.810394 63.494682 -55.428749 68.42543 -12.95335 133.22963
15820000000 -24.168009 -154.36713 -56.174854 19.259111 -55.28138 28.88662 -12.795762 131.29872
15830000000 -23.670807 -149.74174 -58.116734 -11.739556 -56.841354 0.61612672 -12.762548 128.6993
15840000000 -22.72953 -148.21039 -62.999409 -41.772247 -60.377304 -32.707535 -12.70223 125.34975
15850000000 -22.174206 -152.13144 -65.224106 -26.866583 -62.322811 -23.126049 -12.593719 121.64063
15860000000 -21.969782 -152.92964 -62.188961 2.2643676 -59.945271 -19.592916 -12.398822 118.01035
15870000000 -21.96586 -156.37827 -58.902409 -35.29549 -57.436584 -49.146774 -12.1604 114.49293
15880000000 -22.280851 -155.25909 -56.876942 -51.613495 -56.50486 -69.912796 -11.891498 111.18933
15890000000 -22.041477 -153.81088 -57.468235 -87.541191 -57.004162 -104.52018 -11.572283 108.30297
15900000000 -21.617472 -153.46327 -56.21328 -109.80119 -57.369625 -124.77047 -11.231526 105.69196
15910000000 -21.189636 -155.30176 -56.631233 -141.97891 -57.382061 -156.96422 -10.960826 103.62822
15920000000 -20.881113 -156.41174 -57.701614 -171.3436 -59.584438 -179.95776 -10.771695 102.08125
15930000000 -20.714369 -156.81363 -60.593807 178.64067 -62.873577 168.99117 -10.651406 100.86821
15940000000 -20.49387 -155.95387 -61.894474 172.97835 -66.686287 178.32542 -10.594561 99.440422
15950000000 -20.046822 -155.51006 -58.130089 164.38112 -60.487312 166.20296 -10.587559 97.49192
15960000000 -19.786636 -155.87384 -56.895401 131.14809 -59.327335 144.5372 -10.618509 94.945244
15970000000 -19.428558 -155.84802 -56.667149 108.92439 -57.684959 125.80833 -10.647049 91.94323
15980000000 -19.467852 -157.43423 -57.064938 70.097267 -57.235943 84.273834 -10.592798 88.663574
15990000000 -19.477732 -154.81778 -59.960022 44.077446 -58.418819 67.060791 -10.455258 85.500648
16000000000 -19.23185 -153.45674 -61.905022 37.662075 -59.087429 44.082695 -10.245846 82.77401
16010000000 -18.568157 -151.66199 -65.214684 31.538727 -62.161491 31.038269 -10.026473 80.883308
16020000000 -18.140749 -155.15106 -60.733669 53.221943 -59.233921 41.841553 -9.8604145 79.51828
16030000000 -17.857626 -155.48541 -57.974277 19.543341 -56.666233 16.394381 -9.7947931 78.230095
16040000000 -17.640326 -158.48914 -55.382187 -15.896241 -54.802135 -22.458199 -9.8258028 76.540222
16050000000 -17.637892 -158.90096 -56.27652 -48.337788 -55.871864 -60.799263 -9.9438162 74.390427
16060000000 -17.562302 -157.40289 -57.190399 -71.370537 -57.345398 -84.41021 -10.043966 72.086128
16070000000 -17.058659 -155.1711 -60.401295 -76.766899 -64.092026 -93.956161 -10.078572 69.346123
16080000000 -16.525305 -155.53424 -57.794262 -89.49279 -58.908489 -79.266609 -10.142591 66.433128
16090000000 -16.10404 -155.73224 -56.995796 -100.56825 -57.009914 -100.03621 -10.247723 63.330387
16100000000 -15.737914 -157.10179 -53.500717 -134.52451 -54.407192 -138.05693 -10.357029 60.394207
16110000000 -15.605391 -158.16789 -55.251568 -170.3709 -56.387375 -164.08672 -10.345506 57.367844
16120000000 -15.325049 -158.65829 -56.861206 172.27162 -56.996559 -175.75938 -10.221519 54.454189
16130000000 -15.123085 -159.5728 -56.671314 158.14552 -56.130276 166.02184 -10.088264 52.168282
16140000000 -14.828373 -160.64328 -55.759964 141.21381 -54.854248 146.56085 -10.057012 50.787613
16150000000 -14.6687 -162.04024 -54.827679 115.77437 -53.350552 117.82001 -10.210893 49.566395
16160000000 -14.552278 -161.94537 -55.961227 92.872162 -54.559841 88.072411 -10.565409 47.981617
16170000000 -14.095115 -161.2151 -54.800812 79.245224 -55.212242 72.376297 -11.009868 45.506321
16180000000 -13.59963 -161.54758 -55.323654 55.09021 -54.472088 54.502003 -11.422892 41.867668
16190000000 -13.068817 -162.93205 -56.125656 40.313431 -55.220604 32.768559 -11.721522 37.595707
16200000000 -12.766706 -165.0343 -54.236805 28.791767 -53.439205 19.601564 -11.924247 33.156574
16210000000 -12.599659 -167.43417 -52.507397 7.6671677 -52.803551 -2.5761731 -12.140828 29.078398
16220000000 -12.742879 -168.05438 -50.825985 -27.012457 -51.193493 -32.556164 -12.465292 25.080847
16230000000 -12.612638 -168.18829 -50.783329 -58.5564 -51.265495 -64.024902 -12.836281 21.88081
16240000000 -12.494593 -167.1147 -52.17165 -91.975822 -52.96545 -99.25351 -13.157033 19.093372
16250000000 -12.010736 -167.84767 -54.709511 -106.74173 -55.956406 -107.18503 -13.485221 16.979692
16260000000 -11.706942 -169.17012 -56.625046 -109.98842 -56.850849 -106.64687 -13.936136 15.442471
16270000000 -11.254475 -171.46986 -51.561687 -119.63667 -51.981781 -121.57533 -14.680181 14.107018
16280000000 -11.132803 -174.30475 -50.828281 -161.48103 -51.56147 -159.92726 -15.720996 11.556731
16290000000 -10.936525 -175.45679 -51.669296 171.46303 -52.085175 175.93971 -17.082134 7.1087723
16300000000 -10.834566 -176.82875 -52.956306 150.20265 -52.524246 153.40022 -18.500536 0.465832
16310000000 -10.62909 -177.38994 -52.259296 136.60159 -52.47213 139.55406 -19.912546 -7.8477774
16320000000 -10.497241 -177.88066 -51.490856 111.11067 -51.214108 113.05073 -21.236172 -14.91769
16330000000 -10.269716 -178.23947 -51.898323 86.713295 -51.307861 87.026474 -22.511633 -21.64875
16340000000 -10.13899 -178.88666 -52.177414 61.443207 -52.132866 60.202347 -24.219997 -29.16374
16350000000 -9.8324728 -179.06667 -52.400829 40.475346 -52.039516 43.57291 -26.314953 -37.450371
16360000000 -9.5687551 179.09973 -54.123844 26.35321 -53.053265 30.325119 -29.910051 -48.663834
16370000000 -9.3445711 177.15208 -52.029335 12.380369 -50.887051 10.953933 -35.400135 -71.479057
16380000000 -9.2143583 174.46492 -50.752159 -8.8107271 -50.182423 -15.684614 -36.823112 -160.07085
16390000000 -9.1978416 172.79901 -49.862469 -43.091473 -49.815475 -46.025383 -29.018503 168.66286
16400000000 -9.1887445 171.52977 -50.348648 -68.045006 -50.009995 -71.588799 -24.768053 162.29213
16410000000 -9.1075764 171.62225 -51.204082 -97.439537 -51.028633 -98.948761 -22.256659 160.59523
16420000000 -8.8511791 171.5654 -52.253902 -109.34616 -51.690716 -113.21656 -20.749121 158.73734
16430000000 -8.5294218 171.15622 -51.584492 -132.42967 -51.314751 -140.74854 -19.797405 156.222
16440000000 -8.2324286 169.92609 -51.479527 -154.45735 -51.655067 -159.23425 -18.826359 152.65369
16450000000 -8.0068903 168.30911 -51.295925 -175.81326 -51.423958 175.36205 -17.903404 148.19627
16460000000 -7.9304357 166.56432 -51.458912 161.58211 -52.882595 154.76111 -17.058926 144.19649
16470000000 -7.9004893 165.25206 -50.651234 141.48364 -51.540604 143.53134 -16.406923 140.07294
16480000000 -7.8442178 164.19411 -50.491356 111.00186 -50.680443 113.4252 -15.857098 135.9982
16490000000 -7.8112135 163.04848 -50.670177 84.267326 -50.844738 81.927483 -15.220992 131.51225
16500000000 -7.7373199 162.62622 -52.223709 55.627033 -52.735043 49.934624 -14.453895 127.59711
16510000000 -7.5591168 161.79268 -53.48196 41.271729 -54.603149 45.325363 -13.665273 125.02618
16520000000 -7.3423185 161.41225 -53.965885 25.977551 -54.181324 30.598701 -13.024316 124.03661
16530000000 -7.0639029 160.0168 -52.642696 8.9559526 -52.572334 14.170668 -12.612431 123.26985
16540000000 -6.8673987 159.04755 -53.149586 -17.129681 -52.475952 -13.595888 -12.412756 121.87545
16550000000 -6.6390986 157.27718 -52.372784 -36.110664 -51.546173 -37.557613 -12.317718 119.32098
16560000000 -6.6100602 155.9308 -52.21291 -69.284111 -51.948689 -71.143639 -12.178818 116.0985
16570000000 -6.5731816 154.91389 -53.041233 -97.244392 -52.160343 -97.567581 -11.939487 112.89616
16580000000 -6.5426302 154.38712 -55.228561 -117.36459 -53.94598 -119.53155 -11.662573 110.16969
16590000000 -6.4687123 154.10158 -55.293758 -131.83777 -54.446827 -139.9819 -11.392534 107.69973
16600000000 -6.2666345 153.78835 -55.140793 -146.19247 -55.176468 -159.35281 -11.166307 105.20768
16610000000 -6.0320158 152.61255 -54.480305 -176.55818 -55.826199 178.24911 -10.932119 102.60986
16620000000 -5.8203106 151.07785 -56.072052 158.69104 -57.381573 157.49927 -10.622503 100.26503
16630000000 -5.6459575 149.43996 -57.261246 145.89729 -56.99213 147.17273 -10.285782 98.564522
16640000000 -5.5160069 147.8858 -56.4716 132.30536 -56.496429 130.3311 -10.020377 97.566811
16650000000 -5.3972616 146.73836 -55.057693 109.44875 -56.509731 101.37869 -9.894577 96.725471
16660000000 -5.2827225 145.83673 -54.611698 72.458565 -55.929951 77.456757 -9.9162874 95.660736
16670000000 -5.1413393 145.22092 -57.68784 36.112022 -59.96529 50.044918 -9.9818172 93.584442
16680000000 -4.9958649 144.32253 -62.806637 17.937 -60.140007 40.063797 -10.005361 90.473366
16690000000 -4.8438687 143.71909 -62.341835 41.946468 -60.016747 37.820324 -9.9539967 87.077415
16700000000 -4.6491871 142.70418 -61.295338 26.085169 -58.866982 21.839025 -9.8059645 84.04422
16710000000 -4.4799447 141.47748 -58.739937 5.899189 -57.480251 2.2884529 -9.627039 81.478813
16720000000 -4.3129106 139.94955 -59.830425 -20.283733 -58.701683 -26.911304 -9.4586315 79.549438
16730000000 -4.1652446 138.35202 -58.864307 -37.45686 -57.632328 -45.683422 -9.329936 77.820435
16740000000 -4.0480695 136.73721 -59.300247 -65.391579 -57.808109 -76.552124 -9.2111044 76.395287
16750000000 -3.9552674 135.42371 -59.417934 -79.687569 -59.402477 -105.72389 -9.1031895 74.934471
16760000000 -3.8277624 134.26036 -60.145676 -100.17567 -60.794308 -117.64776 -9.0658007 73.40033
16770000000 -3.696523 133.37624 -59.672264 -110.61012 -62.790165 -115.59701 -9.1010094 71.785728
16780000000 -3.5029771 132.32466 -57.842598 -127.93861 -59.287327 -119.65189 -9.1957655 70.022324
16790000000 -3.3507886 131.10843 -56.910267 -158.43909 -57.631882 -160.80696 -9.3092937 67.697647
16800000000 -3.1771901 129.64902 -57.130234 177.35768 -58.990398 175.51321 -9.3809929 64.776459
16810000000 -3.0630195 128.13229 -57.331139 155.31702 -59.983837 161.24274 -9.407753 61.096951
16820000000 -2.9559996 126.46655 -57.368118 131.35869 -58.1366 148.14699 -9.4183292 57.275127
16830000000 -2.8669019 124.92057 -59.225658 111.46598 -58.724407 127.66509 -9.3544998 53.951038
16840000000 -2.7613599 123.38496 -59.198124 99.14843 -56.943066 108.80202 -9.239089 51.282307
16850000000 -2.6477702 121.94012 -58.077576 83.039764 -56.765205 81.926048 -9.0912876 49.291798
16860000000 -2.5281949 120.46033 -58.219685 58.55994 -57.287743 59.002842 -9.0109978 47.804279
16870000000 -2.4015887 119.14549 -56.668324 34.070293 -56.420197 36.190079 -9.0271931 46.651978
16880000000 -2.2608581 117.71571 -58.21307 9.4016962 -56.619289 9.2334995 -9.1438465 45.230534
16890000000 -2.1420095 116.35561 -58.089512 -6.4908423 -56.51931 -10.250914 -9.3635731 42.937897
16900000000 -2.0201545 115.00983 -57.797852 -30.325016 -56.944981 -37.133965 -9.6141777 39.783371
16910000000 -1.912618 113.47904 -57.401794 -46.968464 -57.763031 -59.490402 -9.824955 35.899357
16920000000 -1.8450052 111.92787 -57.719639 -70.313774 -58.595268 -79.324364 -9.9228296 31.655136
16930000000 -1.7743837 110.4037 -58.328217 -90.33522 -59.361988 -91.426086 -9.9506912 27.340567
16940000000 -1.7153428 108.85017 -56.979397 -104.08473 -56.92886 -103.8906 -9.9391727 23.262518
16950000000 -1.6288335 107.29751 -55.689693 -137.55876 -55.668037 -135.57362 -9.976614 19.600483
16960000000 -1.5441622 105.71939 -56.127239 -168.22769 -56.462406 -171.00172 -10.008354 16.44894
16970000000 -1.434306 104.15472 -56.94154 163.75894 -58.435501 162.80695 -10.094482 13.602969
16980000000 -1.335003 102.45028 -59.202282 147.39886 -59.122417 149.56616 -10.216229 10.832029
16990000000 -1.2415762 100.85166 -58.298508 130.94763 -58.436077 133.11528 -10.423613 7.836617
17000000000 -1.1619729 99.286034 -58.609592 107.66449 -58.300552 110.51554 -10.73077 4.381444
