!Keysight Technologies,P9374A,MY57211807,A.19.30.04
!Date: Friday, May 08, 2026 14:29:19
!Correction: S11(C  2-Port  ) 
!S21(C  2-Port  ) 
!S12(C  2-Port  ) 
!S22(C  2-Port  ) 
!S2P File: Measurements: S11, S21, S12, S22:
# Hz S  dB   R 50
13000000000 -19.145164 58.885468 -41.81358 101.04816 -41.242344 96.731705 -12.118455 -77.12883
13010000000 -19.01058 60.144112 -40.616291 78.024078 -40.428757 73.063683 -12.484567 -79.932373
13020000000 -19.221811 60.196255 -40.143093 54.338913 -40.158955 51.435009 -12.891132 -82.999306
13030000000 -19.278965 61.149277 -40.01506 27.532267 -39.939926 26.489733 -13.373066 -86.285431
13040000000 -19.769114 60.698521 -40.333847 4.9932857 -40.065014 2.9181333 -13.921192 -89.673088
13050000000 -19.936031 64.099335 -40.637894 -17.777365 -40.483364 -21.823233 -14.525147 -93.534966
13060000000 -19.981504 63.825871 -40.736992 -38.286362 -40.809456 -41.939392 -15.141852 -98.000122
13070000000 -19.988699 64.830482 -40.861019 -57.686424 -40.827801 -59.72847 -15.69067 -103.24297
13080000000 -19.693314 65.837097 -40.14415 -78.892113 -40.140888 -81.806404 -16.153975 -108.44208
13090000000 -19.111666 62.257504 -39.712185 -102.75823 -39.802753 -106.9348 -16.589333 -113.46843
13100000000 -19.366873 59.32798 -39.808487 -130.36568 -40.148453 -133.21227 -17.184315 -118.60625
13110000000 -19.391529 58.224476 -40.33004 -152.21512 -40.744434 -153.71718 -17.926834 -123.90473
13120000000 -19.966736 58.092537 -40.491444 -174.71368 -40.6572 -176.62631 -18.727505 -130.44949
13130000000 -19.884563 60.399143 -40.553555 165.42049 -40.668232 163.79984 -19.363934 -138.67459
13140000000 -20.050253 64.025398 -40.187588 141.86502 -40.36311 140.71094 -19.805794 -148.10291
13150000000 -19.37965 64.935616 -40.212826 116.89601 -40.178864 115.57949 -20.220625 -158.08858
13160000000 -19.198647 64.929207 -40.864616 93.440773 -41.038795 89.726738 -20.67205 -168.2137
13170000000 -18.743578 61.351028 -40.976177 71.869949 -41.524544 69.534348 -21.073503 -179.8703
13180000000 -19.056555 57.007843 -41.393131 49.788429 -42.007828 51.066883 -21.060934 166.62668
13190000000 -19.313766 55.142735 -41.169437 28.543173 -41.390549 30.608732 -20.47225 154.16246
13200000000 -19.668745 54.48391 -40.810986 7.6254196 -40.696644 6.9946566 -19.647152 144.19696
13210000000 -19.681242 54.936535 -40.889202 -21.427038 -40.996166 -22.728107 -18.909191 136.36452
13220000000 -19.664764 55.073498 -41.600216 -44.205475 -41.878296 -44.609547 -18.415224 128.77217
13230000000 -19.40394 55.30962 -42.138008 -68.528168 -42.217209 -67.902962 -17.931473 120.43826
13240000000 -19.157736 55.095215 -43.041191 -88.399918 -42.948654 -87.920265 -17.193489 111.56979
13250000000 -19.002325 52.081768 -43.14925 -108.95667 -43.44582 -109.1654 -16.250921 103.37765
13260000000 -19.225904 51.250103 -43.299526 -129.40492 -43.491432 -127.13017 -15.314169 97.515259
13270000000 -19.325851 50.112133 -43.550804 -150.52115 -43.409607 -147.59486 -14.478543 93.412987
13280000000 -19.258677 49.710186 -43.457603 -173.68877 -43.024078 -172.33173 -13.842381 89.400726
13290000000 -19.387743 46.390564 -43.718391 160.5809 -43.391022 161.51842 -13.354067 84.880173
13300000000 -19.438772 45.411064 -44.818848 138.30392 -44.60471 138.0583 -12.886381 79.699928
13310000000 -19.778633 41.489658 -45.919582 122.43858 -45.280251 123.41451 -12.315628 74.438644
13320000000 -19.866554 40.728466 -45.755444 104.73282 -45.350239 103.51247 -11.713993 69.948265
13330000000 -20.281164 39.188759 -45.27161 83.307236 -44.902603 82.367523 -11.139718 66.248901
13340000000 -20.200678 41.516903 -45.490768 57.68853 -45.123428 58.502205 -10.652369 62.730316
13350000000 -20.191534 40.307816 -46.797607 37.314709 -45.744175 38.277859 -10.275262 58.941017
13360000000 -19.739143 41.557922 -46.90591 22.827776 -45.737114 17.842134 -9.937932 54.392597
13370000000 -19.604321 36.400108 -46.492626 -0.52855861 -46.215492 -5.703136 -9.5705347 49.599846
13380000000 -19.469389 33.396999 -47.127445 -21.693607 -46.809471 -25.587496 -9.1197805 45.182911
13390000000 -20.477482 27.555798 -48.009758 -43.003777 -47.384098 -45.257816 -8.6710033 41.157848
13400000000 -20.856226 29.706997 -48.280739 -57.148407 -47.164703 -64.41861 -8.2760534 37.871967
13410000000 -21.581614 25.662319 -47.765072 -77.461754 -47.464649 -85.423096 -7.9856277 34.685024
13420000000 -21.962667 30.598852 -47.926918 -98.409927 -47.47591 -106.42439 -7.770802 30.942131
13430000000 -21.947821 29.195515 -47.92078 -119.07825 -48.021858 -127.63608 -7.5899711 26.695772
13440000000 -21.458557 30.291996 -48.563152 -142.00536 -48.601421 -151.56052 -7.4274421 22.209377
13450000000 -21.343765 26.1527 -48.863914 -159.89304 -49.608604 -170.51039 -7.2207408 17.796127
13460000000 -21.049309 23.307308 -48.967163 179.02536 -49.829056 173.16257 -6.9878917 13.963971
13470000000 -21.802361 16.062853 -49.835537 160.2511 -50.508484 151.65773 -6.7896476 10.336098
13480000000 -22.167286 17.675184 -49.776329 142.83195 -51.442425 135.50259 -6.6441035 6.7786398
13490000000 -23.245527 13.741656 -50.096409 129.49892 -52.132122 124.62189 -6.5612102 3.0289533
13500000000 -23.341516 17.813911 -48.993927 112.02394 -50.925304 113.34805 -6.5625715 -0.89577955
13510000000 -24.24894 18.36684 -49.164791 86.760345 -50.74263 89.227531 -6.5778131 -4.7033792
13520000000 -23.759785 21.15406 -49.469563 66.220505 -50.653484 64.054977 -6.5718737 -8.3142824
13530000000 -24.10807 17.31761 -49.445053 43.339016 -52.040813 48.762321 -6.5609379 -11.925532
13540000000 -23.673706 15.20867 -50.836861 29.463402 -52.366753 46.629448 -6.573585 -15.620779
13550000000 -24.636795 11.537151 -50.205524 23.861429 -49.741528 35.977955 -6.6467676 -19.24012
13560000000 -24.125612 11.416462 -48.5928 -0.8439104 -48.492203 6.4131012 -6.7592487 -22.95612
13570000000 -25.675001 8.948823 -48.547684 -25.653929 -48.772335 -16.841366 -6.8635573 -26.487495
13580000000 -24.914242 9.7996225 -48.760441 -48.383373 -48.387421 -38.21719 -6.9538813 -29.697441
13590000000 -26.811251 8.5179081 -49.371162 -68.168205 -48.496506 -59.669914 -7.0138316 -32.793125
13600000000 -26.095043 13.903004 -49.677811 -81.218895 -48.587055 -75.284111 -7.099947 -35.819523
13610000000 -27.460463 16.900541 -48.349426 -95.879082 -47.243793 -90.337509 -7.252727 -38.713806
13620000000 -26.682226 18.431597 -47.491692 -116.43368 -46.251022 -113.78974 -7.452208 -41.738377
13630000000 -27.548107 20.749268 -46.551743 -141.26355 -45.020592 -139.83629 -7.6722455 -44.73542
13640000000 -26.34194 17.673931 -46.905354 -168.48375 -45.66404 -168.23174 -7.8528781 -47.787045
13650000000 -27.597788 11.397554 -47.339581 172.78271 -45.949474 173.05489 -7.9960222 -50.863934
13660000000 -27.077139 10.996707 -47.022236 158.81734 -45.31834 155.20688 -8.1084528 -53.768169
13670000000 -28.910923 5.2695346 -46.044147 138.81181 -44.720367 130.60782 -8.2472801 -56.345287
13680000000 -29.152245 13.628532 -45.323505 114.05077 -44.580322 106.66959 -8.4179068 -58.714573
13690000000 -29.705324 20.515865 -45.704063 89.864532 -44.642643 83.036484 -8.6237841 -60.902515
13700000000 -28.452414 27.161125 -45.200245 72.046898 -44.428707 63.302441 -8.8329945 -63.441032
13710000000 -27.785591 30.158356 -44.949627 49.316586 -44.168728 39.091862 -9.0539236 -66.260147
13720000000 -26.499838 23.753036 -44.202263 25.56436 -44.101074 14.061994 -9.2667637 -69.16674
13730000000 -27.731455 20.005102 -43.979607 0.18544354 -44.33176 -8.7281618 -9.4519024 -71.789749
13740000000 -27.337563 16.980625 -44.577343 -23.903696 -44.497997 -31.891445 -9.6194744 -74.273346
13750000000 -29.427729 11.69323 -44.397045 -41.437977 -44.596775 -51.74004 -9.8375282 -76.570374
13760000000 -29.696278 19.715248 -43.760273 -63.421204 -44.367317 -74.691406 -10.073589 -79.032913
13770000000 -30.235132 21.701468 -43.619343 -88.978081 -44.70657 -97.429405 -10.332327 -81.912804
13780000000 -29.451439 24.326839 -43.738728 -111.33519 -44.782833 -119.64284 -10.559041 -85.030609
13790000000 -28.541843 24.901392 -43.426605 -133.7099 -44.661625 -141.13591 -10.733997 -88.087303
13800000000 -27.710379 18.443897 -43.35141 -156.13957 -44.996342 -161.17461 -10.867539 -90.575302
13810000000 -27.313433 15.581588 -42.816799 178.3728 -44.387974 175.68927 -11.020699 -92.568443
13820000000 -27.159748 4.7608342 -43.496929 152.5119 -45.19339 151.55865 -11.221751 -94.498192
13830000000 -27.997925 9.1458797 -43.712048 130.60413 -45.577026 132.8197 -11.495902 -96.802979
13840000000 -27.236258 -0.15535027 -43.978264 106.82092 -45.517277 111.82021 -11.782173 -99.800072
13850000000 -28.782883 1.8880153 -44.278049 87.952446 -45.507011 94.12265 -12.039871 -103.21225
13860000000 -28.787912 -1.1768614 -43.962708 66.873772 -44.940918 72.448509 -12.248531 -106.42902
13870000000 -29.406792 4.3283935 -43.847275 40.729996 -45.016079 46.88583 -12.390102 -109.256
13880000000 -29.05118 -0.45750311 -43.866039 16.87879 -45.052006 27.460829 -12.564227 -111.9044
13890000000 -28.619129 2.9659896 -44.764755 -8.8374844 -45.473495 5.0297318 -12.798032 -114.88789
13900000000 -27.961536 -6.9762735 -45.565971 -30.159863 -45.337185 -14.586776 -13.072944 -118.11739
13910000000 -28.13731 -5.1291127 -45.886749 -42.94241 -45.063675 -33.877361 -13.294014 -121.5842
13920000000 -26.786749 -16.266748 -45.300152 -66.575798 -44.611702 -56.537354 -13.432813 -125.09183
13930000000 -27.880447 -27.621351 -45.693096 -94.249817 -44.805759 -81.670334 -13.547602 -128.40839
13940000000 -28.697109 -34.887646 -46.639275 -111.38865 -44.801083 -102.1518 -13.741282 -131.46332
13950000000 -30.302879 -39.770817 -46.351135 -129.99741 -44.506523 -126.38967 -14.0144 -134.31287
13960000000 -31.456232 -41.255108 -46.269772 -149.4765 -44.970978 -147.52539 -14.314811 -137.63875
13970000000 -32.563396 -35.347389 -46.110409 -173.71346 -44.559822 -169.15623 -14.574126 -141.95674
13980000000 -31.514351 -35.356579 -46.978783 163.24686 -44.700909 165.65297 -14.769083 -147.14941
13990000000 -30.054098 -36.943218 -47.523262 144.87697 -45.268055 143.87761 -14.880535 -152.5789
14000000000 -28.348415 -48.687454 -46.836254 130.66917 -44.867493 123.92545 -14.902621 -157.6122
14010000000 -27.362049 -59.560608 -47.003075 106.76318 -45.237808 99.8853 -14.872511 -162.2957
14020000000 -27.372868 -72.587532 -46.40094 89.005638 -44.942951 80.107536 -14.857535 -166.94388
14030000000 -27.993551 -80.877068 -46.089329 62.178444 -44.910526 52.840237 -14.894358 -171.60458
14040000000 -29.411449 -89.25975 -46.768108 39.177631 -45.350967 29.392374 -14.919355 -176.19316
14050000000 -30.614229 -84.649773 -47.122639 24.350994 -46.101685 8.3537426 -14.888743 179.07323
14060000000 -31.966169 -84.623093 -46.037399 4.9782815 -45.858715 -10.802 -14.816386 174.20847
14070000000 -31.626291 -76.162781 -45.558636 -22.585709 -45.814987 -37.521412 -14.734694 169.35567
14080000000 -30.990759 -87.203865 -45.924797 -48.236099 -46.392624 -58.581078 -14.653591 164.73929
14090000000 -30.723026 -84.203102 -46.301277 -69.916183 -46.497684 -82.804153 -14.617583 160.03668
14100000000 -28.836706 -103.1781 -46.780979 -89.703133 -47.657101 -102.84553 -14.559301 155.0701
14110000000 -28.884277 -110.33719 -46.729156 -112.78326 -48.079594 -123.69835 -14.43757 149.66765
14120000000 -28.312468 -125.3309 -46.400753 -131.65744 -47.977005 -140.92867 -14.227578 143.89792
14130000000 -28.593834 -127.61365 -46.159954 -156.53368 -47.83606 -161.00374 -13.932702 138.47485
14140000000 -27.951458 -137.29868 -46.609032 178.11354 -47.760635 173.73286 -13.601993 133.78346
14150000000 -29.435896 -140.88068 -47.132183 153.19086 -48.654758 145.81609 -13.342021 129.29926
14160000000 -29.136745 -141.82887 -47.696369 136.04185 -50.47776 134.95731 -13.148092 124.76414
14170000000 -30.391171 -140.85182 -47.377949 114.43407 -49.400238 122.31481 -12.980096 119.95708
14180000000 -29.57933 -139.35091 -47.888489 89.80172 -48.84726 98.085991 -12.738045 114.8915
14190000000 -29.644333 -140.35468 -48.160152 70.17421 -49.013397 74.134926 -12.383439 109.86802
14200000000 -28.21981 -142.26788 -48.693607 47.265804 -49.512165 52.991421 -11.984526 105.19452
14210000000 -27.317585 -148.25122 -48.92646 28.498297 -49.842751 37.136375 -11.633799 100.83391
14220000000 -26.302431 -156.86717 -48.893234 7.3775291 -49.148434 16.472046 -11.359377 96.779633
14230000000 -26.442303 -168.63718 -48.817238 -12.484217 -48.892231 -4.5310111 -11.134272 92.799423
14240000000 -27.022749 -173.01369 -48.569889 -37.794067 -48.635841 -29.802975 -10.859149 88.704483
14250000000 -27.944347 -177.86342 -49.711079 -60.325653 -49.167168 -55.49614 -10.5545 84.194092
14260000000 -29.077196 -173.31503 -49.713886 -83.512741 -50.018456 -76.985352 -10.286608 79.704453
14270000000 -29.323973 -166.28387 -51.01545 -100.75055 -50.622982 -89.584465 -10.053084 75.53009
14280000000 -28.850847 -163.06921 -50.200321 -118.12184 -49.076389 -109.31623 -9.8538122 71.484604
14290000000 -27.298115 -161.04445 -50.645493 -142.29718 -49.059612 -137.1931 -9.6539431 67.199921
14300000000 -26.655514 -169.83418 -51.213211 -160.41055 -50.107471 -156.64551 -9.4493971 62.446384
14310000000 -26.094061 -178.0885 -50.943691 179.48772 -49.720119 -175.53702 -9.2104483 57.611252
14320000000 -26.864002 169.502 -50.876526 158.97372 -49.75816 163.37691 -8.9695406 52.923363
14330000000 -27.371582 170.52779 -50.244152 139.64107 -48.350414 142.56648 -8.7325888 48.681198
14340000000 -28.538847 165.08038 -50.511761 108.8415 -48.531296 107.37747 -8.5470695 44.779789
14350000000 -28.762819 175.17366 -51.891865 82.354546 -49.801559 79.115494 -8.3924866 40.854118
14360000000 -29.563749 177.77705 -53.477638 80.301537 -51.159233 71.480713 -8.3002348 36.557545
14370000000 -27.745359 -174.43326 -52.040577 62.404217 -50.344788 54.082302 -8.2586908 31.839693
14380000000 -27.349773 178.37201 -50.904083 42.522827 -49.041874 29.514671 -8.220438 26.931999
14390000000 -26.860212 177.14665 -49.710171 11.414661 -48.175068 0.15625975 -8.1799717 22.151573
14400000000 -27.352537 169.12404 -50.206257 -21.489029 -48.657654 -36.915863 -8.0908642 17.527668
14410000000 -27.795065 167.97318 -52.845337 -42.963726 -51.520794 -63.866703 -8.0031567 12.935599
14420000000 -28.337677 165.80562 -52.463703 -45.84708 -52.636147 -67.53212 -7.9684472 8.3490953
14430000000 -28.389132 166.97789 -50.470093 -72.219353 -50.885986 -91.318527 -8.0081558 3.840445
14440000000 -29.018127 169.90651 -49.72419 -104.8513 -50.231834 -120.16121 -8.0898561 -0.56144637
14450000000 -28.207106 176.49529 -51.960979 -129.2084 -51.864292 -152.75648 -8.203311 -4.973526
14460000000 -27.712194 176.46448 -51.804432 -154.21368 -52.359509 176.86665 -8.2904444 -9.4335365
14470000000 -27.177814 176.62843 -51.994987 -173.24796 -55.928707 163.80167 -8.4259682 -14.201099
14480000000 -26.692909 178.88545 -51.336781 156.61548 -54.899548 143.48145 -8.682909 -18.996517
14490000000 -26.726046 174.39392 -52.709511 133.79753 -54.426937 123.24105 -8.9562454 -23.763128
14500000000 -26.413946 177.50401 -52.617107 117.12731 -55.818695 87.697838 -9.2254944 -28.927126
14510000000 -26.524427 168.88757 -51.654694 87.629562 -57.153625 65.490959 -9.4315081 -34.374607
14520000000 -27.869652 174.80444 -52.442635 51.540207 -59.213879 45.175327 -9.6267147 -39.752705
14530000000 -27.495508 173.63995 -53.351673 25.618317 -57.950085 35.609009 -9.8313875 -44.372345
14540000000 -27.420071 -175.89035 -54.508858 -5.730979 -57.798107 -13.952033 -10.106145 -48.385872
14550000000 -26.094971 -179.09576 -55.457798 -25.774698 -61.401287 -54.683895 -10.484133 -52.127617
14560000000 -25.337061 -175.86552 -54.980076 -47.18502 -66.160576 -35.168015 -10.913412 -56.477108
14570000000 -24.16534 176.77431 -54.076256 -85.195099 -61.547764 -74.477966 -11.399747 -61.804356
14580000000 -23.871061 175.12978 -55.674622 -127.12383 -65.420799 -126.40336 -11.941875 -67.84066
14590000000 -23.989902 166.26057 -56.551548 -168.91206 -65.401779 167.53667 -12.462543 -73.344208
14600000000 -24.881765 170.20711 -58.321568 162.28891 -69.520988 90.585037 -12.90905 -78.515999
14610000000 -25.061211 169.19763 -62.02309 135.86804 -68.019714 -9.1183424 -13.334157 -83.980919
14620000000 -25.171358 179.58926 -58.903927 128.47278 -68.598198 -115.99978 -13.830991 -90.45816
14630000000 -24.040552 179.52347 -55.90173 81.877518 -68.86985 123.75778 -14.375663 -96.950958
14640000000 -23.10667 179.5498 -54.889648 38.061535 -65.688599 35.634796 -14.882375 -103.08439
14650000000 -22.250313 174.37862 -55.310402 -7.6283984 -63.820335 -33.358227 -15.313741 -108.84629
14660000000 -21.603426 168.9001 -57.336189 -37.330185 -65.099167 -91.525635 -15.786684 -114.2793
14670000000 -22.04628 161.67479 -57.806225 -60.633709 -69.462433 -170.50584 -16.379908 -120.49957
14680000000 -22.063498 159.35599 -56.294113 -74.504593 -70.571381 27.595806 -17.119766 -128.13069
14690000000 -23.02976 159.26295 -55.004322 -107.59863 -63.54974 -43.100651 -17.919615 -137.30583
14700000000 -22.827332 164.97049 -53.809563 -133.43423 -58.535835 -101.97453 -18.506706 -147.3513
14710000000 -22.379168 167.83464 -53.524227 -166.0424 -59.656765 -143.66986 -18.762344 -157.2878
14720000000 -21.555185 166.97305 -53.551662 155.62456 -65.640923 172.46886 -18.679632 -166.95154
14730000000 -20.920034 164.94151 -56.717514 133.23636 -61.566475 -129.68132 -18.546602 -176.58051
14740000000 -20.2759 157.39755 -55.56815 121.62495 -55.882702 -179.34677 -18.494177 175.03056
14750000000 -20.798859 152.97786 -55.407116 112.54945 -53.819626 151.19669 -18.478727 167.45236
14760000000 -20.584532 149.15685 -52.811653 75.484474 -53.516319 108.50939 -18.557812 159.36647
14770000000 -21.492838 146.13876 -54.739902 36.554935 -54.20763 85.707817 -18.672586 151.18015
14780000000 -21.149168 147.83813 -59.494232 19.569611 -54.884262 82.382286 -18.46982 142.29991
14790000000 -21.335241 149.24727 -59.304626 35.531094 -51.339058 63.001556 -17.996374 133.21782
14800000000 -20.538925 149.39049 -54.975483 23.18429 -49.652069 29.570677 -17.450499 125.00122
14810000000 -20.474691 147.80815 -53.069942 -11.754771 -48.964886 -3.5463579 -17.051125 118.25665
14820000000 -20.014685 145.51511 -55.238197 -49.655281 -49.764069 -34.411667 -16.776676 113.11306
14830000000 -20.113516 143.75343 -57.436142 -43.115166 -50.673199 -50.372768 -16.426624 108.71844
14840000000 -19.916943 138.74916 -53.164864 -48.017895 -48.688396 -64.478035 -15.996849 103.53252
14850000000 -20.717716 137.09941 -51.625656 -80.234787 -47.70359 -97.28981 -15.603869 98.28196
14860000000 -20.300665 135.19339 -50.184181 -100.15529 -47.478962 -122.39069 -15.293852 93.033272
14870000000 -20.992468 130.70917 -49.246338 -133.27982 -47.50238 -151.49117 -15.253088 88.520576
14880000000 -21.049782 129.97552 -49.411377 -148.54951 -48.240158 -170.3974 -15.274733 84.890793
14890000000 -21.434748 129.75375 -47.781315 -176.43202 -46.940582 170.73505 -15.128579 80.341347
14900000000 -21.122528 129.09431 -47.910103 162.33432 -46.248966 143.97476 -14.799738 74.516014
14910000000 -20.995502 131.31523 -46.469757 138.52687 -46.217728 113.19675 -14.384927 68.707802
14920000000 -20.280474 127.35363 -46.272263 110.4179 -47.212681 91.058823 -14.065895 64.293076
14930000000 -20.344561 125.7304 -46.571026 88.405251 -47.666451 73.479935 -13.933427 61.43372
14940000000 -20.208628 120.9063 -45.374054 69.051865 -46.142906 57.478161 -13.954154 59.745571
14950000000 -20.857677 118.19344 -44.397469 42.175739 -45.270031 28.336535 -13.976365 57.680622
14960000000 -21.426121 113.83552 -44.104546 11.954513 -45.191334 -2.8683348 -13.9371 53.445908
14970000000 -22.913836 117.88663 -44.848675 -13.932219 -47.165245 -25.501377 -14.01658 48.318565
14980000000 -23.093609 119.80547 -44.721031 -31.432384 -47.008869 -35.606937 -14.192206 44.007645
14990000000 -22.809376 127.37937 -43.922955 -53.683537 -44.935337 -56.172646 -14.363299 41.418072
15000000000 -22.042788 121.35436 -43.201889 -82.681602 -44.492634 -89.257935 -14.504631 39.11845
15010000000 -21.922783 120.44352 -43.670547 -110.74723 -45.806961 -116.35442 -14.574465 35.632809
15020000000 -21.730646 110.90395 -44.397507 -135.07503 -46.667736 -135.1188 -14.679728 30.388628
15030000000 -22.642204 109.41978 -44.791714 -150.13957 -46.622059 -143.3288 -14.837995 26.199015
15040000000 -23.194757 104.70205 -43.398026 -171.04739 -44.397552 -167.39493 -14.971645 23.988853
15050000000 -24.718527 111.10545 -43.108593 161.38826 -44.278236 164.47687 -15.131116 24.153389
15060000000 -24.639585 118.09303 -43.197094 132.77634 -44.670151 137.20915 -15.328366 24.242466
15070000000 -24.253286 124.96689 -44.023533 106.11724 -45.668087 116.91602 -15.76186 22.672091
15080000000 -23.448906 124.11794 -44.513916 90.51152 -44.862385 104.06844 -16.540764 18.911482
15090000000 -23.159023 120.90862 -43.748699 67.898819 -43.516762 76.339569 -17.56271 16.303431
15100000000 -23.783705 115.37826 -43.924782 44.277851 -43.92791 48.968403 -18.160032 16.252701
15110000000 -24.630562 117.02603 -44.271671 18.66197 -44.825951 25.385244 -18.182943 16.574997
15120000000 -25.127739 117.28896 -44.667675 -2.3404469 -44.402271 10.465998 -18.262291 14.675122
15130000000 -25.439384 121.66874 -45.323475 -22.424559 -44.1404 -10.808245 -18.986389 12.771029
15140000000 -25.092619 124.70121 -44.558174 -40.841423 -43.148193 -35.135818 -20.031296 14.831751
15150000000 -24.666019 125.96224 -44.295017 -65.680962 -43.214897 -61.870266 -20.384232 21.389233
15160000000 -24.264051 125.34955 -44.808189 -90.488327 -43.797928 -85.983055 -19.912611 25.508846
15170000000 -24.168097 125.27982 -45.380547 -110.09531 -43.77718 -105.13092 -19.727316 26.058575
15180000000 -24.058624 125.12076 -45.398693 -126.30385 -43.603554 -127.11314 -20.33898 28.855904
15190000000 -23.857409 127.91116 -44.892532 -146.88826 -43.054176 -151.38287 -20.866562 37.417053
15200000000 -23.60397 128.24495 -44.714279 -168.25475 -43.486023 -172.82088 -20.522776 45.428638
15210000000 -23.061001 126.38817 -44.262604 165.57712 -43.054813 163.57872 -19.948088 46.687847
15220000000 -23.554636 123.80516 -44.805634 145.83038 -43.16954 140.04259 -19.850832 45.111153
15230000000 -23.588976 123.59943 -44.495331 125.4658 -43.451183 115.81691 -19.921425 45.456715
15240000000 -24.070568 124.23808 -44.410656 106.11969 -43.367855 96.744316 -19.637829 48.112137
15250000000 -24.01819 126.29479 -43.65255 83.96595 -43.033699 72.511642 -18.789812 49.912392
15260000000 -23.569735 128.36743 -43.069954 57.050838 -42.831791 49.693378 -17.818056 48.68264
15270000000 -22.824133 127.92901 -43.627338 30.740442 -42.822639 21.583574 -17.163961 45.759346
15280000000 -22.090015 123.64551 -44.407612 13.17801 -44.100021 -1.7225223 -16.836905 45.120308
15290000000 -21.86875 117.98805 -43.892826 -5.4979343 -44.666542 -17.330215 -16.385788 46.590286
15300000000 -22.248045 111.92351 -42.877918 -26.739014 -43.518772 -33.683544 -15.898615 47.709366
15310000000 -23.100809 110.48199 -42.233112 -55.482464 -42.49918 -63.365292 -15.490869 46.553417
15320000000 -23.705122 111.89903 -42.429707 -81.176964 -42.967606 -91.622688 -15.360243 43.62204
15330000000 -23.984665 118.63745 -43.357731 -108.01008 -44.365871 -119.34711 -15.344717 40.373894
15340000000 -23.133717 117.75867 -43.66523 -124.8912 -45.426121 -132.57831 -15.181615 38.085014
15350000000 -22.972769 120.0332 -43.085808 -145.69083 -44.681339 -149.0907 -14.808475 35.333874
15360000000 -22.081045 112.64252 -42.793976 -168.41052 -44.083385 -170.14722 -14.528974 32.423405
15370000000 -22.515902 108.30904 -42.252213 163.99156 -43.502998 159.42079 -14.326281 29.046049
15380000000 -22.473892 99.630341 -42.950844 135.97459 -44.813976 131.60963 -14.199385 25.164909
15390000000 -24.00593 97.606743 -44.025917 113.1546 -46.069908 112.78611 -14.041258 21.824848
15400000000 -24.474499 96.64328 -44.193325 97.265999 -45.83128 101.76566 -13.717163 19.152313
15410000000 -25.121998 102.46493 -43.183933 75.236069 -44.513954 78.796066 -13.442094 16.658495
15420000000 -24.768276 100.97304 -43.088688 45.23975 -44.604538 48.83749 -13.376686 14.32507
15430000000 -24.768036 103.58092 -43.942387 16.40398 -46.155476 23.135431 -13.573904 11.613763
15440000000 -24.306292 98.030792 -45.208431 -4.8184261 -46.31295 10.000486 -13.845367 8.1966944
15450000000 -25.010275 94.718903 -45.617188 -23.271442 -46.038666 -12.253104 -14.025218 2.7256367
15460000000 -25.283278 89.862854 -45.677975 -45.178627 -46.489792 -34.803707 -14.080188 -3.3020256
15470000000 -26.54611 89.238503 -45.66301 -66.030312 -46.226154 -52.231983 -14.009407 -8.9163332
15480000000 -26.642834 85.87368 -45.490715 -93.323204 -45.997608 -76.401909 -13.991628 -13.434544
15490000000 -27.674784 87.718033 -47.067162 -117.68312 -46.380054 -98.627663 -14.107551 -17.257978
15500000000 -27.722231 80.788841 -47.760681 -137.10835 -46.291252 -120.49725 -14.254726 -21.042854
15510000000 -29.146637 80.746429 -48.590977 -156.96936 -46.602871 -143.0612 -14.47368 -25.454878
15520000000 -30.021778 76.950951 -49.394672 -176.71838 -47.437706 -163.73499 -14.704098 -30.014803
15530000000 -31.23518 82.744087 -50.419559 167.0567 -47.37257 -179.02423 -14.994052 -35.066341
15540000000 -32.221992 81.6912 -50.013836 152.57733 -46.213036 159.61092 -15.472515 -40.489681
15550000000 -32.036629 94.107635 -50.407028 132.51276 -46.573425 130.76001 -16.087019 -46.64579
15560000000 -32.436913 81.399597 -50.383884 117.63648 -46.638733 112.14442 -16.689751 -53.461819
15570000000 -33.8535 84.988197 -50.062252 99.311691 -46.722153 89.47187 -17.095104 -61.85717
15580000000 -35.463905 60.883205 -49.375431 84.192871 -46.769875 66.280952 -17.285175 -71.29792
15590000000 -40.811607 65.953957 -49.380299 56.761196 -47.024342 40.040455 -17.41156 -80.399208
15600000000 -46.000313 -0.29476708 -49.585098 41.517311 -47.161663 19.412697 -17.510677 -88.096001
15610000000 -44.003345 -148.17163 -49.269279 21.738806 -48.112186 -4.2870235 -17.688093 -95.238739
15620000000 -43.511227 -139.13222 -47.594345 4.4801631 -47.651402 -23.510363 -17.996527 -101.57764
15630000000 -37.712143 -165.66087 -47.487133 -21.899696 -47.993465 -44.599365 -18.385107 -108.81409
15640000000 -41.393097 -159.3652 -47.050438 -44.770065 -47.534527 -69.351921 -18.834724 -117.91046
15650000000 -38.380795 -161.63432 -46.966373 -68.606316 -48.73365 -94.50563 -19.121317 -129.15015
15660000000 -39.853355 -126.16222 -46.931137 -91.447449 -49.524677 -114.44971 -19.086399 -141.21452
15670000000 -34.782341 -136.95851 -46.433685 -117.69328 -49.366901 -134.43678 -18.674976 -151.18596
15680000000 -32.862003 -122.81082 -46.157791 -142.10153 -49.457024 -158.21233 -18.038376 -158.99396
15690000000 -30.247227 -137.66521 -46.519173 -171.51581 -50.561588 178.25256 -17.530571 -165.9025
15700000000 -29.20097 -136.43645 -47.471573 167.98044 -51.424946 162.55772 -17.192686 -172.52144
15710000000 -28.225279 -145.43489 -47.23119 144.84198 -51.57832 141.8876 -16.925779 -179.08255
15720000000 -27.930468 -144.26733 -47.391327 116.35968 -51.970406 124.47727 -16.641886 174.92738
15730000000 -27.37405 -148.18964 -48.209499 93.592056 -52.472969 107.14478 -16.266758 169.71294
15740000000 -27.459911 -147.05611 -47.823845 69.3414 -50.913639 85.892151 -15.952425 164.64922
15750000000 -27.049492 -147.82564 -48.451576 40.966568 -52.079262 55.630478 -15.737944 159.15701
15760000000 -26.609858 -143.95796 -49.746311 15.263657 -54.21339 42.339127 -15.550354 152.93829
15770000000 -25.878525 -146.88545 -51.172951 -10.972676 -54.598442 25.094309 -15.173796 146.32094
15780000000 -25.56485 -144.53918 -53.627193 -28.694635 -54.007629 21.454773 -14.647161 141.14459
15790000000 -24.483053 -146.00192 -53.925411 -39.026241 -51.758125 -0.86682326 -13.991701 137.73141
15800000000 -23.658495 -148.5446 -54.101261 -69.544624 -52.384396 -29.883764 -13.458982 135.33835
15810000000 -23.279369 -153.34856 -56.031548 -94.288109 -52.679684 -49.474819 -13.191785 133.38953
15820000000 -23.22127 -154.93132 -59.362381 -123.1451 -53.522232 -68.40345 -13.111992 131.09152
15830000000 -23.096554 -155.938 -62.465454 -85.573853 -52.377491 -83.69268 -13.086392 128.16023
15840000000 -23.259626 -153.79333 -60.049286 -103.99793 -51.491467 -108.71909 -13.013457 124.49567
15850000000 -22.927263 -154.20572 -58.830822 -115.4551 -51.82505 -131.39104 -12.865017 120.5534
15860000000 -22.800142 -149.91399 -58.438679 -122.29313 -52.053322 -150.16666 -12.635954 116.63419
15870000000 -22.115341 -151.4722 -55.950737 -142.83875 -51.148941 -175.41666 -12.40296 112.93086
15880000000 -21.898165 -151.04185 -55.258587 -158.35152 -51.957249 159.92014 -12.142633 109.55511
15890000000 -21.39292 -153.80797 -53.530056 176.19374 -52.059177 136.0771 -11.891897 106.48147
15900000000 -21.352913 -155.66042 -52.373344 156.95822 -52.265579 116.75415 -11.61816 104.08482
15910000000 -21.081308 -156.75787 -51.289421 134.03163 -52.43029 96.287025 -11.366816 101.9734
15920000000 -20.886587 -157.30637 -50.468643 105.18676 -51.781792 72.711021 -11.177443 100.22316
15930000000 -20.752872 -158.42844 -50.721401 76.866386 -52.81657 47.248627 -11.071033 98.340874
15940000000 -20.656628 -157.11819 -51.149719 53.858402 -54.163971 24.525784 -11.042532 96.384476
15950000000 -20.369843 -156.59233 -50.030891 33.098053 -53.766033 11.340737 -11.055176 94.15773
15960000000 -20.176817 -154.1804 -49.353714 3.4061482 -53.187561 -14.241662 -11.074157 91.620605
15970000000 -19.602449 -153.8495 -50.450584 -25.161739 -54.427605 -39.582378 -11.060899 88.598984
15980000000 -19.373678 -153.24603 -50.648064 -48.335438 -55.849113 -58.655815 -10.986073 85.293037
15990000000 -18.813646 -153.30185 -51.235043 -70.036873 -57.276524 -69.082535 -10.844316 82.064072
16000000000 -18.712654 -155.62299 -51.080299 -91.072426 -55.642815 -81.89624 -10.660447 79.335983
16010000000 -18.387272 -156.27376 -51.157505 -117.09514 -55.144978 -102.86333 -10.464822 77.462067
16020000000 -18.526218 -158.3822 -51.816723 -145.31906 -55.206093 -129.19022 -10.335539 75.879478
16030000000 -18.445896 -156.87263 -53.226505 -170.44252 -57.585548 -150.2262 -10.308576 74.315987
16040000000 -18.218904 -156.04308 -53.982567 172.63835 -57.395863 -152.93626 -10.389635 72.241318
16050000000 -17.699814 -155.10356 -55.075432 149.2523 -57.045162 -172.56233 -10.495494 69.855682
16060000000 -17.238773 -154.36607 -56.363892 122.6299 -58.028358 166.96471 -10.577057 67.030655
16070000000 -16.610479 -155.11836 -57.984089 111.61918 -55.851379 160.43515 -10.606538 64.381104
16080000000 -16.257971 -156.44513 -58.699207 105.42632 -54.665962 141.8605 -10.612078 61.495991
16090000000 -15.876806 -157.7905 -59.372841 81.468178 -54.5144 116.6173 -10.682238 58.516785
16100000000 -15.909556 -159.77658 -57.930035 90.105194 -52.208309 97.32914 -10.756624 55.35495
16110000000 -15.813998 -159.30504 -57.771339 54.743095 -52.114288 62.752117 -10.766841 52.077404
16120000000 -15.763347 -158.72316 -56.687298 42.58239 -51.566887 40.150341 -10.716841 49.080551
16130000000 -15.257528 -158.0179 -58.694275 17.865118 -52.733372 14.35575 -10.641846 46.974236
16140000000 -14.984111 -158.77203 -59.089211 15.905778 -53.066128 -2.8883245 -10.638049 45.586552
16150000000 -14.478372 -159.76843 -55.379158 11.47164 -52.368332 -14.379285 -10.793844 44.109135
16160000000 -14.174306 -161.06407 -52.85973 -18.609444 -50.166328 -40.343815 -11.133284 42.044994
16170000000 -13.67903 -162.59802 -51.348721 -51.800278 -49.861465 -73.455299 -11.508426 38.866547
16180000000 -13.548998 -164.21202 -51.828239 -87.778358 -49.820335 -107.59403 -11.881571 34.507427
16190000000 -13.265294 -164.98651 -53.166248 -107.78364 -51.323536 -136.12541 -12.147174 30.078588
16200000000 -13.170478 -165.35121 -52.378067 -129.16405 -51.307178 -154.72649 -12.374568 26.259129
16210000000 -12.816485 -166.08018 -53.042728 -150.70366 -52.632416 178.23909 -12.563144 22.81061
16220000000 -12.802177 -166.21878 -52.19857 -170.76573 -53.019268 159.49911 -12.841818 19.088711
16230000000 -12.441505 -166.90198 -51.538288 163.48444 -52.915287 140.26912 -13.198649 15.365411
16240000000 -12.316975 -166.86156 -51.304844 140.97879 -53.113644 115.69102 -13.56528 11.919795
16250000000 -11.87122 -168.41586 -50.324909 112.16256 -52.281837 90.074364 -13.93645 9.5446157
16260000000 -11.636995 -169.88692 -50.805721 73.855339 -52.835052 48.515087 -14.384561 7.3730254
16270000000 -11.256672 -172.2187 -52.328033 47.805073 -54.839966 26.271269 -15.103579 5.178802
16280000000 -11.153195 -174.60872 -53.89925 26.632015 -57.839767 -8.903101 -16.128836 1.6341733
16290000000 -10.96074 -176.10411 -54.247177 15.590375 -62.130192 -5.5822272 -17.370064 -3.5770872
16300000000 -10.970387 -177.25064 -54.059612 -8.5501823 -61.700253 -12.43147 -18.542006 -10.295712
16310000000 -10.787396 -177.16927 -53.915775 -38.736332 -59.341946 -28.189482 -19.60058 -17.978655
16320000000 -10.661848 -176.4799 -55.384075 -64.070488 -63.344719 -53.592613 -20.522717 -25.388805
16330000000 -10.156576 -176.4693 -55.807724 -97.81916 -62.93185 -64.042679 -21.799921 -33.703602
16340000000 -9.8862114 -178.02475 -57.457767 -119.30033 -62.904163 -82.100388 -23.429138 -41.127972
16350000000 -9.5528135 -179.98772 -57.658943 -134.59895 -62.015484 -89.601181 -25.253145 -51.172462
16360000000 -9.4672356 177.49951 -58.421871 -177.94502 -66.932182 -125.89684 -27.76092 -62.162563
16370000000 -9.4122906 175.22704 -63.018745 162.52356 -63.592667 -100.91405 -30.472425 -81.271454
16380000000 -9.5232229 173.80353 -66.192711 115.78062 -63.500118 -123.37378 -32.659309 -126.0267
16390000000 -9.4370785 173.38628 -75.654938 -73.151741 -59.963387 -126.17027 -29.496624 -167.76601
16400000000 -9.345026 173.39482 -64.346619 -150.37857 -57.067741 -166.65997 -25.724285 175.36998
16410000000 -8.9593182 173.25041 -64.440636 143.9987 -57.976158 162.23036 -23.388554 168.99277
16420000000 -8.6459541 172.20192 -76.231842 163.3316 -59.628788 130.83443 -21.712503 164.61848
16430000000 -8.2929296 170.53735 -65.02063 155.97772 -59.532833 117.98652 -20.627422 159.72452
16440000000 -8.1747503 168.82475 -70.026711 128.07173 -61.530369 86.76432 -19.588814 153.69038
16450000000 -8.0283241 167.15443 -61.736874 163.88579 -61.707123 101.8855 -18.758934 148.13708
16460000000 -8.0700617 165.89571 -57.63303 112.28843 -58.709709 72.273911 -17.872419 144.40935
16470000000 -8.043704 165.2292 -56.456802 79.210304 -57.185608 50.636116 -17.082157 140.09084
16480000000 -7.9978261 164.84213 -57.240856 40.334217 -57.284 10.151648 -16.48122 135.24712
16490000000 -7.8134475 164.05469 -57.282879 27.500538 -58.283066 -2.5731916 -15.902652 130.40025
16500000000 -7.7012181 163.6386 -57.05722 1.1977273 -58.504421 -28.959356 -15.11592 126.40474
16510000000 -7.3846741 162.27873 -56.424232 -26.132622 -58.5135 -53.665577 -14.299731 123.1922
16520000000 -7.2269354 161.01988 -58.325748 -57.999981 -61.831432 -91.593918 -13.658724 121.43758
16530000000 -6.9574475 159.30565 -57.2267 -64.544884 -60.697575 -72.254478 -13.287699 120.35
16540000000 -6.9031215 158.04694 -56.880524 -90.074196 -60.618649 -101.43481 -13.041436 118.57452
16550000000 -6.7624674 156.75055 -55.312744 -119.43652 -59.071362 -128.81955 -12.927958 115.64565
16560000000 -6.7448249 156.1321 -55.509964 -152.02109 -60.427711 -161.89948 -12.725116 112.19904
16570000000 -6.6428432 155.50111 -56.548214 179.64331 -62.46003 170.09055 -12.419591 108.79374
16580000000 -6.5535588 155.38974 -60.083206 158.3506 -68.900055 174.05388 -12.087096 105.75362
16590000000 -6.3442745 154.55367 -59.024391 139.75156 -63.876617 161.66988 -11.848636 103.20226
16600000000 -6.197751 153.71129 -60.940777 133.46365 -63.454475 170.53766 -11.6255 100.71544
16610000000 -5.9653611 152.28122 -58.974003 109.34799 -60.975685 143.27324 -11.400519 98.00164
16620000000 -5.808836 150.76483 -60.090572 77.903534 -60.727135 115.38509 -11.089395 95.273666
16630000000 -5.6458869 148.90457 -60.932178 70.44577 -60.689617 103.36301 -10.776228 93.417328
16640000000 -5.584198 147.72261 -61.067974 40.004337 -61.597885 84.098839 -10.478294 92.283333
16650000000 -5.4487929 146.65564 -65.190826 33.32729 -59.445724 84.626823 -10.334812 91.087425
16660000000 -5.3491683 146.06905 -65.862885 22.46524 -57.945919 52.430515 -10.331914 89.557434
16670000000 -5.1709185 145.53123 -63.098301 39.625687 -56.947617 34.162113 -10.423978 87.141586
16680000000 -4.9840651 144.96349 -60.822605 4.4315557 -56.28635 2.7186909 -10.431614 84.027122
16690000000 -4.7566619 143.96307 -60.382896 -4.9011021 -56.012196 -19.255806 -10.343396 80.405312
16700000000 -4.5837421 142.619 -59.426914 -21.516853 -55.580257 -36.506119 -10.176898 77.433762
16710000000 -4.407938 140.9785 -56.912907 -43.159126 -54.124874 -62.550034 -9.9639292 74.966904
16720000000 -4.345696 139.43628 -56.279667 -71.47139 -54.341194 -90.970535 -9.799942 73.044701
16730000000 -4.2273226 138.03813 -55.99411 -99.012207 -53.680901 -118.00534 -9.6701202 71.214081
16740000000 -4.1373415 136.87257 -56.503571 -115.26142 -54.855957 -138.64273 -9.6009827 69.559967
16750000000 -3.9980118 135.83145 -55.052776 -126.41129 -54.485291 -152.3167 -9.4940128 67.89315
16760000000 -3.8249252 134.82787 -52.029293 -159.54286 -52.16407 -177.17639 -9.4794655 66.065384
16770000000 -3.6237941 133.6227 -52.295792 170.45538 -52.673889 150.88783 -9.4982452 64.307259
16780000000 -3.4529741 132.25398 -51.630039 146.98708 -51.987865 128.65099 -9.5655413 62.246651
16790000000 -3.3061843 130.77397 -51.736713 115.12656 -52.473942 97.474564 -9.642087 59.67263
16800000000 -3.1965632 129.36723 -51.926754 88.412125 -53.452793 73.346199 -9.7052145 56.389294
16810000000 -3.0884306 127.92636 -52.809433 69.843224 -54.091698 53.762154 -9.7129612 52.989628
16820000000 -2.9983127 126.49647 -51.783218 48.85342 -54.044682 34.06237 -9.6540842 49.342751
16830000000 -2.8886402 125.03484 -50.784447 24.107853 -53.136681 13.555547 -9.5566702 46.195663
16840000000 -2.7711053 123.67229 -50.348404 -6.2240167 -52.654243 -14.518698 -9.432745 43.68187
16850000000 -2.6295211 122.09037 -50.332058 -38.845978 -52.544651 -43.545944 -9.3093481 41.805489
16860000000 -2.5071487 120.57116 -50.578339 -65.63942 -53.181759 -71.40406 -9.2460346 40.315937
16870000000 -2.3712285 119.05608 -51.931782 -96.243835 -55.260818 -103.65292 -9.2674036 39.04055
16880000000 -2.256855 117.63508 -53.47464 -115.05862 -57.211369 -111.99495 -9.3787317 37.163509
16890000000 -2.1380091 116.22604 -52.796562 -131.17229 -56.11195 -122.97517 -9.5737514 34.600864
16900000000 -2.0361328 114.92355 -52.454052 -159.41417 -55.220306 -147.48135 -9.7862663 31.051727
16910000000 -1.9332565 113.4468 -52.531147 171.45346 -55.102264 -177.01706 -9.9310179 27.214622
16920000000 -1.8586135 112.04218 -53.26284 144.50935 -56.224377 156.50542 -9.941637 23.066372
16930000000 -1.7698554 110.50201 -54.278053 110.76998 -57.277641 133.55925 -9.9076452 19.181204
16940000000 -1.7052333 108.94285 -56.669781 91.588394 -58.608051 119.49294 -9.8459702 15.524233
16950000000 -1.6142787 107.31203 -57.659309 71.554527 -57.686203 103.26064 -9.8507404 12.229413
16960000000 -1.5329218 105.66855 -58.795727 45.350819 -58.284447 82.913902 -9.8940144 9.0444031
16970000000 -1.4338821 104.07565 -60.436375 33.110355 -57.967525 59.095795 -10.004396 6.2291946
16980000000 -1.3436085 102.45341 -61.786835 16.623756 -58.743023 44.403202 -10.133732 3.2827139
16990000000 -1.2444518 100.85276 -61.852089 2.8485937 -57.726929 22.016527 -10.306253 0.25636461
17000000000 -1.1662602 99.30265 -63.173473 -14.56004 -56.866035 -1.7877862 -10.51462 -3.5745132
