!Keysight Technologies,P9374A,MY57211807,A.19.30.04
!Date: Friday, May 08, 2026 14:23:26
!Correction: S11(C  2-Port  ) 
!S21(C  2-Port  ) 
!S12(C  2-Port  ) 
!S22(C  2-Port  ) 
!S2P File: Measurements: S11, S21, S12, S22:
# Hz S  dB   R 50
13000000000 -18.627777 75.87915 -46.214943 -160.44708 -46.527786 -158.16891 -14.750804 -82.271942
13010000000 -17.119797 71.672371 -45.575943 177.15063 -45.323036 177.63811 -15.291708 -85.223434
13020000000 -16.714197 61.841709 -44.951221 151.40904 -44.787151 152.70351 -15.899349 -88.63678
13030000000 -16.964409 52.359867 -45.285252 125.51572 -45.05307 125.55514 -16.637268 -92.258354
13040000000 -18.758793 42.415524 -45.588821 105.66615 -45.299286 105.4026 -17.497913 -96.374817
13050000000 -20.964849 42.993717 -46.248634 86.719856 -46.225746 85.008331 -18.456512 -100.84448
13060000000 -23.745123 53.238804 -46.487324 72.761192 -46.078915 73.135582 -19.344452 -106.9179
13070000000 -23.052713 77.117226 -45.202194 58.537872 -44.856377 56.277061 -20.07892 -114.87721
13080000000 -20.773102 85.620949 -43.986458 33.004467 -43.612885 28.777605 -20.647167 -123.49568
13090000000 -18.139456 79.618408 -43.87767 6.8012843 -43.93132 3.8548815 -21.333424 -131.03905
13100000000 -17.281548 69.534874 -43.93755 -15.212416 -44.264198 -17.585369 -22.08049 -138.10443
13110000000 -16.760633 58.709068 -44.393059 -36.593769 -44.33754 -37.64835 -23.066658 -146.97032
13120000000 -17.691488 47.250107 -44.553242 -51.659889 -44.451576 -53.849728 -23.895527 -159.05135
13130000000 -18.95311 42.19088 -43.504143 -71.830795 -43.734337 -73.707779 -24.086021 -173.62045
13140000000 -21.517879 41.948467 -43.573624 -96.738686 -43.555439 -97.011147 -23.759262 172.38394
13150000000 -23.114611 57.876789 -43.893303 -114.31534 -43.812626 -115.9109 -23.302675 160.30121
13160000000 -22.338518 79.154694 -43.706741 -132.02232 -43.787914 -132.74828 -22.815125 148.75784
13170000000 -19.437862 81.455482 -42.690456 -148.7428 -42.616962 -148.10541 -22.064249 137.03578
13180000000 -17.960857 75.953033 -41.754959 -171.07037 -41.703625 -172.77739 -20.945417 126.28941
13190000000 -16.585663 65.632675 -41.243523 162.24692 -41.208057 162.27118 -19.732264 119.08886
13200000000 -16.702703 51.338146 -41.097725 138.39333 -40.952248 137.35037 -18.60825 114.33117
13210000000 -17.358641 41.842072 -41.654854 114.65462 -41.509834 113.85556 -17.802189 110.65398
13220000000 -19.036852 32.109062 -42.00478 97.45504 -41.744633 94.661972 -17.16979 106.0424
13230000000 -21.476591 34.508694 -41.801952 81.711899 -41.764996 78.057648 -16.576944 100.24459
13240000000 -23.509684 49.990505 -41.229839 64.354958 -41.341175 62.310875 -15.849917 94.188011
13250000000 -21.933529 70.151421 -40.016068 44.216496 -40.086205 42.650711 -14.964129 89.165855
13260000000 -19.404482 75.062645 -39.122089 19.612619 -39.243595 18.052885 -14.062774 85.589638
13270000000 -17.281792 66.221489 -38.719654 -5.7997508 -38.792419 -7.3886886 -13.359945 82.691322
13280000000 -16.558331 54.364861 -39.057629 -31.261301 -39.210354 -33.175819 -12.857321 80.082047
13290000000 -16.598989 40.964203 -39.166271 -50.289066 -39.455231 -51.274616 -12.447989 77.041222
13300000000 -17.782476 28.853987 -38.576511 -70.716125 -38.753128 -70.704216 -12.02288 73.37394
13310000000 -19.590467 21.227627 -38.407803 -91.899223 -38.530098 -90.780617 -11.470793 69.362007
13320000000 -22.269592 20.738125 -37.994923 -113.86516 -37.88319 -114.19112 -10.92807 65.623055
13330000000 -24.338509 38.562271 -37.823631 -136.28667 -37.791107 -136.68221 -10.452407 62.480995
13340000000 -22.677507 59.702129 -37.605824 -156.0775 -37.440586 -156.61293 -10.07757 59.466129
13350000000 -20.136509 61.230125 -37.024609 -177.47954 -36.901096 -178.25192 -9.7740421 56.282097
13360000000 -18.135015 55.552814 -36.584599 159.86337 -36.426434 159.25832 -9.4797049 52.389385
13370000000 -17.064463 42.348057 -35.987007 138.02231 -35.767879 136.63576 -9.0982666 48.141258
13380000000 -17.204374 28.685617 -35.673012 112.67737 -35.61021 110.53048 -8.6606503 44.145809
13390000000 -18.351448 15.679656 -35.702477 89.659889 -35.540024 88.121391 -8.2132807 40.616947
13400000000 -20.40967 7.327858 -35.582798 68.101685 -35.466221 65.952812 -7.8350062 37.572773
13410000000 -23.430292 3.196774 -35.330822 46.861355 -35.173042 44.393055 -7.5880861 34.7248
13420000000 -26.854816 24.08297 -34.800949 25.014923 -34.773674 22.399214 -7.4156299 31.479393
13430000000 -25.358013 50.739273 -34.122593 1.7446328 -34.178642 -1.3165965 -7.258882 27.751545
13440000000 -21.688128 55.026814 -33.703651 -23.74733 -33.902954 -25.977997 -7.1032047 23.502707
13450000000 -19.396511 44.607681 -33.697491 -50.130726 -33.755257 -51.533035 -6.9288054 19.264698
13460000000 -18.394381 30.884336 -33.950344 -74.035126 -34.027668 -75.764671 -6.7151423 15.537024
13470000000 -18.501396 15.232433 -33.955048 -93.987877 -34.077721 -96.220177 -6.5335979 12.045762
13480000000 -19.390247 1.994013 -33.672626 -116.02694 -33.912678 -117.27755 -6.3909883 8.6237879
13490000000 -21.773714 -14.498479 -33.110847 -139.36383 -33.294403 -140.26637 -6.3197932 5.0960364
13500000000 -26.129494 -19.704817 -32.980198 -165.19669 -33.054245 -165.48413 -6.3211703 1.4796621
13510000000 -32.829918 19.706711 -33.005478 170.58516 -32.998158 170.03516 -6.3258691 -2.1012301
13520000000 -27.444384 55.190624 -32.997883 146.81487 -33.020927 146.1356 -6.3471227 -5.6872482
13530000000 -23.350235 51.9473 -33.288502 122.82016 -33.245186 122.48005 -6.4008417 -9.2161007
13540000000 -21.082794 37.450588 -33.34166 101.75454 -33.237774 101.16129 -6.4643993 -12.634682
13550000000 -20.140827 21.806532 -33.123074 78.95472 -33.047451 78.434708 -6.5478396 -16.142288
13560000000 -19.846725 3.7951844 -33.014679 56.262241 -32.824474 55.333271 -6.6658406 -19.906128
13570000000 -21.684805 -16.674294 -32.937054 32.069668 -32.721371 30.940403 -6.7776566 -23.496275
13580000000 -24.496292 -31.39687 -33.009663 8.5032291 -32.797745 6.6509533 -6.891396 -26.830818
13590000000 -31.062368 -43.272442 -33.156273 -14.411491 -33.038822 -16.377983 -6.9826002 -29.720779
13600000000 -38.954624 40.482605 -33.242569 -36.815048 -33.084991 -38.631344 -7.0817451 -32.569942
13610000000 -28.378241 75.155106 -32.958412 -58.413071 -32.843082 -60.715538 -7.254951 -35.212212
13620000000 -23.885036 55.337147 -32.876781 -83.688194 -32.84267 -86.149963 -7.4806895 -37.964783
13630000000 -22.352945 38.371468 -33.016438 -107.37545 -32.991768 -110.11452 -7.7152114 -40.795235
13640000000 -21.462803 16.919142 -33.458054 -131.29733 -33.493595 -133.72476 -7.9425025 -43.896889
13650000000 -22.452984 -3.7789333 -33.498692 -152.09901 -33.682434 -154.75449 -8.1450901 -47.034599
13660000000 -23.739077 -22.998652 -33.749702 -174.21428 -33.904354 -175.60535 -8.316782 -49.923882
13670000000 -27.414156 -51.659374 -33.629383 164.79015 -33.709526 163.42982 -8.4875069 -52.531868
13680000000 -36.545338 -84.471542 -33.549324 142.18071 -33.604523 140.76768 -8.6761637 -54.880722
13690000000 -34.518497 114.74775 -33.435371 118.96751 -33.535309 117.5766 -8.8966303 -57.151642
13700000000 -26.170141 81.253082 -33.623219 94.516846 -33.68182 93.454247 -9.1463556 -59.514637
13710000000 -22.825359 56.573067 -33.839851 71.749573 -33.971581 70.424751 -9.400857 -61.956543
13720000000 -21.753782 32.917252 -34.16843 49.41518 -34.213394 49.302227 -9.6255131 -64.576103
13730000000 -22.046535 13.824761 -34.390774 28.892677 -34.374645 28.200968 -9.8536596 -67.229813
13740000000 -22.656767 -8.4958506 -34.342113 8.3921824 -34.20676 7.6762686 -10.107937 -69.615829
13750000000 -25.806383 -38.30743 -34.259914 -13.409324 -34.162216 -14.964938 -10.389272 -71.809845
13760000000 -32.013401 -64.538017 -34.125481 -35.792229 -34.231979 -37.299843 -10.7073 -74.213264
13770000000 -40.490257 -177.41087 -34.112915 -58.88509 -34.187481 -59.87389 -11.040781 -77.085739
13780000000 -29.96051 96.533989 -34.237236 -81.867439 -34.250454 -82.359161 -11.334471 -80.322189
13790000000 -25.638172 68.527374 -34.329884 -103.96353 -34.36483 -105.2721 -11.539417 -83.609703
13800000000 -23.298323 45.695774 -34.426548 -126.60692 -34.417255 -127.12212 -11.69789 -86.345375
13810000000 -21.765276 23.184349 -34.686699 -147.81479 -34.655842 -148.92673 -11.8758 -88.425789
13820000000 -21.818253 -1.5324587 -34.646835 -169.41861 -34.615513 -170.18124 -12.118208 -90.225578
13830000000 -23.391258 -20.161594 -34.738422 168.14883 -34.713608 167.47551 -12.462527 -92.354599
13840000000 -25.006252 -42.472023 -34.90173 146.02095 -34.843998 145.68546 -12.871196 -95.058067
13850000000 -31.092173 -66.956238 -35.078197 125.32822 -34.99464 125.07961 -13.24463 -98.276489
13860000000 -44.281307 -91.644737 -35.010971 105.67709 -34.76305 104.83157 -13.537965 -101.78339
13870000000 -32.838043 87.730553 -34.72171 82.787399 -34.565434 82.556496 -13.807899 -105.06607
13880000000 -26.453157 59.574104 -34.561428 60.764603 -34.299297 59.617691 -14.082597 -108.02981
13890000000 -23.116547 32.438667 -34.645622 36.175964 -34.517471 34.784523 -14.39371 -111.23286
13900000000 -22.193886 5.0914798 -34.990131 14.452472 -34.842941 12.446752 -14.738864 -115.00224
13910000000 -21.868067 -14.832861 -35.208961 -5.4579973 -35.138416 -7.6060362 -15.029399 -119.2807
13920000000 -22.374056 -42.051479 -34.910599 -25.399664 -34.8479 -27.71172 -15.253782 -123.3846
13930000000 -24.585684 -66.739418 -34.643486 -48.204971 -34.653111 -50.332581 -15.433127 -126.89981
13940000000 -27.699213 -95.345169 -34.707916 -71.409691 -34.736343 -73.117989 -15.652212 -130.03603
13950000000 -34.405445 -146.79619 -34.61544 -92.400108 -34.711887 -94.690216 -16.009895 -133.2966
13960000000 -36.741257 95.557983 -34.649971 -114.9965 -34.822193 -116.50467 -16.466516 -137.57127
13970000000 -29.324585 44.731178 -34.523491 -137.64967 -34.753242 -139.1322 -16.934143 -143.26653
13980000000 -25.965214 10.625288 -34.690014 -160.026 -34.909668 -161.08203 -17.274464 -149.98698
13990000000 -23.579014 -17.393957 -34.683407 178.72574 -34.809425 178.55312 -17.406012 -156.98257
14000000000 -22.657249 -46.758961 -34.468468 156.49112 -34.627892 155.86079 -17.357433 -163.43893
14010000000 -22.409254 -69.562233 -34.556671 133.10048 -34.687984 133.34065 -17.218365 -169.37267
14020000000 -23.091122 -95.401039 -34.451939 111.0945 -34.498062 111.35698 -17.119295 -175.09163
14030000000 -25.261936 -118.24972 -34.809116 87.563057 -34.765125 88.092369 -17.055338 179.35567
14040000000 -28.391479 -145.77101 -34.852425 67.883026 -34.765842 68.449509 -16.976683 173.71487
14050000000 -37.467159 166.38356 -34.732277 47.17104 -34.602924 47.642738 -16.86492 168.21848
14060000000 -36.631886 39.05225 -34.40826 24.850643 -34.261539 25.017551 -16.690393 162.73215
14070000000 -28.452848 -7.6480308 -34.398911 1.6076475 -34.100815 1.5765997 -16.496729 157.38623
14080000000 -25.873713 -42.726513 -34.392723 -20.607922 -34.125343 -21.863577 -16.293974 152.09259
14090000000 -23.921385 -66.453049 -34.445583 -42.671314 -34.233521 -43.56546 -16.122887 146.74681
14100000000 -22.88648 -98.25602 -34.427597 -63.71637 -34.163525 -65.670784 -15.893392 141.07796
14110000000 -22.997459 -122.00988 -34.355515 -85.694687 -34.16428 -87.974548 -15.624648 135.21568
14120000000 -23.165245 -148.9332 -34.231991 -106.45268 -34.119572 -109.10187 -15.237618 129.67186
14130000000 -25.232904 -174.48013 -34.006275 -128.65379 -33.95713 -131.05025 -14.752057 124.71379
14140000000 -28.569773 161.72569 -33.738171 -150.86011 -33.751614 -153.24709 -14.275261 120.53008
14150000000 -38.204327 117.4852 -33.483311 -173.84302 -33.52055 -176.03578 -13.90416 116.50394
14160000000 -37.396446 -47.087688 -33.351528 162.2946 -33.399918 159.85268 -13.63486 112.47585
14170000000 -28.362654 -71.230042 -33.462616 139.63588 -33.591145 137.59756 -13.36334 108.07627
14180000000 -24.708675 -100.87031 -33.181061 118.36726 -33.393642 116.5442 -13.01285 103.54311
14190000000 -23.164217 -123.40131 -32.983177 94.205429 -33.192841 92.94973 -12.563283 98.95652
14200000000 -21.99535 -146.89772 -33.019981 71.091881 -33.255672 70.319901 -12.107945 94.871834
14210000000 -22.409716 -170.95975 -32.966553 48.635494 -33.153423 48.538631 -11.71459 91.294296
14220000000 -23.287498 167.99283 -32.877525 26.471046 -32.945786 26.44552 -11.367582 87.938606
14230000000 -26.058268 143.01396 -32.554688 3.0610414 -32.546574 3.3862455 -11.055703 84.398598
14240000000 -32.460049 124.12721 -32.587963 -20.25086 -32.516495 -20.571228 -10.75881 80.556816
14250000000 -45.592342 -100.5597 -32.492188 -43.882702 -32.422256 -44.130135 -10.469505 76.88633
14260000000 -29.723835 -105.34835 -32.50687 -66.116753 -32.400631 -66.579361 -10.15679 73.368866
14270000000 -24.987307 -123.71783 -32.327328 -88.697334 -32.190147 -89.21933 -9.8572836 69.810005
14280000000 -22.922869 -147.39833 -32.214806 -111.82424 -32.043522 -112.5207 -9.6294489 66.044815
14290000000 -21.966761 -165.81967 -32.054005 -133.6812 -31.891224 -134.64767 -9.448534 62.095913
14300000000 -22.190407 170.32318 -31.910336 -157.12071 -31.652918 -158.34753 -9.2365437 58.100636
14310000000 -23.598009 150.70491 -31.707891 -179.96216 -31.461637 177.99998 -8.9693489 53.981594
14320000000 -26.09963 127.74152 -31.362165 157.38582 -31.225145 154.76662 -8.6749706 49.919102
14330000000 -32.443844 115.79986 -31.034321 132.608 -31.02363 130.30775 -8.4240055 46.127117
14340000000 -48.999207 -179.84912 -30.962275 107.43491 -30.883596 105.7204 -8.2342701 42.705944
14350000000 -30.27803 -123.00477 -31.024693 83.394287 -30.929569 81.334198 -8.0791044 39.376904
14360000000 -25.699339 -139.96356 -30.948517 60.461334 -30.886841 57.950432 -7.973763 35.714497
14370000000 -23.066351 -159.04248 -30.692686 36.854633 -30.711277 34.561985 -7.9046149 31.425468
14380000000 -22.373262 -179.83881 -30.484356 12.364869 -30.544504 10.129671 -7.8819995 26.991018
14390000000 -22.294882 162.51581 -30.52618 -11.625138 -30.603167 -13.576302 -7.8273749 22.702042
14400000000 -23.483475 138.43854 -30.309189 -34.323071 -30.370138 -36.035793 -7.7279735 18.386936
14410000000 -26.696339 117.66359 -29.873125 -59.333164 -29.967844 -60.782665 -7.6435437 14.044882
14420000000 -33.207954 90.502357 -29.833221 -85.127167 -29.829468 -86.620934 -7.646327 9.8686142
14430000000 -40.205193 -97.335594 -29.861868 -111.14486 -29.931091 -112.67284 -7.6944757 6.1694903
14440000000 -28.817942 -127.10852 -30.096994 -134.9068 -30.090471 -136.31731 -7.7096677 2.4570615
14450000000 -24.206213 -147.32793 -30.095062 -158.19525 -30.120003 -159.66542 -7.7506132 -1.8930627
14460000000 -22.459688 -168.33543 -29.991312 177.6226 -29.99649 176.31764 -7.8984365 -6.3937135
14470000000 -21.699471 173.92622 -29.936455 153.81329 -29.953074 152.10333 -8.1150265 -10.402278
14480000000 -22.364687 153.60938 -29.930367 129.05676 -29.924902 127.97697 -8.3361826 -14.261991
14490000000 -24.371981 135.74014 -29.923473 106.0247 -29.838436 104.19312 -8.568306 -18.733267
14500000000 -29.380196 118.9119 -29.631622 80.777458 -29.605007 78.873055 -8.8550711 -23.901024
14510000000 -39.137268 144.55936 -29.681784 55.075653 -29.74954 53.073292 -9.1809139 -29.219856
14520000000 -32.51387 -120.95262 -29.780943 30.299669 -29.774269 28.7707 -9.4463339 -33.806393
14530000000 -26.042933 -140.26805 -29.979851 6.7786155 -29.943962 4.8444004 -9.5959988 -37.859245
14540000000 -23.123814 -151.74451 -29.848875 -16.179144 -29.855455 -17.986485 -9.8197365 -41.900795
14550000000 -21.197309 -172.61438 -29.726059 -41.740425 -29.783722 -43.622391 -10.23075 -45.835461
14560000000 -21.119471 171.58272 -29.954859 -66.721222 -29.967051 -67.91597 -10.795547 -49.450283
14570000000 -21.335669 153.81375 -30.13386 -90.379738 -30.147579 -91.899612 -11.349499 -53.558605
14580000000 -23.704369 139.58209 -30.088507 -112.45324 -30.094112 -113.71484 -11.880145 -58.744106
14590000000 -27.363482 132.91969 -29.850767 -137.23059 -29.805927 -138.698 -12.447702 -64.5252
14600000000 -34.163315 172.61359 -29.913698 -162.89059 -29.874073 -163.97104 -13.11534 -69.84388
14610000000 -28.094486 -147.14444 -30.084364 172.23628 -30.050951 170.96339 -13.767187 -74.691216
14620000000 -23.142075 -148.87584 -30.337366 149.40633 -30.290766 148.18102 -14.378014 -80.483162
14630000000 -20.486778 -165.35245 -30.20693 125.91338 -30.078346 124.36109 -15.001677 -87.166641
14640000000 -19.457848 179.31911 -30.266941 102.04037 -30.164904 100.27405 -15.655432 -94.254974
14650000000 -19.215523 162.51904 -30.272604 77.664528 -30.200924 75.97773 -16.315826 -99.821831
14660000000 -20.235924 148.26689 -30.434689 54.267822 -30.337805 52.290382 -16.946163 -105.0089
14670000000 -22.323635 136.69051 -30.325584 31.183973 -30.229429 29.2216 -17.791113 -111.11928
14680000000 -25.84413 140.44189 -30.281792 7.0223422 -30.25 4.8534069 -18.897181 -118.84846
14690000000 -27.491926 167.13087 -30.489447 -17.16601 -30.380341 -19.365517 -20.180864 -129.37383
14700000000 -24.756773 -171.60434 -30.602028 -40.316452 -30.583496 -42.609322 -21.169096 -141.8689
14710000000 -21.439215 -171.06465 -30.616997 -61.936428 -30.614548 -64.054039 -21.483006 -156.3152
14720000000 -19.524767 179.1075 -30.192482 -85.254768 -30.161356 -87.534653 -21.354794 -171.05627
14730000000 -18.372629 166.98187 -30.108435 -111.14723 -30.161762 -113.26704 -21.000391 176.44315
14740000000 -18.117895 152.30367 -30.201994 -135.53157 -30.25411 -137.15485 -20.678732 166.41779
14750000000 -18.908714 139.3445 -30.444324 -159.36504 -30.45101 -161.25949 -20.295879 158.44632
14760000000 -20.402033 129.10411 -30.381977 178.32733 -30.412989 176.69373 -20.037264 149.62903
14770000000 -23.274136 126.2077 -30.252615 154.64989 -30.263254 152.71494 -19.79475 139.61426
14780000000 -25.458317 142.55249 -30.335552 130.67804 -30.36331 129.13869 -19.393929 129.49063
14790000000 -24.162743 168.61812 -30.293377 107.99933 -30.313677 106.024 -18.7591 120.63622
14800000000 -20.735964 172.42178 -30.269949 84.806877 -30.353264 83.315941 -17.953674 113.83447
14810000000 -18.46438 164.02365 -30.065376 61.241341 -30.085615 60.187035 -17.180984 107.93393
14820000000 -17.362055 151.01337 -30.098001 36.891979 -30.010571 35.373119 -16.606964 102.82214
14830000000 -17.320494 137.73505 -30.049789 14.096994 -30.040499 12.337348 -16.154446 98.464325
14840000000 -18.155462 124.05745 -29.922644 -10.344071 -29.917973 -11.58048 -15.663818 94.549484
14850000000 -20.189882 113.75616 -29.878391 -33.698215 -29.835276 -35.174301 -15.186233 90.855476
14860000000 -23.0707 113.24622 -29.780602 -57.808434 -29.771946 -59.215195 -14.817063 87.334892
14870000000 -25.593613 129.13741 -29.85463 -82.370087 -29.804232 -83.807259 -14.595666 83.917068
14880000000 -24.169975 150.90764 -29.948606 -104.83344 -29.90992 -106.32866 -14.489045 79.96698
14890000000 -21.363277 154.72485 -29.866581 -127.59198 -29.766155 -129.10117 -14.364814 75.03022
14900000000 -19.136118 147.19389 -29.599863 -150.21851 -29.562872 -152.334 -14.107356 69.576355
14910000000 -17.917187 136.46739 -29.416801 -174.71094 -29.46277 -176.5311 -13.747722 65.068604
14920000000 -17.503733 122.29286 -29.343157 161.68024 -29.288057 160.17609 -13.326947 62.012989
14930000000 -18.284231 108.83887 -29.315647 137.38364 -29.253874 135.74422 -12.970913 59.979599
14940000000 -20.034426 97.682861 -29.133659 113.70752 -29.087715 111.87507 -12.829713 57.845482
14950000000 -23.414888 94.532707 -29.119989 88.658195 -29.106756 86.724426 -12.894106 55.413303
14960000000 -27.102434 110.15714 -29.12332 64.966415 -29.163755 63.285152 -13.015678 52.301022
14970000000 -25.803932 149.63103 -29.073528 41.597927 -29.050793 39.962055 -13.097558 49.225208
14980000000 -22.149057 149.35063 -28.976471 18.077089 -28.969572 16.388681 -13.143865 45.792603
14990000000 -19.759823 141.20045 -28.791363 -6.0774217 -28.803919 -7.5404086 -13.222733 42.86544
15000000000 -18.859367 124.33928 -28.811502 -31.121403 -28.775515 -32.499043 -13.416116 39.504192
15010000000 -18.901497 110.63995 -28.682936 -54.989326 -28.650967 -56.389416 -13.67555 36.125137
15020000000 -19.883217 93.427353 -28.73665 -79.721512 -28.699738 -80.922905 -13.796861 32.48597
15030000000 -22.348457 82.238297 -28.680157 -102.478 -28.565903 -104.14742 -13.827089 29.320185
15040000000 -26.483032 77.575607 -28.650492 -127.18419 -28.604406 -129.11403 -13.728498 27.604771
15050000000 -31.453859 116.13882 -28.613844 -150.72249 -28.544586 -152.30208 -13.80813 26.883499
15060000000 -26.876923 153.23442 -28.556952 -175.63879 -28.434374 -177.35152 -14.107851 26.739109
15070000000 -22.679165 150.5744 -28.583553 159.61836 -28.490139 157.88602 -14.720076 26.257374
15080000000 -20.649597 138.56348 -28.581362 134.91821 -28.489897 132.54852 -15.502032 25.941084
15090000000 -19.742363 123.2111 -28.876799 110.12131 -28.897591 107.59521 -16.128407 24.725746
15100000000 -20.250668 106.95145 -28.947056 88.183876 -28.954424 86.187683 -16.610041 22.997557
15110000000 -21.923708 91.131004 -28.905956 64.35334 -28.938417 62.276463 -17.009501 21.735306
15120000000 -25.487112 78.140053 -28.744066 41.088951 -28.756662 39.302444 -17.437527 22.368542
15130000000 -31.773333 82.908813 -28.626612 16.090935 -28.676113 13.941103 -17.731956 23.443481
15140000000 -32.837639 160.8324 -28.764486 -8.6510763 -28.838188 -10.287179 -17.995434 25.048473
15150000000 -25.243416 167.03188 -28.737211 -33.153255 -28.769274 -34.679798 -18.145212 27.341484
15160000000 -21.749445 154.84009 -29.020706 -58.423794 -29.022284 -59.835831 -18.164873 30.849066
15170000000 -20.028681 138.09785 -29.246483 -81.275978 -29.256886 -83.066086 -18.044279 35.305115
15180000000 -19.663952 122.16254 -29.379725 -104.56287 -29.452505 -105.98435 -17.920189 39.922661
15190000000 -20.214808 106.54435 -29.425148 -127.4081 -29.455187 -128.12451 -17.934254 44.507179
15200000000 -22.542103 91.824219 -29.330076 -150.9928 -29.271238 -152.27881 -17.930367 48.488201
15210000000 -26.53269 86.43885 -29.364819 -175.51337 -29.314621 -177.07056 -17.867298 50.950378
15220000000 -33.247746 124.86607 -29.481077 160.01422 -29.470692 158.47327 -17.69212 51.490288
15230000000 -27.195755 162.96265 -29.656357 136.99377 -29.670231 135.81453 -17.492174 51.473129
15240000000 -22.723179 161.65961 -29.609558 113.87852 -29.589691 112.85434 -17.132418 51.570568
15250000000 -20.350224 146.05569 -29.544559 89.475708 -29.517014 88.381531 -16.602362 50.994949
15260000000 -19.280239 131.89394 -29.742914 64.306717 -29.655918 63.660122 -16.065714 49.869789
15270000000 -19.188028 115.24614 -30.020588 41.245296 -29.833841 39.848953 -15.517826 49.276524
15280000000 -20.069632 100.84328 -30.253128 18.890512 -30.143501 16.917355 -14.947043 49.324829
15290000000 -22.187784 87.572594 -30.20615 -4.0956144 -30.208307 -5.7595606 -14.448353 49.363594
15300000000 -25.92654 85.378632 -30.313463 -26.976723 -30.193203 -28.1432 -14.174129 49.5116
15310000000 -30.242598 114.69888 -30.29023 -50.539444 -30.13261 -52.199432 -14.035625 49.66433
15320000000 -26.324224 147.69858 -30.274807 -73.105759 -30.142773 -75.267052 -13.876305 48.628506
15330000000 -22.405441 147.85106 -30.082882 -98.162865 -30.077803 -100.4764 -13.727664 45.992867
15340000000 -19.951639 133.93301 -30.216911 -122.61372 -30.211399 -124.54794 -13.605643 42.648632
15350000000 -19.278708 119.97207 -30.392822 -146.73405 -30.382326 -148.7113 -13.450189 39.644798
15360000000 -19.122982 102.39163 -30.628942 -169.27092 -30.631294 -171.24365 -13.309562 37.342274
15370000000 -20.641172 87.140411 -30.563766 168.8389 -30.60532 166.70399 -13.148032 34.839828
15380000000 -22.396029 75.26458 -30.375681 144.57281 -30.423117 142.5937 -12.949173 31.898561
15390000000 -26.687984 67.319191 -30.3748 119.73176 -30.444559 117.70931 -12.727968 28.603085
15400000000 -31.378336 88.963722 -30.621609 94.712936 -30.743162 93.133148 -12.496824 25.952019
15410000000 -29.18396 138.92879 -30.889318 72.264519 -30.99917 70.85733 -12.264936 23.954163
15420000000 -24.333487 136.26189 -30.872431 50.17791 -30.96015 49.163174 -12.253191 22.072304
15430000000 -21.679926 125.82737 -30.78809 26.514259 -30.889425 25.312519 -12.434241 19.923756
15440000000 -20.351646 107.7795 -30.684151 1.9278888 -30.797747 1.3474784 -12.794194 16.820013
15450000000 -20.42889 89.483772 -30.894346 -23.10162 -30.884586 -23.35042 -13.099254 12.390956
15460000000 -21.288017 68.329407 -30.801085 -46.342609 -30.738075 -47.353848 -13.242839 6.7791629
15470000000 -24.252718 48.418789 -30.937473 -72.510559 -30.87542 -73.596184 -13.264004 1.1355109
15480000000 -28.266531 26.699478 -31.232685 -95.722221 -31.247511 -96.9599 -13.332299 -3.579628
15490000000 -46.551373 -15.5571 -31.432835 -119.25173 -31.401201 -119.63447 -13.489028 -6.8530035
15500000000 -33.278786 162.25433 -31.702959 -141.20404 -31.502005 -141.80898 -13.639263 -9.9930201
15510000000 -26.495893 143.49202 -31.444666 -164.50687 -31.238596 -166.33975 -13.909485 -14.11167
15520000000 -24.187397 117.88181 -31.495605 170.48184 -31.410809 168.57896 -14.344369 -18.498058
15530000000 -22.954702 97.202652 -31.665369 146.64771 -31.589142 144.85756 -14.957419 -22.530991
15540000000 -23.24065 68.011795 -31.855833 122.60254 -31.778793 121.04079 -15.589567 -26.077
15550000000 -25.036861 45.254906 -32.067738 100.26412 -31.970043 98.080688 -16.217875 -31.434204
15560000000 -27.076422 7.9795327 -31.924932 75.704353 -31.875669 73.420593 -17.095129 -39.271065
15570000000 -31.356796 -39.612576 -32.143341 51.034042 -32.150208 48.884727 -18.0896 -48.438591
15580000000 -31.013338 -93.098251 -32.294132 27.53974 -32.342625 25.417738 -18.873846 -57.726089
15590000000 -28.965307 -154.76266 -32.448132 3.9304361 -32.510921 1.6906376 -19.16519 -67.713188
15600000000 -28.431221 173.32355 -32.657936 -19.546858 -32.70887 -21.140234 -19.355293 -78.492104
15610000000 -26.981886 140.17584 -32.838306 -44.151894 -32.823772 -45.491241 -19.798058 -88.432396
15620000000 -28.059408 101.79038 -33.006081 -66.142105 -33.004658 -67.877266 -20.531834 -96.662926
15630000000 -28.696365 62.568542 -32.972363 -89.959778 -32.996891 -91.808891 -21.288851 -104.49133
15640000000 -28.597641 3.6572542 -33.099148 -112.84733 -33.094185 -114.3115 -21.882278 -116.81163
15650000000 -28.208611 -48.25272 -33.166733 -138.15186 -33.151318 -140.04695 -22.128801 -134.45177
15660000000 -25.515553 -86.427567 -33.547802 -162.71155 -33.635952 -164.39433 -21.712425 -153.09155
15670000000 -24.278769 -124.18365 -33.956951 174.70187 -34.013229 173.70529 -20.816019 -166.34442
15680000000 -23.916712 -147.0619 -34.219913 153.10976 -34.087234 151.64705 -19.655573 -173.77567
15690000000 -23.997053 -174.7742 -34.119579 131.31912 -34.02277 129.28857 -18.556116 179.49965
15700000000 -26.125954 162.79208 -33.973553 105.60423 -33.986855 103.68036 -17.780176 172.50316
15710000000 -30.289455 135.4323 -34.234097 81.281609 -34.255066 79.50827 -17.263922 165.7269
15720000000 -51.638386 75.072823 -34.689861 56.95372 -34.685341 55.550232 -16.762129 160.60498
15730000000 -31.752701 -67.268791 -34.998718 35.695774 -34.956924 34.036358 -16.173742 156.36917
15740000000 -24.939686 -94.592178 -35.077675 13.361478 -35.044792 11.614749 -15.660998 151.61205
15750000000 -22.282284 -116.09801 -35.146255 -9.3772182 -35.081387 -10.993954 -15.295044 145.84012
15760000000 -20.548868 -136.54153 -35.312187 -33.218979 -35.22147 -34.799648 -14.972487 140.06419
15770000000 -20.495964 -157.78595 -35.425415 -54.754333 -35.393703 -56.927402 -14.402761 134.62793
15780000000 -21.346893 -175.88541 -35.458122 -78.499763 -35.378517 -80.124435 -13.678125 130.26233
15790000000 -24.012039 167.58766 -35.666145 -102.60235 -35.495792 -104.70878 -12.974011 127.07698
15800000000 -28.595476 166.90257 -36.057705 -126.53607 -35.98917 -129.25473 -12.502916 125.30113
15810000000 -33.551468 -143.55424 -36.535156 -149.29491 -36.522488 -151.53177 -12.224249 124.33769
15820000000 -26.405407 -113.12685 -36.779129 -168.86789 -36.690304 -171.09993 -12.023578 122.77599
15830000000 -22.013338 -119.34178 -36.637299 169.09714 -36.579983 166.49092 -11.898447 120.00302
15840000000 -19.536997 -133.53363 -36.774632 147.2809 -36.681808 144.54204 -11.786343 116.42682
15850000000 -18.713333 -149.82767 -36.579041 124.10096 -36.596684 121.05955 -11.666888 112.78088
15860000000 -18.842001 -163.27803 -36.718739 101.00018 -36.758354 98.559509 -11.472728 109.45768
15870000000 -19.868587 -177.01999 -36.83345 77.668854 -36.843475 75.45092 -11.202255 106.30083
15880000000 -22.383799 174.85422 -36.923893 54.84494 -37.024078 52.572285 -10.913716 103.1442
15890000000 -26.255661 178.53195 -37.167725 32.577793 -37.253777 29.895256 -10.635773 100.53529
15900000000 -27.876009 -143.2334 -37.349049 9.4074726 -37.473129 7.5810199 -10.325908 98.473129
15910000000 -23.284353 -123.58001 -37.710899 -10.984605 -37.712696 -12.892218 -10.053428 96.709732
15920000000 -19.623093 -129.42555 -37.636124 -33.141617 -37.730366 -35.138477 -9.8531494 95.19873
15930000000 -17.659967 -141.67281 -37.730186 -53.187908 -37.802292 -55.20089 -9.7648115 93.700806
15940000000 -16.853844 -155.74066 -37.334888 -76.493362 -37.404839 -77.430038 -9.7554064 92.277573
15950000000 -17.121252 -169.6076 -37.39238 -100.91077 -37.378433 -101.80061 -9.7676001 90.563995
15960000000 -18.650238 178.8754 -37.409557 -123.97953 -37.400261 -124.8449 -9.7848358 88.067101
15970000000 -21.551138 177.59525 -37.511158 -146.92665 -37.455822 -148.65167 -9.8155622 85.105263
15980000000 -24.390633 -163.2524 -37.797016 -169.83025 -37.641514 -170.90738 -9.7711315 82.152588
15990000000 -22.364822 -134.61186 -38.190105 169.15472 -37.96563 166.95686 -9.6162996 79.340729
16000000000 -19.36315 -131.15279 -38.034748 149.08765 -37.95002 146.0014 -9.3860674 76.855682
16010000000 -16.951609 -137.23329 -37.844643 128.04767 -37.85498 125.52489 -9.1900682 74.983597
16020000000 -15.745965 -149.10027 -37.592831 104.19798 -37.579117 102.37778 -9.0895472 73.726715
16030000000 -15.487444 -159.67535 -37.453167 80.283272 -37.335808 78.855324 -9.0886965 72.744667
16040000000 -15.967062 -170.45422 -37.720116 56.676926 -37.588699 53.949146 -9.1345835 71.482727
16050000000 -17.38549 -176.60829 -37.937805 33.290688 -37.923145 30.747887 -9.2009287 69.589333
16060000000 -19.362112 -173.5863 -38.03529 12.696934 -38.131817 10.479733 -9.3043013 67.153214
16070000000 -20.327461 -156.10345 -38.037136 -8.995121 -38.049526 -11.047046 -9.3887472 64.645386
16080000000 -18.511206 -140.98473 -37.750206 -32.166794 -37.803005 -34.424377 -9.4763079 62.134422
16090000000 -16.020399 -139.33693 -37.934155 -55.243874 -37.98418 -57.517128 -9.5609722 59.441032
16100000000 -14.394625 -146.24733 -37.992432 -77.202538 -38.057095 -79.116158 -9.6265211 56.440559
16110000000 -13.579206 -154.94858 -37.921787 -98.766167 -37.919044 -100.25519 -9.6674957 53.436333
16120000000 -13.469653 -164.17552 -37.716297 -121.67194 -37.743656 -123.89765 -9.5857811 51.203064
16130000000 -14.065022 -171.60753 -37.836315 -144.56454 -37.8993 -146.20946 -9.4529324 49.630589
16140000000 -15.295832 -175.16043 -37.896854 -166.37822 -37.800282 -167.65947 -9.3928127 48.639805
16150000000 -16.591002 -170.65149 -37.605572 171.93277 -37.592251 169.90965 -9.5319328 47.637058
16160000000 -16.668589 -159.09843 -37.674355 147.23343 -37.707031 145.30222 -9.8889093 46.240608
16170000000 -15.17206 -150.23997 -37.800579 123.05105 -37.80228 121.93919 -10.336316 44.006092
16180000000 -13.3543 -150.08868 -38.197704 102.90068 -38.066105 101.79977 -10.75169 40.832222
16190000000 -11.93386 -156.15942 -37.760384 82.636185 -37.645813 80.545746 -11.043546 37.018093
16200000000 -11.408014 -163.72945 -37.345657 59.392902 -37.349144 57.208057 -11.300287 33.221302
16210000000 -11.312224 -171.66817 -36.97644 34.596615 -36.943958 32.351036 -11.500226 30.183617
16220000000 -12.081955 -177.089 -36.992691 8.0644026 -37.044594 6.0786362 -11.688951 26.783598
16230000000 -13.000971 -178.78745 -37.345417 -15.110936 -37.384659 -17.072771 -11.967 23.305368
16240000000 -14.050704 -172.84801 -37.771057 -38.32383 -37.819042 -40.541382 -12.378171 20.450964
16250000000 -13.67625 -164.65974 -37.739666 -57.957081 -37.752415 -58.942142 -12.777465 19.73745
16260000000 -12.424491 -160.1075 -37.538418 -80.549141 -37.553802 -81.978737 -13.197246 19.818253
16270000000 -10.984614 -162.51689 -37.381187 -104.98263 -37.337982 -106.38174 -13.747693 19.449827
16280000000 -10.099913 -168.5278 -37.636185 -127.59891 -37.595829 -129.64883 -14.709659 17.476627
16290000000 -9.7029209 -175.43474 -37.57465 -150.48468 -37.481384 -152.2738 -16.103371 14.846262
16300000000 -9.8485136 178.56773 -37.360283 -173.64211 -37.288151 -175.49922 -17.490751 11.697198
16310000000 -10.294424 174.57719 -37.313576 160.63828 -37.291023 158.70212 -18.729288 6.8081622
16320000000 -11.087571 174.55736 -37.373184 135.42638 -37.376366 133.82797 -19.992163 2.1443398
16330000000 -11.470799 178.97435 -37.994549 110.35689 -37.89146 108.94541 -21.446863 -0.82292533
16340000000 -11.25313 -175.34389 -38.196575 89.913132 -38.094692 87.858437 -23.154667 -1.0939863
16350000000 -10.260249 -172.42447 -38.287445 66.335922 -38.273006 64.151688 -25.017794 1.8412707
16360000000 -9.2645931 -174.32753 -38.531269 45.270084 -38.616306 43.40519 -27.484203 9.8262424
16370000000 -8.5410643 -179.21341 -38.440636 23.150785 -38.287411 22.713148 -30.233854 33.320557
16380000000 -8.2504168 174.6445 -38.269562 -0.11688562 -38.019192 -2.9772232 -30.136433 75.381477
16390000000 -8.3908968 168.53171 -38.314297 -25.447201 -38.381432 -28.069504 -26.983072 105.77614
16400000000 -8.9704027 164.92926 -38.656944 -50.363182 -38.683514 -51.631325 -24.097509 120.9062
16410000000 -9.6493015 165.04626 -39.187248 -72.491486 -38.944012 -74.400795 -21.997768 128.54034
16420000000 -9.9605789 169.9026 -39.201534 -93.369148 -39.049335 -96.577133 -20.664433 130.40161
16430000000 -9.402792 174.86026 -39.191738 -119.25751 -39.306694 -122.36314 -19.780836 130.04745
16440000000 -8.4630718 176.05405 -39.984612 -144.29526 -39.996117 -146.13719 -18.834879 128.78874
16450000000 -7.6348004 173.18362 -40.514233 -162.57344 -40.499325 -165.10457 -17.882889 126.92461
16460000000 -7.2161841 169.00264 -40.275814 177.83023 -40.381775 175.30864 -16.89986 124.74304
16470000000 -7.0939646 164.2534 -40.107594 155.416 -40.287159 153.49785 -16.11327 121.51492
16480000000 -7.318018 159.98511 -39.954514 131.20238 -40.043453 129.97086 -15.428238 117.87553
16490000000 -7.8024182 157.28423 -39.977337 106.50244 -40.108524 104.19654 -14.703341 114.43686
16500000000 -8.3674898 158.48682 -40.32135 81.50927 -40.776604 80.413902 -13.919127 111.91008
16510000000 -8.3760624 161.55107 -40.807941 58.265617 -40.969013 58.536888 -13.16186 110.88598
16520000000 -7.9783239 164.88538 -41.338337 37.23732 -41.357079 37.571045 -12.533057 110.95998
16530000000 -7.1373219 164.88165 -41.407398 15.567379 -41.427643 15.581883 -12.147528 110.54169
16540000000 -6.5134974 162.81375 -41.561741 -6.8443341 -41.605465 -7.0655808 -11.952445 109.14471
16550000000 -6.0369368 158.77428 -41.720238 -29.529808 -41.709335 -29.018373 -11.869982 106.51203
16560000000 -5.9813886 154.62331 -41.808685 -53.420765 -41.730915 -52.638149 -11.723413 103.26071
16570000000 -6.1869645 150.93631 -42.353733 -77.665359 -41.957485 -77.815567 -11.459491 100.31415
16580000000 -6.6934876 149.84259 -42.634995 -96.462494 -42.172279 -97.796532 -11.14637 97.638176
16590000000 -7.0216746 151.19284 -42.587029 -119.51035 -42.151302 -122.73614 -10.876954 95.392952
16600000000 -6.9846249 154.43765 -42.835873 -144.10902 -42.596989 -146.5791 -10.619966 93.235046
16610000000 -6.4214873 156.12283 -43.3451 -168.31508 -43.035492 -169.4433 -10.332208 90.895851
16620000000 -5.7557478 155.02364 -44.149193 170.11348 -43.667648 167.33508 -10.013245 88.89241
16630000000 -5.2476521 151.77271 -44.718624 150.65305 -44.370556 146.58162 -9.7054396 87.516632
16640000000 -5.0336456 148.36386 -45.043869 133.05293 -44.900845 128.16179 -9.5114708 86.782547
16650000000 -4.9414697 145.07234 -44.899193 114.74643 -44.926357 110.49506 -9.4099884 86.170898
16660000000 -5.1008592 142.61003 -44.200031 92.876282 -44.437004 89.182907 -9.4365587 84.823006
16670000000 -5.3478117 141.69312 -44.151459 66.025681 -44.35598 62.591156 -9.5306416 82.447952
16680000000 -5.5218086 143.01227 -44.494331 39.355061 -44.740509 36.527939 -9.5551872 79.223701
16690000000 -5.2902837 144.99261 -45.767193 16.03603 -45.916283 11.603242 -9.4724951 75.859024
16700000000 -4.863584 145.48387 -46.206448 1.2409487 -46.663433 -0.36747539 -9.3049822 72.885124
16710000000 -4.3392034 144.118 -45.952671 -17.69068 -46.447525 -18.67474 -9.124712 70.629929
16720000000 -3.9885895 141.42244 -45.868031 -39.207829 -46.05624 -39.879425 -8.9661856 68.831985
16730000000 -3.7724693 138.10048 -45.636379 -61.183025 -45.801712 -61.976002 -8.8702011 67.396484
16740000000 -3.7792268 135.02252 -45.45755 -86.721504 -45.826473 -87.136826 -8.787158 66.205269
16750000000 -3.9123435 132.90251 -45.738232 -112.21848 -46.009605 -111.12354 -8.7054501 64.844048
16760000000 -4.0641131 132.32867 -46.827896 -135.1463 -46.756767 -132.09116 -8.690732 63.409939
16770000000 -4.0325575 132.8694 -47.046188 -151.09402 -46.866024 -150.804 -8.7602882 61.836174
16780000000 -3.8050501 133.53813 -46.579311 -172.97745 -46.369225 -172.45438 -8.8710423 60.019413
16790000000 -3.42012 133.03146 -46.588928 160.97324 -46.577797 161.99936 -9.0126991 57.632988
16800000000 -3.0634835 131.38655 -46.995995 137.97827 -46.50827 137.50113 -9.0853357 54.705826
16810000000 -2.8085659 128.76501 -47.757042 113.30309 -47.370689 114.20963 -9.1043673 51.225723
16820000000 -2.7182946 125.9924 -48.210499 96.411591 -47.608593 95.084648 -9.0771132 47.630695
16830000000 -2.7011688 123.54871 -48.201244 74.304001 -47.792805 72.53746 -9.0015774 44.632587
16840000000 -2.7815263 121.70069 -48.424858 55.533558 -47.861778 52.60321 -8.9034271 42.336235
16850000000 -2.8217623 120.6936 -47.938221 32.478165 -47.750248 28.219921 -8.8137808 40.842785
16860000000 -2.7818089 120.45733 -48.03957 8.1955099 -47.866798 3.3756442 -8.7673721 39.766201
16870000000 -2.559792 120.13658 -48.451042 -14.609529 -48.335732 -18.268661 -8.8089247 38.859776
16880000000 -2.2844939 119.10072 -48.499504 -38.577419 -48.557377 -39.836884 -8.9379463 37.528225
16890000000 -2.018291 117.31493 -48.613132 -59.617855 -48.737709 -61.843914 -9.1530495 35.343349
16900000000 -1.8558353 115.21931 -48.978001 -84.528481 -49.073528 -87.387154 -9.4089518 32.317947
16910000000 -1.7620596 112.95146 -49.222042 -105.07304 -49.194622 -108.82288 -9.6013193 28.744715
16920000000 -1.7808884 110.9043 -49.326225 -127.02552 -49.806503 -130.07098 -9.6798258 24.807653
16930000000 -1.8188853 109.32677 -49.415127 -152.24649 -50.061287 -152.6086 -9.6832037 20.857422
16940000000 -1.8526509 108.34772 -50.002357 -174.72313 -50.061562 -175.9404 -9.6654568 17.296806
16950000000 -1.7558385 107.51036 -49.973625 163.23106 -50.199623 160.74161 -9.6872883 14.133912
16960000000 -1.6096153 106.36142 -50.912338 138.9964 -50.78294 139.89017 -9.7276373 11.492259
16970000000 -1.4259673 104.81365 -50.589211 118.13322 -50.796757 116.74322 -9.7972612 8.9870052
16980000000 -1.2679759 102.95042 -50.910843 94.43943 -51.072174 93.07016 -9.9369249 6.6352887
16990000000 -1.1444421 100.90259 -50.750565 69.257317 -50.898998 67.490417 -10.163372 4.0245152
17000000000 -1.0865779 98.93531 -51.640144 41.890751 -51.485161 44.180508 -10.443442 1.0632886
