!Keysight Technologies,P9374A,MY57211807,A.19.30.04
!Date: Friday, May 08, 2026 15:12:47
!Correction: S11(C  2-Port  ) 
!S21(C  2-Port  ) 
!S12(C  2-Port  ) 
!S22(C  2-Port  ) 
!S2P File: Measurements: S11, S21, S12, S22:
# Hz S  dB   R 50
13000000000 -18.611879 55.716408 -40.333302 75.387238 -40.545456 76.09713 -12.732219 -83.829666
13010000000 -19.283827 55.983997 -39.752697 53.331753 -39.905651 52.126621 -13.113338 -87.206337
13020000000 -19.782463 59.201511 -39.404324 28.125757 -39.822792 28.586266 -13.520998 -90.604637
13030000000 -19.706591 63.867031 -39.615688 1.4935282 -39.850716 2.3745675 -13.985894 -93.979095
13040000000 -19.740261 64.63356 -40.333088 -20.808447 -40.573009 -20.130379 -14.519744 -97.616287
13050000000 -19.38274 65.296432 -40.830456 -39.737583 -40.834427 -38.374794 -15.114517 -101.85056
13060000000 -19.473215 62.169163 -40.413059 -59.519341 -40.436943 -58.833878 -15.69605 -107.07444
13070000000 -19.685682 61.925842 -40.222534 -83.221657 -40.270264 -81.899353 -16.14333 -113.38387
13080000000 -19.819286 61.198528 -40.255814 -106.94292 -40.205555 -104.46997 -16.513653 -119.22457
13090000000 -19.585882 60.604954 -40.44907 -132.34871 -40.193321 -130.75146 -16.862312 -124.49313
13100000000 -19.754204 59.429314 -41.194538 -154.34602 -41.006741 -152.45726 -17.328302 -129.52588
13110000000 -19.601799 60.370937 -41.482124 -172.78732 -40.930988 -171.46919 -17.917389 -135.61823
13120000000 -19.827545 60.425804 -41.454494 165.62369 -40.928177 165.67509 -18.487642 -143.13106
13130000000 -19.492178 61.713074 -41.431049 144.98529 -40.806927 144.54922 -18.825392 -152.27159
13140000000 -19.601286 62.867943 -41.472305 121.97296 -40.882416 119.94409 -19.064825 -161.05952
13150000000 -19.231016 62.026363 -41.699863 99.14772 -41.188824 95.647575 -19.266613 -169.49757
13160000000 -19.489685 62.959831 -42.246758 78.951782 -41.771286 76.116882 -19.467901 -178.0798
13170000000 -18.908606 61.473259 -42.313393 60.459518 -41.541763 56.7327 -19.568937 171.58582
13180000000 -19.190834 57.044476 -42.050156 40.665367 -41.632343 34.520454 -19.276854 160.68321
13190000000 -19.267971 55.304371 -41.445518 18.120634 -41.259621 13.936172 -18.618029 150.82097
13200000000 -19.692705 53.58186 -41.33445 -6.8075104 -41.17506 -12.030499 -17.882175 142.91545
13210000000 -19.761017 55.566658 -41.87347 -29.434643 -41.617188 -35.341724 -17.331762 136.19424
13220000000 -19.384138 55.312878 -42.058537 -49.415508 -42.010151 -56.77993 -16.976334 129.57213
13230000000 -19.284193 53.21867 -41.94968 -72.817123 -42.307549 -80.309769 -16.582006 121.71251
13240000000 -19.298935 53.534962 -41.886005 -90.802956 -42.566978 -97.183342 -16.046394 113.73229
13250000000 -19.107784 52.561813 -41.73632 -115.75115 -42.630978 -119.37641 -15.259217 106.51569
13260000000 -19.241779 51.947437 -41.588585 -138.57045 -42.307182 -140.05017 -14.398806 100.99419
13270000000 -18.928341 50.611095 -41.846996 -164.66951 -42.443775 -166.24597 -13.677517 96.297668
13280000000 -19.13789 46.91254 -42.294086 173.65483 -42.834106 171.79834 -13.151043 92.196274
13290000000 -19.484228 44.62384 -42.336494 151.83789 -43.168392 149.99158 -12.716229 87.594749
13300000000 -19.795906 43.238033 -42.707272 130.0759 -43.480534 130.81523 -12.315001 82.366776
13310000000 -20.174883 42.742405 -42.593716 107.62592 -43.233669 109.29017 -11.86027 76.991196
13320000000 -19.854431 42.781536 -42.972485 84.14225 -43.478371 85.789894 -11.326514 72.415504
13330000000 -20.010006 39.660934 -43.075222 63.510078 -43.503735 63.930962 -10.781226 68.355064
13340000000 -20.031986 40.485577 -43.468433 36.388489 -44.165215 39.427132 -10.313512 64.35672
13350000000 -20.05999 38.983963 -44.289417 14.891988 -44.709148 20.546289 -9.9671707 60.250553
13360000000 -19.77878 39.941273 -44.608631 -2.8160865 -44.681995 2.3260527 -9.7053442 55.624535
13370000000 -19.587166 35.827084 -44.648708 -24.372765 -44.634861 -18.575052 -9.374135 50.908371
13380000000 -19.669426 31.626057 -45.178356 -50.167465 -44.771877 -42.735302 -8.9688587 46.231091
13390000000 -20.735834 27.955725 -46.233765 -70.832359 -45.191288 -66.836609 -8.5521135 42.037136
13400000000 -21.044743 29.570007 -46.956982 -88.347595 -46.420597 -87.857567 -8.1648941 38.334019
13410000000 -21.772835 27.353918 -47.430798 -104.43852 -46.501362 -101.16336 -7.9288087 34.751095
13420000000 -21.671614 31.838411 -47.128834 -126.82001 -46.097424 -124.00951 -7.7853808 30.911196
13430000000 -21.58939 27.758276 -47.892784 -146.85257 -46.449554 -144.10918 -7.6502132 26.675444
13440000000 -21.644009 27.434042 -48.520649 -168.49829 -46.765388 -169.38287 -7.491888 22.060823
13450000000 -21.427629 26.054304 -49.85997 179.10303 -47.907925 172.39717 -7.2648053 17.442778
13460000000 -21.12887 22.474627 -48.442631 164.14565 -47.900238 158.33054 -7.0192714 13.347923
13470000000 -21.655916 16.190533 -48.78038 144.09052 -47.489071 138.39294 -6.8350267 9.5381041
13480000000 -22.212988 15.406409 -49.260937 127.93371 -47.981289 116.21081 -6.7199283 5.7865882
13490000000 -23.547558 12.970261 -48.926254 114.01218 -48.336288 101.23554 -6.692749 2.0094001
13500000000 -23.692432 18.878984 -47.974228 93.512596 -47.649307 81.638878 -6.7033734 -1.8725706
13510000000 -24.152704 19.779423 -48.030468 71.182938 -48.479385 58.360523 -6.6744227 -5.805789
13520000000 -23.757149 21.764761 -48.113251 54.275795 -48.623718 43.986229 -6.6497889 -9.8042974
13530000000 -23.87508 17.387613 -47.264164 35.361763 -48.281441 25.861498 -6.6456604 -13.829498
13540000000 -23.635607 14.168788 -47.1926 16.444263 -48.371231 11.432659 -6.6914759 -17.846313
13550000000 -24.27809 9.7113104 -46.367065 -2.3622825 -47.627163 -8.3381062 -6.7829337 -21.710707
13560000000 -24.360476 6.6227741 -45.69519 -24.781084 -46.896946 -29.818933 -6.8739896 -25.539196
13570000000 -26.184439 7.9872627 -45.2934 -48.513699 -46.735779 -50.12957 -6.9274855 -29.198177
13580000000 -25.595707 10.540556 -45.520138 -73.812157 -46.833218 -72.536583 -6.9854708 -32.719669
13590000000 -26.88118 13.481392 -45.763 -91.324081 -46.722717 -91.228859 -7.0684452 -36.180771
13600000000 -25.885504 15.444153 -45.350632 -112.86509 -46.643589 -112.23717 -7.2007155 -39.478687
13610000000 -26.916195 17.385159 -44.801125 -132.9166 -46.02697 -128.64636 -7.3840003 -42.652039
13620000000 -26.574547 16.306641 -44.718437 -158.88341 -45.617199 -153.59956 -7.5865841 -46.012531
13630000000 -27.429178 18.102217 -44.457943 179.17464 -45.090351 -175.38298 -7.7734995 -49.420582
13640000000 -26.792896 13.004755 -44.877468 155.28981 -45.237507 164.84409 -7.9489479 -53.019604
13650000000 -28.382179 12.313996 -44.476742 135.92839 -44.454453 143.08801 -8.094018 -56.388561
13660000000 -27.788443 11.493884 -44.737381 114.63934 -44.448467 120.69579 -8.2075024 -59.574585
13670000000 -29.069645 11.050353 -44.563496 91.826416 -44.149876 97.454651 -8.3518333 -62.442204
13680000000 -29.11161 15.512227 -44.72699 70.767708 -44.475269 76.65197 -8.5286551 -64.999847
13690000000 -29.039829 22.105587 -44.627811 49.213272 -43.923725 54.5168 -8.7330503 -67.514847
13700000000 -28.358315 24.455605 -44.548889 28.129118 -43.374359 33.155014 -8.9772959 -70.390175
13710000000 -27.807758 28.899088 -44.799618 5.4033055 -43.337833 7.9245143 -9.2386446 -73.576469
13720000000 -26.944553 22.488686 -44.721481 -15.773586 -43.47031 -16.117569 -9.4750633 -76.885826
13730000000 -27.839451 21.087029 -45.074848 -38.488621 -44.052399 -40.041641 -9.6625137 -79.961563
13740000000 -27.745796 17.801008 -45.19981 -55.619427 -43.816669 -57.841698 -9.8248501 -82.675941
13750000000 -29.534115 15.252684 -44.723824 -73.404915 -43.676643 -76.212799 -10.004325 -85.310684
13760000000 -29.821175 19.342987 -44.266689 -98.540276 -43.006195 -103.65905 -10.255015 -88.175797
13770000000 -30.348753 23.148382 -44.289265 -119.70524 -43.619164 -127.08133 -10.517094 -91.325043
13780000000 -29.556372 27.268585 -44.404305 -144.60129 -43.68829 -150.61308 -10.749379 -94.726402
13790000000 -28.170591 25.706966 -44.703106 -163.75954 -44.128799 -170.52429 -10.88623 -97.913147
13800000000 -27.574364 17.922478 -44.645569 179.90826 -43.774719 170.63237 -10.986619 -100.55049
13810000000 -27.057762 15.36762 -43.707211 156.57631 -43.404747 147.56018 -11.150143 -102.82813
13820000000 -26.829451 3.0433419 -43.956787 133.1814 -44.04858 121.29272 -11.410149 -105.06289
13830000000 -28.026291 4.9396434 -43.876045 111.78079 -44.379692 103.67729 -11.736002 -107.88656
13840000000 -27.955355 -2.6829185 -43.890289 91.794975 -44.531761 82.972816 -12.017881 -111.33858
13850000000 -29.995733 2.9761899 -43.506882 72.509033 -44.139431 65.71479 -12.203862 -115.1855
13860000000 -29.410904 7.2537055 -42.978836 48.306553 -43.854858 41.638329 -12.303933 -118.61229
13870000000 -29.091417 8.894166 -42.938969 25.00316 -44.116199 18.950558 -12.413747 -121.58285
13880000000 -28.475773 5.6717291 -42.424171 2.9589181 -43.837334 1.2212555 -12.590015 -124.21964
13890000000 -27.533451 2.3427472 -42.756603 -23.457195 -43.876068 -20.923582 -12.839776 -127.05061
13900000000 -27.010345 -12.2713 -42.802212 -44.13966 -43.539738 -42.566303 -13.049029 -130.57813
13910000000 -27.825756 -15.50031 -42.747658 -64.064972 -43.413948 -63.483181 -13.218884 -134.48865
13920000000 -27.859533 -25.401592 -42.276775 -89.285431 -42.912766 -87.120781 -13.320022 -138.09785
13930000000 -29.688473 -29.325649 -42.325649 -111.99187 -42.93515 -109.19688 -13.414754 -141.40489
13940000000 -30.232574 -25.985943 -42.19593 -137.08386 -42.802422 -132.51082 -13.577149 -144.55171
13950000000 -30.505171 -27.670683 -42.333042 -159.53009 -42.434422 -154.77258 -13.819016 -147.84802
13960000000 -31.0744 -28.63814 -42.173119 176.78638 -42.37508 -178.22711 -14.063858 -151.66351
13970000000 -30.116163 -29.729691 -42.384445 153.01181 -42.404102 156.84169 -14.21397 -156.09196
13980000000 -29.920286 -41.309769 -42.860565 129.02583 -42.48428 132.9247 -14.262958 -160.95004
13990000000 -29.419296 -48.653114 -42.885429 107.69557 -42.420376 110.64347 -14.277786 -165.76407
14000000000 -29.244705 -58.312366 -42.797359 85.139618 -42.153927 86.673187 -14.272352 -170.29396
14010000000 -28.411655 -64.281731 -43.089172 58.083672 -42.62352 58.966656 -14.25988 -174.39235
14020000000 -28.346441 -71.054932 -43.598675 35.917423 -43.019592 36.480698 -14.229995 -178.42784
14030000000 -28.821531 -77.650345 -44.220192 14.785049 -43.664433 13.927547 -14.198423 177.35767
14040000000 -29.636604 -80.249748 -44.05619 -3.9927108 -43.601402 -5.4974365 -14.156784 173.03497
14050000000 -29.771549 -80.77681 -44.193043 -27.240582 -43.600449 -28.425842 -14.081716 168.72786
14060000000 -30.995773 -85.72747 -44.079048 -50.113472 -43.238464 -53.962109 -13.991035 164.33835
14070000000 -31.63587 -83.413048 -44.8521 -74.35807 -44.224377 -80.837135 -13.893389 160.16174
14080000000 -31.831327 -88.30806 -44.901836 -94.430382 -44.763252 -101.43603 -13.772685 156.19078
14090000000 -31.246674 -84.901756 -45.274681 -119.43645 -45.533657 -125.31829 -13.72536 152.33861
14100000000 -29.226578 -99.633453 -45.884068 -137.64261 -46.083332 -141.93626 -13.657222 148.14029
14110000000 -28.699368 -111.13458 -45.724335 -157.73277 -46.239792 -163.48413 -13.582867 143.33121
14120000000 -27.921703 -122.61175 -45.905293 -179.63383 -46.679405 175.58463 -13.441629 138.41888
14130000000 -27.94105 -132.92365 -46.108467 161.85837 -46.740959 158.37994 -13.18253 133.47963
14140000000 -28.132021 -141.80952 -45.591679 136.06406 -46.700817 134.53123 -12.91592 129.24791
14150000000 -29.832531 -145.77393 -46.082653 112.09364 -47.068367 115.45789 -12.708241 125.42453
14160000000 -30.445059 -140.31602 -46.452568 91.94323 -47.164398 93.6222 -12.522416 121.58585
14170000000 -31.057791 -134.70889 -46.583424 70.453857 -47.265133 74.950485 -12.354102 117.20751
14180000000 -29.900286 -129.50984 -46.54155 50.380535 -47.082874 53.731735 -12.138397 112.49527
14190000000 -28.136131 -134.86844 -46.391594 24.990047 -46.893215 33.262859 -11.838855 107.80025
14200000000 -27.006168 -143.7791 -47.07402 -0.50716698 -46.800999 8.119072 -11.536796 103.51459
14210000000 -26.380121 -156.34599 -47.497047 -22.300562 -47.029041 -14.015835 -11.273024 99.702438
14220000000 -26.739773 -166.16512 -48.480831 -42.327499 -47.164555 -36.339874 -11.051781 96.015762
14230000000 -27.105736 -175.36801 -48.164669 -58.689167 -47.070553 -57.424789 -10.857266 91.979843
14240000000 -28.620447 -175.78329 -47.712391 -81.794945 -46.707333 -81.021156 -10.647429 87.652153
14250000000 -28.988049 -170.01532 -48.183712 -109.76843 -46.903316 -109.22678 -10.416695 83.307495
14260000000 -29.381292 -163.32248 -49.172478 -134.59453 -47.710213 -134.17648 -10.170023 79.239044
14270000000 -27.854918 -157.34563 -50.195862 -152.67166 -48.773563 -155.88016 -9.9592295 75.221008
14280000000 -27.10618 -164.77722 -49.937931 -170.49901 -48.751926 -176.16389 -9.7973442 71.219833
14290000000 -26.395473 -170.14005 -51.113144 164.67366 -49.368221 160.63176 -9.6561232 66.906563
14300000000 -26.978493 179.17981 -51.193027 149.55057 -49.533745 135.33882 -9.4920845 62.171963
14310000000 -27.291746 177.55087 -50.78867 131.00197 -50.192131 113.72082 -9.3134327 57.341728
14320000000 -28.016506 168.95757 -50.81284 102.33673 -51.095528 89.059975 -9.1036654 52.739319
14330000000 -28.258987 175.19897 -51.896908 85.203545 -52.137978 66.926514 -8.8901968 48.481415
14340000000 -28.704708 172.47485 -52.274345 58.613754 -54.335407 45.814671 -8.7117538 44.410988
14350000000 -28.079908 -179.16211 -53.543125 43.858917 -54.996788 36.079952 -8.5958586 40.257168
14360000000 -28.112463 177.56906 -53.693787 23.617706 -54.846031 18.093731 -8.5462704 35.847691
14370000000 -27.255045 -179.60422 -54.152218 3.405659 -56.238316 -0.13154066 -8.5336018 31.128902
14380000000 -27.456177 171.54399 -54.557678 -13.223715 -56.893131 -11.358668 -8.5145082 26.220421
14390000000 -27.596378 174.67451 -54.062695 -32.901047 -56.050594 -31.268766 -8.4601831 21.277487
14400000000 -27.853991 169.2475 -55.072479 -60.291473 -58.377365 -40.373093 -8.4020882 16.205425
14410000000 -28.279276 168.43466 -57.054291 -74.591431 -56.097618 -43.619476 -8.3654203 11.489315
14420000000 -28.835526 169.59021 -56.78138 -76.651978 -54.22028 -63.449146 -8.3516569 6.9011312
14430000000 -28.269985 170.91887 -55.234573 -97.082298 -53.088627 -100.29561 -8.39046 2.1401932
14440000000 -28.467705 172.53314 -54.712189 -125.82305 -54.294483 -122.23886 -8.473032 -2.5661542
14450000000 -27.367844 174.5652 -58.460136 -130.04994 -56.371262 -129.93698 -8.572567 -7.367094
14460000000 -27.584927 171.91006 -54.932762 -138.21979 -52.590794 -137.88365 -8.685792 -12.330873
14470000000 -27.152012 174.47607 -52.404324 -164.37477 -51.101612 -174.27104 -8.8568935 -17.159704
14480000000 -27.135063 176.89331 -52.868717 156.84723 -51.699505 152.05701 -9.0881615 -22.132999
14490000000 -26.855528 173.6407 -53.929218 134.59232 -52.388744 125.51289 -9.3558655 -27.409168
14500000000 -27.121473 177.27524 -56.211205 127.10497 -54.671093 107.21787 -9.6308937 -33.0989
14510000000 -26.836592 173.59845 -54.221687 118.16203 -55.096905 98.758392 -9.8379498 -39.102699
14520000000 -27.606403 179.9124 -52.474369 90.271309 -53.078465 77.724892 -9.9996462 -44.823902
14530000000 -26.704338 175.7674 -51.448917 68.72435 -53.015732 54.290901 -10.167873 -49.901039
14540000000 -26.908821 -178.50856 -52.254379 37.213539 -53.616066 29.586143 -10.415173 -54.335579
14550000000 -25.581934 177.24153 -51.538361 20.836584 -54.078938 13.910723 -10.765489 -58.906464
14560000000 -25.774609 179.14063 -51.137863 -12.088552 -53.057083 -11.70544 -11.232265 -64.053474
14570000000 -24.442524 175.08389 -53.365585 -39.154892 -54.332359 -39.432335 -11.707105 -69.916733
14580000000 -24.584492 173.99081 -53.296978 -51.134335 -55.053894 -56.617172 -12.118129 -76.436043
14590000000 -24.575008 169.76178 -52.816704 -62.849979 -54.939632 -56.722565 -12.502493 -82.939278
14600000000 -24.775011 175.44342 -51.379951 -97.303925 -53.654377 -89.549843 -12.8713 -89.131836
14610000000 -24.298141 172.35645 -52.632782 -126.44795 -54.11755 -104.67445 -13.265992 -95.488403
14620000000 -24.588451 177.37193 -52.92308 -148.4866 -52.159061 -129.3476 -13.682436 -102.23112
14630000000 -23.688787 175.91988 -54.689415 -165.1796 -53.945618 -153.03577 -14.0217 -109.02662
14640000000 -23.240299 176.31775 -54.055744 176.62175 -53.162586 -174.25034 -14.260816 -115.80429
14650000000 -22.439428 172.7175 -54.03553 148.36501 -52.863686 161.88307 -14.478421 -122.38378
14660000000 -21.961643 167.57004 -55.168266 119.67745 -53.910305 132.17339 -14.844639 -128.81509
14670000000 -22.243917 162.71965 -57.312851 111.78241 -54.818436 121.85402 -15.348059 -135.26814
14680000000 -22.272938 160.77208 -56.025963 94.040688 -53.54031 95.12265 -15.830514 -142.66656
14690000000 -22.986065 161.11951 -56.33276 73.71698 -53.839272 79.919815 -16.180996 -150.82092
14700000000 -22.593342 165.88107 -55.881813 56.643635 -53.152424 53.579155 -16.260702 -160.07104
14710000000 -22.209539 167.44119 -57.50576 29.507261 -53.799946 17.679285 -16.200672 -169.21965
14720000000 -21.291496 167.98976 -56.87167 24.667122 -55.191948 11.670067 -16.09984 -177.28653
14730000000 -20.652834 163.18675 -58.042496 1.4755361 -55.690548 -17.376451 -15.947319 175.51669
14740000000 -20.21208 155.96844 -56.207241 -13.575321 -55.088951 -31.371906 -15.895084 169.11014
14750000000 -20.727398 149.66087 -57.243774 -32.212902 -57.428288 -59.081444 -15.884678 163.30418
14760000000 -21.022062 147.08633 -57.130581 -59.325603 -57.121288 -74.918526 -15.86771 157.31239
14770000000 -21.877136 145.92596 -57.176815 -67.084656 -58.350288 -81.584824 -15.843853 150.35902
14780000000 -21.640089 150.20222 -54.852207 -86.893044 -56.069771 -97.201393 -15.731042 142.85834
14790000000 -21.336691 152.15448 -54.16412 -110.2964 -55.064888 -119.64629 -15.497496 135.17566
14800000000 -20.283058 152.69055 -54.272701 -130.94713 -55.652431 -146.10033 -15.232667 128.68478
14810000000 -19.769081 148.38448 -53.890808 -155.79732 -56.119053 -164.48726 -14.969447 123.48991
14820000000 -19.351517 143.97142 -53.565266 175.65518 -55.908192 179.23903 -14.720981 118.73702
14830000000 -19.823877 137.6972 -54.398884 154.57756 -55.706772 160.22142 -14.546516 114.10876
14840000000 -20.327837 135.03621 -53.640282 138.13075 -53.846066 145.04315 -14.369499 109.27231
14850000000 -21.154261 134.26437 -52.818905 118.21853 -52.967529 119.63079 -14.175102 104.22909
14860000000 -21.299341 136.69496 -53.113388 91.460426 -53.274132 89.235237 -14.036255 99.65239
14870000000 -21.401634 136.60788 -52.697746 71.003372 -52.703003 74.161201 -13.965742 95.529243
14880000000 -20.924788 136.04781 -52.496723 40.767166 -52.215607 43.387627 -14.003968 91.181442
14890000000 -20.568296 133.12064 -51.916889 24.184467 -52.092087 19.645809 -14.02917 86.692886
14900000000 -20.081177 128.37347 -52.010632 -6.0897083 -52.230133 -10.054458 -13.920844 81.285347
14910000000 -20.342478 124.61959 -52.69257 -29.450666 -53.498859 -36.010822 -13.713825 76.232307
14920000000 -20.497355 120.78036 -53.700092 -57.320675 -54.263878 -57.22287 -13.477879 72.080513
14930000000 -21.172174 121.75189 -53.546677 -70.247093 -53.635609 -71.791725 -13.355401 69.1661
14940000000 -21.091444 120.95803 -53.412323 -90.773201 -53.401066 -96.684517 -13.403034 66.552963
14950000000 -21.478161 123.49529 -51.975662 -116.66709 -53.026058 -127.10696 -13.651547 63.732269
14960000000 -21.430141 120.80915 -52.592606 -149.48245 -55.070553 -157.02625 -13.814961 60.282478
14970000000 -21.898245 123.1876 -53.388752 -179.43004 -56.23748 178.64502 -13.923756 55.828083
14980000000 -21.88798 119.00545 -55.089939 153.65305 -57.390308 168.43073 -14.028918 51.545895
14990000000 -22.198317 120.45469 -57.439648 153.6647 -58.489941 162.17712 -14.180627 48.282959
15000000000 -22.25065 115.41886 -54.019791 131.91173 -54.354694 147.2375 -14.473792 45.366798
15010000000 -22.68108 116.71328 -54.861202 103.45304 -55.05349 102.50813 -14.848042 42.284588
15020000000 -22.589958 112.54794 -54.344265 79.328979 -56.371147 91.129883 -15.107382 38.957989
15030000000 -22.964264 113.42741 -53.738384 48.004047 -55.902679 66.337074 -15.231174 34.827385
15040000000 -23.193327 109.53075 -55.366329 17.331583 -54.947403 48.399849 -15.355103 32.136841
15050000000 -23.898027 113.1282 -58.599785 -6.5436573 -56.155998 16.641548 -15.613804 31.250803
15060000000 -24.213581 116.01447 -60.485008 -17.491116 -57.653378 -8.6101055 -16.084208 31.364952
15070000000 -24.040121 121.2729 -58.110527 -16.976288 -57.888134 -11.406358 -16.808279 31.473341
15080000000 -23.864201 121.69205 -57.357018 -45.745541 -56.351578 -32.704659 -17.588957 30.939213
15090000000 -23.334736 122.04705 -57.042519 -68.967484 -55.123951 -54.660938 -18.244898 28.074257
15100000000 -23.610077 117.24403 -58.991505 -107.75282 -54.123367 -98.476563 -18.963671 25.93531
15110000000 -24.061056 115.88464 -59.832249 -112.55193 -56.721367 -123.15354 -19.420687 26.359924
15120000000 -25.108717 114.24583 -59.265709 -147.8109 -58.477932 -143.18991 -19.812681 28.588291
15130000000 -25.617378 117.63643 -59.171219 -155.01245 -56.50412 -153.59114 -20.216764 32.673779
15140000000 -26.21851 125.68297 -58.419491 179.57153 -55.341862 176.02277 -20.412413 36.003471
15150000000 -24.790907 131.49034 -59.406086 141.57024 -56.980698 134.05376 -20.712812 38.194714
15160000000 -24.083887 130.77702 -66.999489 132.29692 -61.82592 128.55339 -20.850262 42.755413
15170000000 -22.996681 128.3748 -59.235813 160.84639 -57.939274 136.70074 -20.508781 47.879932
15180000000 -23.028111 121.97773 -54.778111 105.66988 -53.439396 95.211029 -20.163536 53.081276
15190000000 -23.143003 120.13985 -54.442051 61.110489 -53.972256 47.15815 -19.761288 57.895561
15200000000 -24.277056 118.07453 -55.445099 12.891263 -55.861454 13.485701 -19.472481 60.27953
15210000000 -24.54298 123.51958 -61.332073 -24.88537 -57.210213 -13.293058 -19.30616 61.914806
15220000000 -24.993408 130.43149 -63.680969 -12.563674 -59.436218 -34.98645 -18.969296 62.456795
15230000000 -23.531889 134.06204 -59.828438 -3.865541 -58.536106 -32.1852 -18.450829 61.828102
15240000000 -23.134169 131.68518 -55.692921 -51.253822 -56.831654 -64.035309 -17.855646 61.160904
15250000000 -22.324581 127.4483 -55.583481 -93.95034 -53.94891 -95.9067 -17.237604 59.910446
15260000000 -22.50835 121.15592 -56.825405 -132.08768 -55.46825 -139.76099 -16.721106 58.078247
15270000000 -22.613302 118.72684 -62.296856 -159.62888 -58.133549 -166.78267 -16.257126 56.537617
15280000000 -23.00264 115.17978 -57.562408 -158.52646 -55.974461 177.13382 -15.769885 55.497864
15290000000 -23.306274 116.62854 -56.101311 167.11754 -54.928295 151.1866 -15.281119 54.529613
15300000000 -23.262644 117.59775 -55.679455 127.79605 -55.530582 111.89259 -14.942013 53.551731
15310000000 -23.198095 118.77724 -56.727345 95.907494 -55.511826 82.738312 -14.724468 51.646301
15320000000 -22.762154 117.84508 -58.20285 70.708054 -57.489937 53.618008 -14.624242 49.065876
15330000000 -22.675913 117.08286 -57.47541 57.020271 -56.090492 38.482044 -14.549804 45.712109
15340000000 -22.61973 112.89491 -54.277821 32.733315 -54.288311 14.669763 -14.359859 42.400143
15350000000 -22.914886 113.91969 -52.545593 -6.9591689 -52.488617 -20.73481 -14.086263 39.411278
15360000000 -22.609509 109.24751 -51.954266 -54.625305 -52.186058 -62.796337 -13.881546 36.652367
15370000000 -23.183722 107.99486 -56.244701 -88.231323 -54.658184 -92.489403 -13.754442 33.431221
15380000000 -22.825041 103.13409 -55.490635 -87.138573 -54.440762 -104.29126 -13.748688 29.533529
15390000000 -23.84807 98.753754 -53.308773 -117.99261 -52.597286 -135.42264 -13.681597 25.692251
15400000000 -24.372173 98.17083 -52.235409 -149.30569 -51.987244 -168.07828 -13.487882 22.166737
15410000000 -24.912285 99.851128 -51.890713 174.0359 -52.665413 161.80211 -13.329082 19.419849
15420000000 -25.145058 101.27261 -52.23093 146.63795 -52.635983 129.91096 -13.298821 17.150736
15430000000 -24.880461 104.36283 -54.151981 116.42426 -54.334805 109.61919 -13.440423 14.290833
15440000000 -24.285089 101.03525 -53.982208 105.42592 -54.408325 89.966705 -13.748834 9.7507343
15450000000 -24.272537 96.148682 -51.719589 80.083298 -52.126095 69.949905 -14.056613 4.3606167
15460000000 -24.466253 88.069443 -51.837406 48.019688 -52.522858 35.793076 -14.154411 -1.2995515
15470000000 -25.728432 80.593994 -51.197266 17.542261 -51.47139 5.6418695 -14.155156 -6.6004486
15480000000 -27.353905 77.221611 -51.81078 -9.8351364 -52.252811 -24.069996 -14.198402 -10.680907
15490000000 -29.318544 81.393097 -52.557152 -36.509926 -53.363773 -50.277279 -14.361671 -14.75166
15500000000 -30.029253 90.104736 -52.651669 -49.127453 -54.592113 -66.671448 -14.657253 -19.345133
15510000000 -29.019398 95.036209 -51.363155 -78.792122 -53.48035 -84.414383 -14.99679 -24.355656
15520000000 -29.135834 90.477646 -52.38995 -105.59303 -54.086395 -115.49846 -15.330126 -29.603144
15530000000 -28.265533 87.570297 -51.305248 -130.30984 -53.363213 -133.39503 -15.715032 -34.855427
15540000000 -29.642467 70.412231 -51.893841 -162.51749 -52.62009 -165.8307 -16.208055 -40.207458
15550000000 -31.580662 68.663422 -52.557465 -179.54659 -54.895271 178.08127 -16.797863 -46.968662
15560000000 -34.955448 57.160046 -51.947086 162.034 -53.299023 160.80894 -17.48682 -55.387844
15570000000 -38.736366 84.949036 -51.552986 128.19106 -52.385887 133.68274 -18.060791 -64.279968
15580000000 -40.239525 83.895287 -51.941772 105.42311 -52.52005 100.01943 -18.343742 -73.693649
15590000000 -39.790497 102.86266 -52.418606 81.801064 -54.178928 76.879997 -18.487852 -83.576248
15600000000 -44.045242 83.107307 -52.520023 52.114426 -53.267727 60.2812 -18.632341 -92.460548
15610000000 -48.929592 140.70604 -53.994228 32.084736 -54.76244 35.521313 -18.756718 -101.07253
15620000000 -51.713642 -125.7918 -54.285202 8.950119 -54.56266 8.8336706 -18.983269 -109.88319
15630000000 -39.882496 -151.49512 -53.439781 -4.6852589 -54.124065 -3.8716385 -19.358427 -118.41132
15640000000 -40.924366 -147.16116 -53.070919 -38.709129 -53.276085 -34.97998 -19.624811 -128.07037
15650000000 -37.665077 -152.89597 -52.709366 -58.08625 -53.268456 -56.583565 -19.701818 -139.36812
15660000000 -39.026798 -139.77827 -53.925507 -94.192711 -54.519325 -88.885086 -19.274015 -151.06683
15670000000 -35.476692 -132.80748 -56.485069 -113.32294 -56.005703 -114.21372 -18.524311 -161.57649
15680000000 -32.384731 -119.58083 -56.319981 -128.22804 -56.092697 -129.42725 -17.873997 -169.50485
15690000000 -29.297083 -133.38242 -56.43639 -139.7003 -57.01936 -144.41614 -17.408375 -175.78714
15700000000 -28.021044 -141.22795 -55.475143 -161.21262 -55.163227 -166.71085 -17.058163 178.60927
15710000000 -27.806635 -151.33998 -55.365963 171.88217 -55.367439 158.34108 -16.671316 172.66986
15720000000 -28.023779 -153.48863 -55.522732 152.4239 -57.153473 147.49199 -16.17453 166.63507
15730000000 -28.866302 -152.96834 -53.824787 120.19216 -56.708477 118.06791 -15.729893 161.17108
15740000000 -28.522308 -142.20412 -55.077824 78.066025 -57.293392 95.102699 -15.434751 156.5023
15750000000 -27.479099 -137.85869 -59.212402 59.743454 -57.985336 67.531502 -15.211697 152.02365
15760000000 -25.647415 -138.3759 -61.432392 44.929028 -61.11681 38.661091 -14.944258 146.59193
15770000000 -24.873037 -143.65323 -59.843033 51.205288 -63.245331 49.114231 -14.525334 140.71167
15780000000 -24.078068 -149.49655 -57.363895 25.698498 -60.045719 41.560589 -13.968348 135.84341
15790000000 -24.396873 -154.94124 -57.198402 -8.0650482 -57.536953 12.123055 -13.384431 132.54021
15800000000 -24.239277 -154.83873 -58.956032 -35.595215 -59.172539 -19.468424 -12.940836 130.54729
15810000000 -24.356113 -154.2583 -58.931847 -62.573811 -58.585026 -42.760429 -12.708412 128.84729
15820000000 -23.644527 -151.31609 -62.066582 -87.526283 -61.77 -66.451454 -12.620455 126.58916
15830000000 -23.165367 -152.55104 -64.868416 -102.51527 -63.891689 -73.129204 -12.558613 123.4098
15840000000 -22.69149 -151.17621 -65.197876 -118.27843 -61.840862 -78.347862 -12.454991 119.71019
15850000000 -22.588957 -154.75253 -66.983643 -122.39503 -59.122486 -101.03439 -12.270275 116.04044
15860000000 -22.415987 -152.03709 -65.761581 -114.81204 -57.938179 -129.61057 -12.039464 112.55557
15870000000 -22.192715 -153.50023 -62.939877 -126.9495 -58.768646 -160.07892 -11.826031 109.14735
15880000000 -21.862944 -151.85234 -61.834221 -152.4534 -60.195869 -179.07993 -11.61146 106.00359
15890000000 -21.484343 -154.70277 -62.873802 176.01268 -61.017376 157.98019 -11.357845 103.16674
15900000000 -21.245333 -156.2865 -63.600639 -177.98851 -58.351433 146.54688 -11.092381 100.67651
15910000000 -21.154655 -158.65588 -60.980473 148.43796 -58.67881 108.98518 -10.863537 98.694519
15920000000 -21.10198 -158.98299 -60.257362 146.58998 -60.806496 83.232826 -10.704924 96.967972
15930000000 -21.146198 -158.0358 -58.517902 113.14265 -62.280361 83.717033 -10.624168 95.127724
15940000000 -20.74449 -154.2426 -58.26646 91.710518 -62.405029 66.60965 -10.597421 93.121284
15950000000 -20.023569 -154.29703 -57.03371 61.251572 -60.83675 35.232304 -10.596744 90.751808
15960000000 -19.620605 -154.7666 -58.01059 40.129345 -62.323959 10.858448 -10.567456 88.173683
15970000000 -19.254503 -155.89801 -56.462132 23.585548 -64.271797 1.6626842 -10.527712 85.162262
15980000000 -19.219007 -156.53505 -56.348064 -11.158007 -63.013859 -1.7630231 -10.459505 81.978394
15990000000 -19.096365 -155.97519 -56.396652 -37.714542 -60.064857 -28.500809 -10.336551 79.025581
16000000000 -19.129553 -156.34451 -57.492561 -69.9207 -62.666885 -60.123035 -10.162202 76.547226
16010000000 -18.815321 -154.8262 -58.871964 -84.245392 -64.105072 -67.622215 -9.9771175 74.448387
16020000000 -18.544739 -155.71181 -58.770519 -104.03645 -60.253132 -68.046272 -9.8989058 72.774567
16030000000 -18.166924 -155.36409 -57.751961 -133.69943 -60.079525 -107.89296 -9.9189606 71.185799
16040000000 -17.833456 -156.41081 -59.376778 -166.09819 -59.364857 -116.27052 -10.011968 69.291641
16050000000 -17.547123 -156.74358 -61.302837 173.99979 -59.444546 -157.28139 -10.07508 66.77037
16060000000 -17.182243 -156.26782 -64.710358 150.44031 -63.195278 -171.26962 -10.132194 63.618835
16070000000 -16.659554 -156.11742 -67.323433 158.8647 -61.751942 -177.71204 -10.158715 60.706032
16080000000 -16.273409 -157.54877 -63.236969 145.7318 -58.907013 167.0907 -10.175526 58.041008
16090000000 -16.198904 -158.48648 -60.578583 109.99836 -60.330082 130.09006 -10.245338 55.336353
16100000000 -16.13603 -158.63049 -62.519875 57.372601 -60.946587 107.99539 -10.29908 52.45203
16110000000 -15.86587 -158.05737 -67.553406 102.15633 -58.729046 101.30495 -10.331169 49.245598
16120000000 -15.537391 -157.89078 -63.485283 109.42655 -60.135399 73.241608 -10.324648 46.204945
16130000000 -15.123095 -158.7019 -58.917694 80.810463 -60.599365 64.301743 -10.293722 44.186836
16140000000 -14.818173 -158.89774 -58.1409 46.120983 -57.50338 54.915108 -10.305585 42.604481
16150000000 -14.394475 -161.36375 -58.999126 6.5746655 -55.38763 19.017656 -10.498961 40.910301
16160000000 -14.160337 -162.05219 -60.725937 13.919985 -56.310802 -14.715889 -10.841936 38.747807
16170000000 -13.731075 -164.10884 -57.344845 -5.6014986 -57.823475 -36.311188 -11.245373 35.538422
16180000000 -13.637355 -164.79103 -55.882069 -33.374226 -58.563229 -58.083778 -11.54779 31.435946
16190000000 -13.374624 -165.66722 -56.855865 -66.617737 -56.593987 -59.036945 -11.750623 27.113472
16200000000 -13.255368 -165.21967 -56.435558 -79.855682 -55.51413 -93.491493 -11.918138 23.480095
16210000000 -12.928935 -165.84766 -55.137665 -100.20719 -55.252037 -112.32648 -12.171919 20.209389
16220000000 -12.740596 -165.19038 -53.432545 -122.98479 -54.757912 -136.71921 -12.510384 16.907055
16230000000 -12.2958 -166.65182 -53.108086 -157.50854 -54.453217 -164.03725 -12.895584 13.559067
16240000000 -12.086521 -167.04591 -54.022396 171.2963 -55.446156 167.23329 -13.264038 10.41336
16250000000 -11.720144 -169.96117 -54.536861 149.11395 -55.851292 148.9695 -13.604401 7.5434709
16260000000 -11.617205 -171.5296 -55.623356 129.35143 -54.854618 126.09811 -14.151069 5.2791705
16270000000 -11.385265 -174.05368 -53.775028 110.2497 -55.167419 96.165894 -14.932995 3.0932262
16280000000 -11.396597 -175.27174 -53.362507 81.678596 -55.538795 78.300095 -15.949806 0.12070885
16290000000 -11.191265 -175.86978 -53.950932 50.354511 -55.332981 57.020233 -17.039 -5.1488519
16300000000 -11.07185 -175.7075 -55.42765 24.382168 -57.024708 23.246801 -18.138527 -11.991041
16310000000 -10.652945 -175.95959 -57.45969 9.3046055 -57.929569 13.423616 -19.145727 -18.150284
16320000000 -10.380825 -176.17604 -55.690689 -4.2853284 -57.382137 -4.1869617 -20.172146 -23.771906
16330000000 -9.9064674 -177.79564 -56.236008 -34.783703 -57.679348 -22.881231 -21.518312 -29.261894
16340000000 -9.7830505 -179.75679 -55.63229 -54.620018 -56.999695 -46.368778 -23.374271 -36.352734
16350000000 -9.6120567 178.00652 -58.21262 -89.524353 -57.064762 -77.458206 -25.68647 -44.49456
16360000000 -9.6987028 176.27913 -59.597126 -90.943008 -59.134727 -96.776306 -28.448462 -55.683426
16370000000 -9.6536026 175.21747 -58.433899 -122.31354 -60.375477 -122.15118 -33.024662 -75.864517
16380000000 -9.6654968 174.70503 -59.2071 -131.258 -59.578175 -111.28671 -36.588299 -135.95131
16390000000 -9.4195337 174.54663 -60.461628 -155.34311 -58.099792 -143.43863 -30.813347 174.18648
16400000000 -9.1511717 173.99771 -57.593018 -163.2204 -57.609501 -163.29475 -26.432549 163.24196
16410000000 -8.7806768 172.63202 -59.69545 163.39058 -58.048512 166.89917 -23.766436 158.56282
16420000000 -8.5074577 171.19101 -58.921356 153.7332 -58.971806 154.39076 -22.274857 154.03687
16430000000 -8.2544155 169.0742 -60.351597 130.93605 -59.243122 132.56554 -21.051239 149.11101
16440000000 -8.2219763 167.47578 -59.398952 126.51501 -58.110584 124.73746 -19.872074 142.81886
16450000000 -8.1943016 166.28223 -59.245621 96.977463 -57.564831 92.970016 -18.694273 137.6953
16460000000 -8.2088528 165.90321 -58.211708 73.726166 -57.745804 69.091217 -17.716988 133.4763
16470000000 -8.1382971 165.68257 -59.386528 63.364498 -58.736786 55.860825 -16.987793 130.37625
16480000000 -7.9889274 165.46434 -59.254639 42.415752 -57.20771 29.70294 -16.322689 126.75457
16490000000 -7.7511525 164.50883 -58.206772 26.789646 -57.681171 10.147386 -15.626259 122.11952
16500000000 -7.5306478 163.49632 -56.722847 8.5474939 -58.158749 -8.5562143 -14.911417 117.94017
16510000000 -7.2807412 161.36723 -55.602383 -22.764875 -57.243343 -31.638287 -14.166568 115.51317
16520000000 -7.1608462 159.87196 -57.559574 -44.554348 -58.537449 -48.620895 -13.544135 114.02099
16530000000 -7.0222688 157.94435 -56.949955 -66.469124 -56.203983 -74.906158 -13.16645 112.57307
16540000000 -7.0134997 157.25121 -56.88168 -82.48394 -57.779686 -108.04767 -12.985172 110.31642
16550000000 -6.9003024 156.4877 -56.490532 -105.99257 -59.697388 -118.59691 -12.806985 107.01975
16560000000 -6.8308077 156.48854 -55.614571 -126.20422 -59.534241 -126.08518 -12.555653 103.33784
16570000000 -6.6465721 155.9417 -56.372955 -144.02455 -58.411144 -140.79858 -12.186254 100.27244
16580000000 -6.4661117 155.73381 -54.872375 -169.36803 -56.361095 -164.62869 -11.836041 97.766167
16590000000 -6.2316985 154.35089 -55.388607 160.6861 -56.926056 166.37029 -11.576576 95.426857
16600000000 -6.0750837 153.06038 -56.077305 141.94525 -58.093113 146.42569 -11.422774 93.123825
16610000000 -5.9179096 151.15117 -54.950294 116.21526 -56.416218 130.14265 -11.175641 90.45076
16620000000 -5.8554249 149.65141 -56.481228 94.633537 -57.178104 104.88054 -10.878413 87.762642
16630000000 -5.7522044 148.15279 -56.001347 80.359329 -57.36092 94.270866 -10.539355 85.761955
16640000000 -5.7028003 147.46303 -56.134323 53.40506 -56.55806 72.046265 -10.333563 84.342201
16650000000 -5.5259967 146.9559 -56.01759 41.371452 -55.403107 55.487755 -10.231862 83.400909
16660000000 -5.349659 146.50481 -54.817596 13.999497 -54.703087 24.201508 -10.209818 81.82238
16670000000 -5.0804896 145.80115 -56.353138 -5.6042018 -54.880943 9.8347559 -10.225895 79.114044
16680000000 -4.8575535 144.5905 -55.414555 -27.23712 -53.695538 -19.504778 -10.178823 75.655571
16690000000 -4.6746259 143.07658 -55.825565 -54.758686 -54.696838 -45.207947 -10.074047 72.378853
16700000000 -4.5827842 141.57692 -57.388878 -58.407726 -55.497791 -64.667259 -9.8977699 69.646217
16710000000 -4.4875464 140.16246 -55.173485 -81.098564 -53.806396 -80.208458 -9.7345753 67.632553
16720000000 -4.4392948 139.0462 -54.610767 -104.85683 -53.224827 -107.86911 -9.5833445 65.801834
16730000000 -4.2969356 138.05734 -54.131405 -131.52618 -52.648674 -129.91087 -9.4759407 63.935966
16740000000 -4.1550207 137.0327 -55.521164 -154.58562 -53.358578 -161.4408 -9.3902082 61.986721
16750000000 -3.9549012 135.94083 -54.162876 -171.83205 -53.253475 -179.70894 -9.3423147 60.202579
16760000000 -3.7573364 134.54523 -54.230022 168.81544 -53.030018 159.09685 -9.2861061 58.39402
16770000000 -3.5792739 132.98726 -53.698769 140.48955 -53.027813 128.04231 -9.302618 56.313152
16780000000 -3.4423339 131.54202 -54.681656 121.57973 -54.37764 111.33964 -9.3473072 54.2402
16790000000 -3.3361158 130.18906 -54.310452 101.64772 -54.234386 85.140198 -9.3833046 51.561169
16800000000 -3.2271461 128.95752 -54.379322 76.093422 -55.125793 70.828552 -9.3987694 48.474094
16810000000 -3.1179852 127.67614 -53.681385 60.888474 -54.052692 56.491512 -9.4013586 45.180969
16820000000 -3.0068088 126.30409 -52.096539 38.458553 -52.874542 31.356194 -9.3668442 42.026539
16830000000 -2.8831644 124.83649 -51.985626 6.7227945 -53.169895 2.479486 -9.2683878 39.216694
16840000000 -2.7605357 123.38738 -52.046471 -24.31978 -53.233521 -25.973316 -9.1412506 36.7654
16850000000 -2.6241024 121.78967 -54.126972 -41.251526 -54.660667 -46.756016 -9.0275011 34.812115
16860000000 -2.4990306 120.24773 -53.665562 -57.517208 -54.183914 -61.303913 -8.9791651 33.243732
16870000000 -2.3700945 118.70151 -52.953724 -78.392845 -53.447956 -82.662933 -9.0263977 31.692747
16880000000 -2.2473245 117.22672 -52.168533 -101.85122 -52.92112 -101.8132 -9.1819592 29.968262
16890000000 -2.1381452 115.7731 -51.580013 -127.80769 -51.460331 -128.72632 -9.3365154 27.222776
16900000000 -2.0374846 114.47143 -51.745625 -158.93266 -51.841812 -160.80496 -9.4881716 23.829338
16910000000 -1.9531785 113.0139 -52.341637 176.54204 -52.710075 174.00166 -9.5485525 19.872219
16920000000 -1.8825165 111.73373 -52.735813 151.47 -53.618382 148.57961 -9.5555124 16.10656
16930000000 -1.7814893 110.28991 -52.824589 132.84727 -54.176899 131.83853 -9.5100088 12.517684
16940000000 -1.6970341 108.75522 -52.931881 105.45942 -53.664032 103.94567 -9.4900827 9.1504669
16950000000 -1.5946115 107.07016 -53.607189 79.490105 -54.634773 79.985191 -9.512805 6.1657786
16960000000 -1.5067255 105.32651 -54.368382 61.557518 -55.950615 64.996849 -9.5658426 3.4650719
16970000000 -1.4204652 103.58346 -53.581181 37.335999 -54.90202 40.449841 -9.6095724 0.85927701
16980000000 -1.3498296 101.94958 -54.357323 10.344257 -54.504894 19.913353 -9.7054157 -2.0029233
16990000000 -1.2667154 100.4101 -54.665371 -14.770546 -55.190834 -5.9899693 -9.8733702 -5.2577076
17000000000 -1.1908169 98.987946 -55.322456 -33.326698 -55.165668 -25.680269 -10.105513 -8.9663973
