!Keysight Technologies,P9374A,MY57211807,A.19.30.04
!Date: Friday, May 08, 2026 15:13:15
!Correction: S11(C  2-Port  ) 
!S21(C  2-Port  ) 
!S12(C  2-Port  ) 
!S22(C  2-Port  ) 
!S2P File: Measurements: S11, S21, S12, S22:
# Hz S  dB   R 50
13000000000 -18.835773 54.8451 -39.985325 79.544121 -39.731121 77.284462 -13.668998 -86.072563
13010000000 -19.625656 56.546783 -39.594994 56.448864 -39.303013 53.607338 -14.127357 -89.817055
13020000000 -19.738287 61.454609 -39.390385 31.758566 -39.119289 29.734795 -14.610007 -93.488647
13030000000 -19.577648 64.709465 -39.66782 6.9513674 -39.329411 4.5513163 -15.122353 -97.272652
13040000000 -19.52758 63.998825 -40.312019 -14.151207 -39.986366 -17.731833 -15.716289 -101.27737
13050000000 -19.451803 64.964798 -40.639778 -32.58672 -40.536049 -36.551483 -16.389053 -105.88808
13060000000 -19.402285 62.416927 -40.106625 -50.890911 -40.127262 -54.762161 -17.021042 -111.38203
13070000000 -19.689224 60.999588 -39.716293 -73.351196 -39.765965 -76.817612 -17.504829 -118.23595
13080000000 -19.827396 60.862682 -39.365929 -97.442047 -39.452133 -101.15049 -17.886595 -124.66673
13090000000 -19.748911 60.408611 -39.770432 -122.44315 -39.942459 -126.08132 -18.261805 -130.77509
13100000000 -19.734364 60.248234 -40.188484 -142.74377 -40.40749 -146.66696 -18.834646 -136.67973
13110000000 -19.55414 60.952583 -40.175724 -163.11934 -40.533649 -165.40141 -19.474049 -143.97249
13120000000 -19.661762 59.815258 -40.029236 175.62585 -40.399055 173.71509 -19.970942 -153.20645
13130000000 -19.682394 60.87952 -39.986408 154.3129 -40.269791 151.06725 -20.118855 -163.4682
13140000000 -19.671064 63.627605 -39.912575 131.37592 -40.375278 129.18394 -20.09967 -173.19051
13150000000 -19.24184 63.003147 -40.098518 108.6092 -40.618431 108.14613 -20.094013 178.21523
13160000000 -19.299778 63.236938 -40.067772 87.977615 -40.516262 87.946022 -20.122572 169.33325
13170000000 -18.876966 60.722145 -40.094978 66.736572 -40.421856 66.866669 -20.038345 159.14503
13180000000 -19.136826 57.099205 -40.145927 45.561195 -40.516762 45.680882 -19.501772 148.82213
13190000000 -19.196939 54.806511 -39.756447 24.180281 -40.159222 24.472565 -18.685154 139.86246
13200000000 -19.709333 52.477242 -39.567368 -0.11046011 -39.973255 0.99201757 -17.858366 132.98415
13210000000 -19.945269 54.390446 -39.871418 -23.955351 -40.134277 -21.543203 -17.237885 127.10318
13220000000 -19.717411 55.942913 -39.986832 -45.212921 -40.104168 -43.133675 -16.802818 121.16275
13230000000 -19.38065 56.071522 -40.17065 -69.363052 -40.242439 -67.80056 -16.333044 114.21307
13240000000 -19.018255 55.619152 -40.623177 -87.592056 -40.634197 -85.91053 -15.738132 107.37654
13250000000 -18.662277 52.162712 -40.248596 -109.6081 -40.326828 -106.79101 -14.915455 101.31319
13260000000 -18.993618 49.492558 -39.898445 -132.25638 -39.744865 -128.99304 -14.102701 96.547546
13270000000 -19.142336 47.689747 -40.233505 -158.99092 -39.992207 -157.10387 -13.435555 92.416344
13280000000 -19.548723 46.233383 -40.644802 178.9158 -40.355694 -178.74707 -12.963482 88.683884
13290000000 -19.849592 46.416683 -40.918266 157.02309 -40.525043 158.8988 -12.567841 84.368462
13300000000 -19.737986 45.856297 -41.375732 135.71542 -40.843983 137.7543 -12.169402 79.425758
13310000000 -19.852491 43.837784 -41.475384 115.16322 -40.79332 115.33833 -11.706458 74.418449
13320000000 -19.671848 41.563408 -41.489227 93.800743 -40.860561 93.218567 -11.168326 70.18959
13330000000 -20.054785 38.756821 -41.677277 70.439751 -40.959435 69.108536 -10.635287 66.468903
13340000000 -20.089933 40.378025 -42.541737 47.795464 -41.779922 44.367275 -10.176446 62.771702
13350000000 -20.090921 39.181034 -42.683735 30.289474 -42.309391 26.589033 -9.8532228 58.900841
13360000000 -19.768431 40.19376 -42.501163 11.557685 -42.11253 8.4575644 -9.6162663 54.503029
13370000000 -19.600433 35.699978 -42.490025 -12.555564 -42.049286 -16.711565 -9.3195353 50.012253
13380000000 -19.704811 31.655058 -43.171761 -35.311897 -42.884274 -39.988384 -8.9316034 45.552818
13390000000 -20.598061 28.065418 -43.794289 -55.271648 -43.529835 -60.096622 -8.5175238 41.461655
13400000000 -21.014442 27.978939 -44.256535 -70.678482 -44.173016 -78.026306 -8.1378984 37.782383
13410000000 -22.030462 26.297588 -43.738117 -89.236656 -43.825153 -94.889862 -7.9015317 34.208981
13420000000 -22.104229 33.582958 -43.547535 -111.35332 -43.726978 -116.99953 -7.7582555 30.411888
13430000000 -21.538397 31.671434 -43.397552 -132.66211 -43.820347 -137.52876 -7.6282539 26.23348
13440000000 -21.012224 29.457535 -43.963978 -156.74727 -44.27243 -161.45833 -7.4778762 21.729883
13450000000 -20.742498 23.700157 -44.774517 -174.57843 -45.29694 -177.44893 -7.264771 17.14423
13460000000 -21.029499 17.564081 -44.118999 168.27888 -44.669922 165.61275 -7.0405331 13.110561
13470000000 -22.195894 12.090586 -44.056656 146.94638 -44.617313 144.30342 -6.8599148 9.3141479
13480000000 -22.999693 16.293663 -44.116615 126.45657 -44.66296 125.15084 -6.7592888 5.49441
13490000000 -23.998323 16.657467 -43.877907 105.07009 -44.361237 105.14996 -6.7377777 1.6786962
13500000000 -23.63023 23.610302 -43.942482 82.319229 -44.312397 82.783592 -6.7498012 -2.338747
13510000000 -23.468355 22.847332 -44.371792 60.944569 -44.689819 61.304329 -6.7270403 -6.3811517
13520000000 -23.040676 20.334633 -44.682243 42.01667 -44.794281 43.297729 -6.7121501 -10.44532
13530000000 -23.444715 12.331128 -44.859356 22.601835 -44.788151 22.775215 -6.7200146 -14.406625
13540000000 -23.984941 9.0896893 -44.725796 7.0353456 -44.996784 5.6788177 -6.7711143 -18.397177
13550000000 -25.082302 8.3078489 -44.036259 -11.800765 -44.277569 -10.851226 -6.8705778 -22.321037
13560000000 -25.133923 9.4537439 -43.651482 -37.896168 -43.840805 -36.642494 -6.9706864 -26.285975
13570000000 -26.052916 13.514189 -44.020412 -59.590218 -44.046471 -58.35614 -7.0482831 -30.150269
13580000000 -25.011299 12.893137 -44.317757 -80.663315 -44.268681 -79.827316 -7.1262379 -33.819813
13590000000 -26.263708 11.511087 -44.587406 -98.075752 -44.392433 -97.239441 -7.2220898 -37.424152
13600000000 -25.959282 11.870085 -44.162041 -119.53101 -44.023769 -119.47426 -7.3643341 -40.864105
13610000000 -27.369791 16.348188 -44.107079 -137.53542 -43.909626 -136.98268 -7.5578399 -44.216019
13620000000 -26.927593 18.096426 -43.694275 -162.80598 -43.637302 -162.45439 -7.7661939 -47.731297
13630000000 -27.424047 21.129215 -43.939613 176.19302 -43.686161 176.43942 -7.9719357 -51.273922
13640000000 -26.427797 16.274927 -44.0186 156.26944 -43.727219 156.05872 -8.1638193 -54.959507
13650000000 -27.496487 10.717762 -43.700508 137.10843 -43.345543 135.71313 -8.340291 -58.482948
13660000000 -27.543699 5.0520573 -44.023384 115.04064 -43.656185 113.15451 -8.4782772 -61.79018
13670000000 -29.778107 5.2749743 -43.643318 93.962563 -43.45776 93.271423 -8.6551104 -64.938469
13680000000 -30.451948 14.796287 -44.041615 72.023598 -43.689774 70.735519 -8.8612127 -67.707962
13690000000 -29.690123 31.948627 -43.970234 53.676632 -43.699329 51.014111 -9.0869999 -70.513222
13700000000 -27.539211 32.674267 -43.357723 33.8176 -43.121944 31.189892 -9.3589897 -73.597687
13710000000 -26.291319 29.59914 -43.346283 7.3231473 -42.983318 5.1013093 -9.6404676 -77.03643
13720000000 -25.910545 15.854016 -44.183716 -12.46363 -43.748848 -16.964893 -9.894908 -80.501289
13730000000 -27.801004 11.615484 -44.407066 -29.951962 -44.377666 -34.849056 -10.10092 -83.75148
13740000000 -28.712858 8.5392179 -43.453999 -46.612083 -43.554192 -49.618385 -10.294126 -86.659195
13750000000 -31.982985 14.997178 -43.201088 -68.719902 -43.133221 -72.537605 -10.5185 -89.420158
13760000000 -31.087559 31.891714 -42.815857 -92.40493 -42.796097 -96.390892 -10.81398 -92.4972
13770000000 -29.675022 36.490219 -42.968273 -115.75971 -43.064957 -119.12999 -11.129537 -96.023483
13780000000 -27.748604 31.751293 -43.327744 -137.39886 -43.465805 -141.15155 -11.395173 -99.768539
13790000000 -26.540127 21.898661 -43.218292 -155.51903 -43.427258 -159.23077 -11.549689 -103.21768
13800000000 -26.888119 7.3732986 -42.835861 -174.45192 -43.096298 -178.62325 -11.65863 -106.19299
13810000000 -27.633713 5.6812472 -42.20108 162.34773 -42.66254 159.71893 -11.860701 -108.7218
13820000000 -28.218374 -1.6114829 -42.60162 139.21907 -42.98386 137.32643 -12.161974 -111.07648
13830000000 -29.501333 10.831617 -42.112488 118.08371 -42.43441 116.55454 -12.509125 -114.05908
13840000000 -28.201227 5.3358831 -42.363232 95.241966 -42.777172 93.565216 -12.808599 -117.83826
13850000000 -29.360632 10.746984 -42.10622 76.644135 -42.444687 76.009956 -13.020088 -122.02887
13860000000 -28.148312 8.2305193 -41.810772 53.247753 -42.045345 52.396461 -13.172441 -125.78902
13870000000 -28.292091 4.2895894 -41.846855 30.872223 -42.019207 30.415426 -13.325507 -128.94307
13880000000 -28.415817 -2.2158062 -41.558861 8.4856482 -41.847454 8.7974186 -13.546779 -131.86545
13890000000 -28.413958 -1.2970314 -41.567329 -14.823054 -41.977856 -14.24645 -13.836761 -135.16153
13900000000 -27.994308 -10.975725 -41.665207 -36.822052 -41.865314 -35.903542 -14.055305 -138.9648
13910000000 -27.937805 -8.5193586 -41.554588 -57.064911 -41.696716 -56.034683 -14.19305 -143.29665
13920000000 -27.248911 -22.130159 -41.493618 -82.279579 -41.486752 -82.192909 -14.276961 -147.14456
13930000000 -28.730583 -29.218884 -41.617886 -102.2692 -41.821587 -102.26331 -14.37564 -150.47232
13940000000 -29.744759 -33.739048 -41.413887 -126.85469 -41.439487 -126.17863 -14.563743 -153.80676
13950000000 -31.191904 -32.827328 -41.651546 -149.18263 -41.798588 -148.28012 -14.846301 -157.42227
13960000000 -32.430672 -31.381199 -41.631874 -171.24001 -41.476597 -169.52393 -15.107593 -161.67963
13970000000 -31.309441 -23.173323 -41.578796 165.10318 -41.439056 165.74091 -15.258018 -166.39571
13980000000 -30.119495 -30.768858 -41.838169 141.95917 -41.633934 142.94173 -15.243477 -171.61259
13990000000 -28.236609 -39.967102 -41.998604 120.50851 -41.673206 121.20096 -15.196379 -176.6994
14000000000 -27.538885 -57.850262 -42.094925 98.316452 -41.833939 98.172569 -15.132721 178.75314
14010000000 -27.370514 -69.644775 -42.554546 74.96508 -42.210403 74.494553 -15.055494 174.43594
14020000000 -27.989656 -80.615402 -42.730358 54.496964 -42.316605 53.74789 -14.981981 170.43213
14030000000 -29.53768 -87.107643 -42.901264 33.133289 -42.516464 32.172218 -14.903459 166.44066
14040000000 -31.218756 -84.810669 -42.800835 12.92119 -42.373177 11.637931 -14.822774 162.21623
14050000000 -31.809698 -74.826271 -42.800678 -11.734792 -42.41391 -12.899207 -14.739081 158.00221
14060000000 -31.57366 -70.033676 -43.02042 -34.243084 -42.606319 -37.002056 -14.610319 153.86118
14070000000 -30.330076 -70.247772 -43.56744 -58.370777 -43.263054 -61.282856 -14.450542 149.73399
14080000000 -29.399445 -83.348663 -43.828136 -75.354408 -43.60199 -78.507507 -14.29641 145.85057
14090000000 -29.32869 -92.794235 -43.953037 -98.256248 -43.790863 -101.29309 -14.195119 141.90002
14100000000 -28.367594 -110.2167 -44.130257 -119.63316 -43.913219 -122.26786 -14.103038 137.79675
14110000000 -29.008556 -122.45346 -44.557743 -138.23021 -44.27042 -142.34691 -13.97259 133.41621
14120000000 -28.844666 -129.36333 -44.44545 -160.92181 -44.43795 -165.8208 -13.764376 128.87985
14130000000 -29.394047 -135.4012 -44.757244 179.88301 -44.706299 174.94199 -13.459271 124.43202
14140000000 -29.582621 -136.93996 -44.651974 155.60056 -44.84391 151.11086 -13.17249 120.67448
14150000000 -30.27581 -135.33833 -44.768909 135.68338 -45.061321 132.40475 -12.950752 117.1912
14160000000 -29.495401 -131.45612 -44.88055 112.65534 -45.173309 110.4468 -12.763854 113.63242
14170000000 -29.471703 -132.29254 -45.342705 90.918205 -45.501167 88.229652 -12.566263 109.34632
14180000000 -28.703362 -135.47006 -46.009464 70.254433 -46.252804 67.843109 -12.335336 104.82175
14190000000 -27.972097 -142.98524 -45.794708 53.810726 -46.205643 51.121513 -12.00636 100.60759
14200000000 -27.481918 -149.98474 -45.838871 30.183971 -46.319584 28.111189 -11.674259 96.77739
14210000000 -27.376614 -158.96049 -45.838066 7.7814741 -46.322666 7.0273356 -11.403885 93.554565
14220000000 -27.56208 -163.73204 -46.043957 -12.210941 -46.473911 -12.054061 -11.155285 90.416077
14230000000 -27.613182 -169.31723 -46.131931 -37.753391 -46.446545 -37.0639 -10.952101 86.702652
14240000000 -28.216646 -170.40877 -46.877846 -58.757401 -47.133419 -55.763054 -10.73042 82.674637
14250000000 -28.126997 -168.78729 -47.356548 -79.724884 -47.460751 -78.467239 -10.504154 78.547661
14260000000 -28.70516 -167.85791 -47.35902 -98.888931 -47.52261 -97.000198 -10.268518 74.73896
14270000000 -28.124447 -162.29205 -48.175331 -118.62339 -48.05595 -115.91455 -10.05964 70.976967
14280000000 -27.731361 -166.36876 -48.167736 -139.42499 -47.958504 -137.93538 -9.8892012 67.257095
14290000000 -26.910349 -167.89287 -48.778252 -155.89764 -48.488426 -154.15329 -9.7283993 63.249382
14300000000 -26.997593 -177.40791 -48.19315 -176.84727 -47.968754 -175.44873 -9.5195646 58.840919
14310000000 -27.038139 -179.89398 -48.547089 159.30824 -48.29298 161.5571 -9.3188124 54.248207
14320000000 -27.309097 169.29683 -49.441818 136.36725 -48.83334 138.21516 -9.0965366 49.943172
14330000000 -28.011782 171.68498 -50.585644 119.48775 -50.041855 119.87305 -8.8957272 45.994698
14340000000 -29.003319 167.12981 -50.78833 110.94091 -50.373966 110.4371 -8.7498407 42.164993
14350000000 -28.845676 -178.90388 -49.72501 89.376129 -49.164322 91.366501 -8.6379948 38.294258
14360000000 -28.507198 -179.67989 -50.419765 69.7286 -49.534618 66.577469 -8.575079 33.982563
14370000000 -27.206005 -175.16057 -50.231388 53.434925 -49.672493 50.449268 -8.5458374 29.36561
14380000000 -26.873268 174.86 -50.19202 31.175398 -49.590145 27.008787 -8.5031271 24.533033
14390000000 -26.922924 173.90904 -50.805801 15.667627 -50.507351 11.3029 -8.4382639 19.738426
14400000000 -27.486248 165.03297 -50.499561 -0.016487971 -50.356819 -2.8768926 -8.3642988 14.870173
14410000000 -28.374052 164.61024 -49.871696 -13.898881 -49.571995 -17.150084 -8.3212919 10.314717
14420000000 -29.363462 166.47862 -48.795429 -36.79052 -48.566841 -42.360798 -8.3190975 5.9125881
14430000000 -28.932432 171.97052 -48.917824 -58.849121 -48.926563 -63.583912 -8.3668385 1.4692291
14440000000 -28.862839 175.21463 -48.82922 -78.815331 -48.931984 -83.316391 -8.4570713 -3.0738735
14450000000 -27.27648 178.74551 -48.920212 -93.392601 -49.394699 -96.701401 -8.562624 -7.9589591
14460000000 -27.254364 174.04129 -47.530361 -112.32596 -47.728867 -114.19073 -8.6982393 -12.966277
14470000000 -26.692535 174.67216 -46.630196 -136.21082 -46.732277 -138.45413 -8.8762932 -17.797926
14480000000 -26.7778 174.09851 -47.190498 -163.04239 -47.202419 -165.59064 -9.0953989 -22.748369
14490000000 -26.774664 170.72748 -47.136688 177.62738 -47.26725 174.5498 -9.3671007 -27.835903
14500000000 -27.401926 175.06453 -47.17733 161.03271 -47.693527 157.40469 -9.6273193 -33.298916
14510000000 -27.122898 172.60274 -46.037621 142.02086 -46.267628 141.14034 -9.8482561 -39.118519
14520000000 -27.970333 179.56439 -45.12207 115.13814 -45.369659 115.06582 -10.031864 -44.603401
14530000000 -27.199774 177.97987 -45.086216 91.425529 -45.323338 90.877457 -10.209739 -49.478664
14540000000 -26.87846 -174.65117 -45.035202 67.43354 -45.279797 67.51825 -10.489001 -53.9356
14550000000 -25.296839 -179.72394 -45.016651 46.496429 -45.10841 44.697395 -10.887792 -58.564312
14560000000 -25.148785 179.76263 -44.934631 23.73472 -45.168056 22.621513 -11.388705 -63.71146
14570000000 -23.966391 172.94554 -44.912212 0.44829494 -45.089516 -0.99951279 -11.893606 -69.573509
14580000000 -24.350397 169.59309 -44.911602 -22.587551 -45.133492 -22.731728 -12.310363 -75.921791
14590000000 -24.972422 164.67679 -44.332981 -43.428082 -44.533325 -42.886292 -12.687311 -82.166046
14600000000 -25.71245 175.08049 -44.52494 -70.008453 -44.701218 -68.323364 -13.052771 -88.272667
14610000000 -24.947552 175.83769 -44.905983 -92.219498 -44.820103 -91.173973 -13.497703 -94.341217
14620000000 -24.524536 -176.31226 -44.758163 -114.48077 -44.590134 -114.03297 -13.961847 -100.92371
14630000000 -23.008661 179.71989 -45.01812 -136.88216 -44.951653 -137.293 -14.36471 -107.95821
14640000000 -22.363712 175.52554 -44.801521 -158.66017 -44.90728 -158.85852 -14.696605 -114.92543
14650000000 -21.968924 168.31755 -44.966259 177.25012 -45.090771 177.6261 -14.972002 -121.32669
14660000000 -22.124907 162.41826 -45.443043 153.40663 -45.306469 155.38458 -15.330453 -127.5738
14670000000 -23.039444 159.01196 -45.57029 134.71896 -45.346561 135.59029 -15.828556 -134.25896
14680000000 -23.121294 163.3882 -45.63488 109.13563 -45.2701 110.06938 -16.340847 -141.90347
14690000000 -23.281511 167.25624 -46.672585 89.52552 -46.288368 88.983414 -16.691452 -150.48994
14700000000 -22.006975 170.6412 -46.329018 73.983353 -46.012836 71.994064 -16.853735 -160.02866
14710000000 -21.340418 167.13902 -46.065506 50.35611 -45.753231 48.750912 -16.871984 -168.76779
14720000000 -20.834785 163.75961 -45.658222 28.843964 -45.568058 27.442902 -16.737619 -176.86424
14730000000 -20.783213 157.91795 -45.603981 -0.33427083 -45.233425 -0.35821873 -16.573339 175.51656
14740000000 -20.949135 153.59734 -46.656979 -25.23316 -46.265663 -25.970774 -16.4737 168.4472
14750000000 -21.461201 151.66531 -48.077526 -41.252953 -47.696552 -44.373173 -16.463823 162.03799
14760000000 -21.282043 152.46257 -48.250755 -57.96059 -48.117466 -60.30286 -16.47053 155.92232
14770000000 -21.332109 150.72522 -47.585686 -72.228004 -47.409096 -75.166946 -16.435036 149.24005
14780000000 -20.763418 150.53827 -46.194019 -94.969025 -45.992935 -97.400253 -16.263657 141.82735
14790000000 -20.75569 147.28673 -46.272598 -121.55947 -46.01897 -126.05874 -15.959006 134.26523
14800000000 -20.444647 147.41725 -46.783306 -148.46054 -46.800816 -152.27573 -15.625 127.6145
14810000000 -20.498873 145.60979 -47.342552 -168.72755 -47.301228 -172.86411 -15.355292 122.33057
14820000000 -20.180391 145.5327 -47.357002 169.7531 -47.420208 165.99297 -15.096623 117.47649
14830000000 -20.278488 143.32864 -47.51667 146.87422 -47.558277 143.84793 -14.913554 112.53972
14840000000 -19.905218 141.13777 -47.878574 125.69443 -48.166851 123.26476 -14.74056 107.45798
14850000000 -20.154634 136.1423 -48.103523 108.41463 -48.356586 105.94152 -14.515729 102.51341
14860000000 -20.378508 132.64723 -48.003014 86.330925 -48.1133 84.129471 -14.336225 98.334312
14870000000 -21.289331 128.59181 -46.976776 68.187469 -47.200127 64.991798 -14.17732 94.391724
14880000000 -21.67993 130.84372 -46.824593 32.808708 -47.025986 30.450665 -14.179642 90.192062
14890000000 -21.636353 133.55318 -47.816559 9.9330959 -48.095165 6.6271677 -14.152292 85.521103
14900000000 -20.746603 133.50897 -48.992912 -12.469557 -49.414791 -14.774085 -14.036587 79.862717
14910000000 -20.266468 131.3844 -49.784832 -32.211109 -50.243355 -33.796673 -13.872943 74.387451
14920000000 -19.709835 124.81808 -49.485886 -49.798542 -49.948849 -50.13242 -13.675673 70.580978
14930000000 -20.139671 120.58768 -49.62542 -71.751411 -49.77454 -70.102959 -13.534236 67.608574
14940000000 -20.511841 114.81052 -49.171066 -98.466316 -49.623795 -98.951019 -13.594296 65.082085
14950000000 -21.939526 116.13972 -50.066349 -125.1804 -50.171593 -124.57533 -13.750693 62.409828
14960000000 -22.599438 118.91828 -51.196266 -145.22963 -51.339703 -144.84537 -13.852148 58.451843
14970000000 -22.703201 128.39056 -51.994854 -172.52693 -52.358379 -171.02321 -13.953393 53.991787
14980000000 -21.827824 125.85837 -53.030804 169.25327 -52.978817 170.56525 -14.038716 49.611084
14990000000 -21.449625 124.16495 -54.648689 151.33443 -54.627995 152.08673 -14.280816 46.340271
15000000000 -21.341888 115.03986 -53.285202 143.03084 -53.117794 145.0054 -14.602393 43.736343
15010000000 -22.068607 111.30033 -53.21965 109.53822 -52.95343 111.45553 -14.95927 40.763935
15020000000 -22.901398 105.21038 -54.12804 85.152908 -53.724457 87.804192 -15.241988 37.106102
15030000000 -24.138426 111.64284 -55.402603 53.353657 -55.097691 54.200291 -15.367576 33.220196
15040000000 -24.050648 114.24895 -55.938747 30.948151 -55.769367 32.541733 -15.42771 30.152502
15050000000 -23.732666 120.43609 -61.983242 -0.39033204 -60.276241 7.8277922 -15.675534 29.015345
15060000000 -23.265852 119.26155 -66.363472 -4.4126306 -65.170639 5.4666166 -16.169706 28.963581
15070000000 -23.112267 118.15697 -65.00264 20.570984 -62.999969 5.3781948 -16.901215 29.198185
15080000000 -23.589626 115.26429 -63.724194 -4.3217034 -61.819164 -12.541138 -17.697803 28.388935
15090000000 -23.990252 116.41355 -62.826946 -10.99578 -63.726944 -24.038198 -18.433556 26.028545
15100000000 -24.884562 117.09093 -65.858284 -44.516895 -65.638069 -56.89883 -19.080372 24.417898
15110000000 -24.740688 123.13914 -68.516884 -33.00325 -69.142746 -33.955692 -19.554918 24.469082
15120000000 -24.697178 122.59086 -64.852486 3.449837 -67.286522 -1.9601463 -20.033611 26.711472
15130000000 -24.280706 120.77003 -61.949146 -20.083815 -63.523952 -15.170433 -20.46295 30.478111
15140000000 -24.981993 119.32293 -58.088139 -44.789074 -58.385105 -46.404671 -20.810669 33.920055
15150000000 -24.883064 122.53115 -57.044643 -67.633369 -57.669373 -68.97187 -21.047421 37.136482
15160000000 -25.129557 125.87827 -55.745361 -104.51685 -55.943932 -103.29321 -21.027651 41.427326
15170000000 -24.046015 129.77542 -55.285015 -122.27325 -55.432907 -125.88799 -20.733931 46.169411
15180000000 -23.60228 128.19189 -58.351303 -160.42975 -59.307812 -164.51442 -20.347984 51.722069
15190000000 -22.840946 126.58736 -56.973721 -138.88055 -57.26696 -131.76434 -20.010406 56.699905
15200000000 -23.340132 121.21235 -54.970047 -168.74806 -54.897587 -165.52885 -19.6555 59.959156
15210000000 -23.504906 120.41113 -52.472332 171.64922 -52.593834 172.12941 -19.407209 61.686241
15220000000 -24.806656 122.75026 -52.095737 142.17427 -52.131931 141.40308 -19.043537 61.912251
15230000000 -24.241148 129.6387 -51.334961 110.40919 -51.422905 111.36279 -18.538671 61.31498
15240000000 -23.950197 132.58456 -53.028374 90.315247 -53.254536 94.205498 -17.945681 60.149841
15250000000 -22.706486 130.83121 -53.32209 75.478699 -53.03141 73.251884 -17.356567 58.691933
15260000000 -22.487535 125.48199 -51.181606 65.611511 -51.41658 66.236938 -16.866926 56.969612
15270000000 -22.016338 120.99459 -49.429569 37.252659 -49.455475 36.131466 -16.368282 55.737698
15280000000 -22.472916 113.52957 -49.364967 10.680327 -49.66626 10.25491 -15.822741 54.738808
15290000000 -23.258286 113.40762 -49.387238 -18.530369 -49.412739 -16.554882 -15.294841 54.002373
15300000000 -23.576784 115.77877 -49.676025 -40.229881 -49.657269 -40.661991 -14.922769 52.559597
15310000000 -23.552444 119.59075 -50.093754 -54.091637 -49.868153 -55.234234 -14.772895 50.340569
15320000000 -22.810446 119.84149 -48.771786 -77.938904 -48.935787 -78.42453 -14.706504 47.858917
15330000000 -22.422899 118.21017 -48.393368 -101.34366 -48.465054 -101.14227 -14.641086 44.552898
15340000000 -22.373539 112.69409 -49.128948 -125.32923 -49.115276 -125.71537 -14.456994 41.374077
15350000000 -22.708336 112.06441 -49.250648 -143.99968 -49.104984 -145.45053 -14.165488 38.431358
15360000000 -22.803268 106.30341 -48.004387 -160.4196 -48.250088 -162.18149 -13.945638 35.383617
15370000000 -23.682444 108.4394 -47.450672 172.17165 -47.578419 171.80081 -13.80918 32.225292
15380000000 -23.177341 104.73072 -47.860497 147.39474 -47.791653 145.64958 -13.745942 28.359676
15390000000 -23.842903 103.61265 -48.402439 130.15236 -48.484554 130.12997 -13.662807 24.311338
15400000000 -23.774416 100.08147 -47.218273 110.9697 -47.296543 109.03909 -13.537885 20.86054
15410000000 -24.293533 98.704315 -46.807766 86.159302 -46.854527 85.256401 -13.407697 18.488081
15420000000 -24.841105 96.743736 -46.457256 60.825581 -46.601982 59.612614 -13.387285 16.288464
15430000000 -25.109915 100.28327 -46.669571 39.323578 -46.587349 37.639492 -13.514399 13.503956
15440000000 -25.005077 98.39296 -47.057358 13.335358 -47.211338 12.515798 -13.796801 8.8592119
15450000000 -24.956556 98.140549 -47.272659 0.9607262 -47.060066 -0.28714615 -14.076195 2.8992467
15460000000 -24.851412 91.9133 -46.393288 -25.221735 -46.319717 -25.451321 -14.224607 -2.9761114
15470000000 -25.587498 87.204414 -45.684528 -46.940895 -45.594837 -48.981316 -14.198804 -7.9759374
15480000000 -26.406801 80.108208 -45.634243 -72.069305 -45.620773 -73.03463 -14.190806 -11.855209
15490000000 -28.475584 79.462624 -45.771019 -96.30423 -45.542175 -98.409233 -14.35989 -15.963248
15500000000 -29.433722 83.271866 -46.089207 -119.45114 -46.034954 -121.67872 -14.678117 -20.088737
15510000000 -29.588791 89.584831 -46.276497 -142.3065 -46.243084 -143.87927 -15.021907 -24.921925
15520000000 -29.883614 87.83651 -46.584797 -162.92802 -46.443439 -164.27432 -15.366369 -30.205013
15530000000 -29.128286 89.334541 -46.392399 -178.3161 -46.248672 -179.92384 -15.787346 -35.713383
15540000000 -30.128635 75.375977 -45.265743 155.8233 -45.145893 153.2986 -16.312653 -41.227745
15550000000 -31.526018 75.750435 -45.510223 131.71777 -45.3937 128.79877 -16.909372 -47.939243
15560000000 -33.544861 61.756596 -45.805584 106.9874 -45.941429 105.0732 -17.573126 -56.040363
15570000000 -38.456741 80.644173 -46.277912 86.845673 -46.10527 84.98024 -18.052563 -65.158974
15580000000 -39.523972 78.284218 -45.634136 63.186497 -45.866859 60.030628 -18.337183 -74.642189
15590000000 -39.80563 101.64871 -46.453514 40.839207 -46.608852 38.894733 -18.504269 -83.866531
15600000000 -43.983868 72.403694 -45.998554 18.648912 -46.238197 16.513657 -18.7251 -92.325752
15610000000 -50.875099 139.70732 -46.499844 -2.4874141 -46.621655 -5.0707955 -18.939024 -100.59334
15620000000 -51.817062 -97.653008 -46.373833 -27.288862 -46.312485 -29.431797 -19.232357 -109.24211
15630000000 -39.346474 -141.57419 -47.02919 -46.138985 -47.145851 -47.414116 -19.615437 -118.26235
15640000000 -39.50042 -141.58798 -46.696838 -67.804192 -46.989834 -70.582863 -19.904236 -128.45589
15650000000 -35.679352 -154.08521 -46.413822 -86.60656 -46.633938 -88.929832 -19.936422 -140.38794
15660000000 -38.121033 -153.29292 -46.347565 -115.4257 -46.716789 -117.90913 -19.520388 -152.08391
15670000000 -36.142208 -145.01096 -47.14896 -136.75706 -47.366554 -137.69823 -18.800055 -162.08105
15680000000 -34.383381 -119.21069 -47.363564 -158.25665 -47.68853 -160.61784 -18.122078 -169.76498
15690000000 -30.074013 -127.56609 -47.668392 -178.61327 -47.807915 -179.9222 -17.69006 -175.95125
15700000000 -28.214651 -134.50821 -47.657391 160.15401 -47.832024 159.3085 -17.380556 178.37469
15710000000 -27.410122 -146.13028 -47.938889 139.46465 -48.135685 139.91566 -17.00411 172.25502
15720000000 -27.054075 -149.96352 -48.123741 118.68024 -48.198612 118.65033 -16.543303 165.77956
15730000000 -27.695906 -156.27919 -47.754787 97.428528 -47.771816 96.206436 -16.081289 160.27763
15740000000 -28.32378 -149.89034 -47.997284 71.496475 -48.163902 70.102097 -15.725782 155.50644
15750000000 -28.188013 -144.45148 -49.005184 49.562321 -49.071552 49.344818 -15.474156 150.89046
15760000000 -26.707058 -137.35898 -49.201618 29.834877 -49.553646 30.50741 -15.202945 145.5526
15770000000 -25.357498 -139.83981 -49.800255 12.38336 -50.344738 13.577115 -14.763274 139.92931
15780000000 -24.137007 -144.83421 -49.331181 -2.7965257 -49.144028 -1.7446558 -14.196081 135.06232
15790000000 -23.88611 -151.73695 -49.422993 -27.795166 -49.25069 -25.836166 -13.624235 131.85291
15800000000 -23.690519 -155.02473 -49.530102 -49.677452 -49.35527 -49.209698 -13.186602 129.87982
15810000000 -23.987467 -157.68652 -49.670586 -68.598137 -49.234287 -68.415314 -12.96032 128.14595
15820000000 -23.818804 -154.18321 -50.362103 -91.627792 -50.317051 -93.080414 -12.87098 125.7353
15830000000 -23.527023 -153.26033 -50.460804 -107.71529 -49.897861 -107.42154 -12.816286 122.40768
15840000000 -22.998327 -150.26352 -50.337212 -124.94067 -50.065651 -126.79503 -12.685165 118.64494
15850000000 -22.557724 -152.60416 -50.01722 -145.131 -49.436207 -147.37407 -12.469656 115.01528
15860000000 -22.240892 -151.50929 -49.770145 -168.29082 -49.625954 -172.25937 -12.210117 111.58247
15870000000 -22.017384 -154.46365 -50.179184 174.12816 -49.849586 171.85896 -11.989096 108.29937
15880000000 -21.94055 -153.06256 -49.84449 153.77034 -49.737492 149.52792 -11.77617 105.34644
15890000000 -21.695103 -154.57007 -49.676888 129.76802 -49.464058 129.30057 -11.516681 102.48889
15900000000 -21.399387 -155.23332 -49.469276 109.32728 -49.474453 104.67408 -11.257479 99.953171
15910000000 -21.094584 -156.86378 -49.668255 86.142387 -49.74221 85.251793 -11.027793 97.808571
15920000000 -20.781466 -158.10454 -50.284866 66.342056 -49.809586 65.172981 -10.869569 95.946678
15930000000 -20.798294 -159.52171 -50.034821 52.165546 -49.782642 46.386879 -10.785472 94.09938
15940000000 -20.791853 -156.99852 -49.471523 25.20487 -49.781631 19.955719 -10.735881 92.038895
15950000000 -20.331285 -155.64476 -49.743629 4.1597991 -49.506161 0.70758307 -10.714738 89.620621
15960000000 -20.045406 -154.15814 -50.000237 -18.615517 -50.112354 -23.12639 -10.673037 87.011505
15970000000 -19.370537 -153.34094 -50.18148 -34.773682 -50.477974 -37.180008 -10.617445 84.080589
15980000000 -19.12468 -154.2959 -49.777943 -58.491356 -50.129658 -61.453125 -10.548008 81.007813
15990000000 -18.716913 -155.15781 -49.583641 -77.194977 -50.140373 -78.991722 -10.450871 78.167007
16000000000 -18.760666 -157.771 -49.81918 -103.03516 -50.033104 -105.07443 -10.280051 75.711311
16010000000 -18.761368 -157.47435 -50.482136 -124.54408 -50.676056 -125.81299 -10.091706 73.63736
16020000000 -18.776295 -157.6936 -50.762135 -144.07927 -50.912659 -146.79938 -9.9928141 71.74807
16030000000 -18.552011 -155.52234 -50.249737 -160.82135 -50.620934 -162.41451 -10.012154 70.029373
16040000000 -18.056202 -154.19998 -50.390179 173.28094 -51.018654 173.68896 -10.092422 68.030807
16050000000 -17.422071 -154.98506 -50.983601 156.16737 -50.876114 153.54387 -10.155139 65.435867
16060000000 -16.952253 -155.76517 -50.953629 130.26157 -51.670673 128.51355 -10.188274 62.376976
16070000000 -16.465582 -156.7796 -51.583061 113.18092 -52.185062 115.8508 -10.184564 59.55637
16080000000 -16.223564 -158.96024 -51.410313 98.052261 -51.564083 102.66543 -10.183241 56.964619
16090000000 -16.145575 -159.56027 -50.961487 72.66713 -50.959629 76.577454 -10.251657 54.398937
16100000000 -16.153416 -159.49568 -50.706234 49.137188 -50.582455 53.257915 -10.340364 51.49332
16110000000 -16.044306 -158.53142 -51.63797 29.262047 -51.417473 30.460014 -10.386685 48.302082
16120000000 -15.614373 -156.96106 -51.956066 10.948002 -51.408955 11.442946 -10.359776 45.140484
16130000000 -15.129535 -158.17474 -52.60899 -10.917084 -52.816238 -11.412219 -10.305477 42.879189
16140000000 -14.770959 -158.46561 -54.028271 -18.628714 -52.978317 -16.013147 -10.29771 41.261082
16150000000 -14.308423 -161.43626 -51.68996 -36.109585 -51.234673 -37.05957 -10.470551 39.450497
16160000000 -14.124481 -162.54074 -51.901432 -56.010273 -50.858654 -59.117008 -10.818971 37.234543
16170000000 -13.798023 -164.55246 -51.072521 -81.849678 -50.430889 -84.367096 -11.201432 33.925156
16180000000 -13.695767 -164.59073 -51.579357 -101.04254 -51.109558 -109.54335 -11.495798 29.966301
16190000000 -13.388947 -165.20657 -52.01239 -123.98212 -52.344265 -125.85531 -11.674454 25.712162
16200000000 -13.196089 -164.8109 -52.110889 -136.73326 -51.469627 -137.32938 -11.849007 21.948421
16210000000 -12.845472 -165.96826 -51.197483 -152.49687 -50.880848 -158.80771 -12.134123 18.62224
16220000000 -12.697468 -165.63066 -50.080292 -175.9604 -50.171047 179.11855 -12.50386 15.445667
16230000000 -12.332357 -167.27307 -49.797581 161.28961 -50.085949 158.17834 -12.88341 11.923203
16240000000 -12.18265 -167.10529 -50.062809 139.66718 -49.941624 136.96606 -13.237498 8.3724012
16250000000 -11.797673 -169.5251 -49.865822 120.10938 -49.496441 116.21077 -13.566475 5.3775277
16260000000 -11.619107 -170.89098 -49.186016 97.141907 -49.554676 91.723305 -14.096536 3.070297
16270000000 -11.334366 -173.61191 -48.811119 75.938293 -49.287052 71.317276 -14.899024 1.0158032
16280000000 -11.276874 -175.20522 -49.15461 51.933651 -49.593452 50.598343 -15.899549 -1.7438431
16290000000 -11.121037 -176.48639 -49.391865 35.351906 -49.466713 33.828552 -16.977615 -6.7414699
16300000000 -11.074974 -176.33826 -48.859444 10.87595 -48.745121 9.3273897 -18.014507 -13.527391
16310000000 -10.748049 -176.4118 -48.682922 -8.8218184 -48.548965 -11.943126 -19.000452 -20.032656
16320000000 -10.464015 -176.03517 -48.091396 -32.527905 -48.271416 -36.338066 -20.117081 -25.526583
16330000000 -9.9642658 -177.31276 -48.568993 -58.134384 -48.987206 -59.92181 -21.510654 -30.707859
16340000000 -9.7524529 -179.18977 -48.217396 -76.517426 -48.648285 -77.480919 -23.380365 -37.768112
16350000000 -9.546402 178.24126 -48.860378 -100.11974 -48.932529 -100.87399 -25.678717 -46.105927
16360000000 -9.6209049 176.06487 -48.380856 -119.02444 -48.358856 -123.43693 -28.214418 -56.315338
16370000000 -9.6578999 174.77161 -48.047558 -141.36008 -48.357086 -146.18599 -32.590267 -75.075859
16380000000 -9.6912403 174.38165 -47.769138 -165.02667 -48.391609 -166.50803 -37.124569 -132.5087
16390000000 -9.4819822 174.51208 -48.09388 170.76996 -48.414356 169.35216 -31.300089 171.91661
16400000000 -9.1608257 174.25383 -48.490334 151.20541 -48.924084 150.11174 -26.665995 159.88461
16410000000 -8.7702589 172.76131 -48.354786 130.18555 -48.793896 129.95241 -23.978119 155.56392
16420000000 -8.4692841 171.20784 -48.237938 108.3596 -48.574955 106.60069 -22.456705 151.45555
16430000000 -8.2465649 168.8235 -48.153099 84.587967 -48.873703 85.80233 -21.213722 146.54773
16440000000 -8.2521553 167.41696 -48.86227 65.369728 -49.090092 67.620171 -19.984425 140.05914
16450000000 -8.2190914 166.32378 -48.163712 47.332066 -48.198109 47.589493 -18.793434 134.79395
16460000000 -8.2266598 166.2446 -47.859779 19.554235 -48.121143 19.600172 -17.830587 130.63452
16470000000 -8.0978003 166.00977 -48.58683 -3.4908035 -48.543427 -0.92901266 -17.105871 127.67294
16480000000 -7.9140625 165.4185 -48.621204 -25.224037 -48.922077 -23.208084 -16.423426 123.98164
16490000000 -7.7124267 164.06833 -49.347267 -44.001534 -49.224346 -40.70834 -15.717182 119.24456
16500000000 -7.5606375 162.93407 -48.879219 -59.314957 -48.506618 -60.236893 -14.939982 114.94379
16510000000 -7.362792 161.2025 -47.985867 -83.189774 -48.181938 -83.359383 -14.20772 112.53002
16520000000 -7.2363286 160.1545 -48.32473 -108.73575 -48.41515 -107.23392 -13.602929 111.37599
16530000000 -7.0351391 158.47971 -48.594151 -131.00601 -48.43689 -128.62778 -13.242664 110.01089
16540000000 -6.971076 157.65385 -49.063564 -151.46259 -48.765316 -150.5047 -13.062977 107.64903
16550000000 -6.8115201 156.66898 -48.671432 -170.78999 -48.097309 -171.21149 -12.891657 104.1528
16560000000 -6.7605281 156.07381 -48.737759 163.44502 -48.635094 162.86523 -12.626382 100.3586
16570000000 -6.6400166 155.45103 -49.373314 144.3054 -49.29121 143.42848 -12.255364 97.287758
16580000000 -6.5385609 155.31615 -49.292774 125.40316 -49.076302 124.47337 -11.88695 94.827179
16590000000 -6.3039303 154.52737 -49.133801 102.84473 -48.918575 103.34764 -11.637813 92.466537
16600000000 -6.1157427 153.41039 -49.05077 80.978897 -48.788673 77.762199 -11.477242 90.202896
16610000000 -5.9001474 151.55299 -49.212719 60.553623 -49.077171 58.290207 -11.238846 87.579224
16620000000 -5.8153453 149.71786 -49.575451 36.589237 -49.094219 36.783131 -10.927652 85.078529
16630000000 -5.7146039 148.1344 -49.660213 16.685715 -49.233677 14.248653 -10.57787 83.154411
16640000000 -5.6861882 147.1908 -49.674671 -7.2954531 -49.396553 -9.0957108 -10.375418 81.685928
16650000000 -5.534513 146.78322 -50.578018 -23.1031 -50.316147 -24.569138 -10.304064 80.737648
16660000000 -5.3773603 146.48349 -49.152298 -41.853474 -48.959251 -45.51577 -10.294255 79.101746
16670000000 -5.0798173 145.88287 -49.343937 -68.050491 -49.542686 -72.052567 -10.311592 76.312492
16680000000 -4.865665 144.63583 -49.770855 -87.789665 -49.530319 -90.50843 -10.232248 72.800728
16690000000 -4.6622138 143.09711 -49.767075 -111.76662 -49.618637 -115.62112 -10.113182 69.426788
16700000000 -4.594389 141.4986 -50.169064 -132.94699 -49.776573 -134.97905 -9.9327097 66.885345
16710000000 -4.4997458 140.21533 -50.152695 -151.47298 -49.817375 -156.51276 -9.7499876 64.982872
16720000000 -4.4543757 139.15088 -49.721382 -171.92921 -50.048908 -174.76038 -9.5852757 63.24342
16730000000 -4.2821898 138.20074 -50.096134 165.36452 -50.206993 163.54512 -9.4764957 61.387283
16740000000 -4.1319761 137.09055 -49.834717 142.91432 -49.76535 139.27898 -9.4087229 59.508671
16750000000 -3.9194984 135.80168 -50.127224 123.28254 -50.303196 117.30466 -9.3755865 57.784542
16760000000 -3.7565126 134.32484 -49.933182 104.05148 -50.435318 99.380127 -9.3344841 55.993683
16770000000 -3.5923073 132.76172 -49.491051 78.073952 -49.714977 74.866714 -9.3402891 53.859158
16780000000 -3.4897499 131.55641 -50.042305 50.240742 -50.253307 47.353294 -9.3677921 51.606876
16790000000 -3.3517137 130.37146 -50.957802 30.043137 -50.906109 27.338623 -9.3876114 48.818558
16800000000 -3.2328317 129.20961 -51.16555 10.792665 -51.450806 5.4878759 -9.3907232 45.744347
16810000000 -3.0827043 127.81772 -51.36998 -6.0439773 -52.014744 -7.4264631 -9.3568745 42.513733
16820000000 -2.9793484 126.29514 -51.066422 -28.174561 -51.439861 -28.427385 -9.3038321 39.455692
16830000000 -2.8590822 124.61507 -50.943394 -50.134571 -51.354698 -51.935108 -9.2031775 36.871994
16840000000 -2.7776146 123.16472 -50.579689 -75.338158 -51.29755 -75.111076 -9.0832901 34.583927
16850000000 -2.6468363 121.68394 -51.530003 -100.25968 -52.109097 -101.53504 -8.9830236 32.756157
16860000000 -2.5305688 120.32579 -51.96714 -118.30744 -52.771103 -117.63309 -8.9428701 31.216175
16870000000 -2.3722854 118.83625 -52.738167 -138.98001 -53.606956 -135.05376 -9.0026245 29.536772
16880000000 -2.2403638 117.38194 -53.223061 -151.75607 -53.146065 -145.52055 -9.1520052 27.616789
16890000000 -2.1128705 115.78523 -51.621925 -170.49313 -51.540596 -167.71332 -9.2913103 24.836527
16900000000 -2.0292215 114.41256 -51.383022 162.28146 -51.332008 164.27144 -9.4161386 21.39674
16910000000 -1.9484313 112.952 -51.718853 136.68367 -51.786007 138.56493 -9.4532366 17.595709
16920000000 -1.8886735 111.68336 -52.548759 112.89839 -52.639111 116.42639 -9.4310074 13.952708
16930000000 -1.7922609 110.28747 -53.240913 95.589607 -52.436172 97.239372 -9.384799 10.614038
16940000000 -1.7027435 108.80583 -52.662022 79.151215 -52.105316 78.636154 -9.3498478 7.5285711
16950000000 -1.5916874 107.06817 -52.538589 53.27916 -52.292526 55.101933 -9.3760328 4.5165744
16960000000 -1.5072984 105.31392 -53.302299 31.449347 -52.496944 32.759262 -9.4404926 1.6896459
16970000000 -1.4203421 103.5679 -53.383522 12.856068 -52.301388 11.67204 -9.5179472 -0.8483566
16980000000 -1.3513434 101.9473 -53.010487 -7.9260793 -52.476723 -11.517429 -9.6228418 -3.638412
16990000000 -1.2669389 100.41552 -52.83646 -32.069496 -52.440365 -34.250622 -9.7779083 -6.8902531
17000000000 -1.1885922 99.024193 -53.647892 -57.028194 -52.670017 -56.739227 -9.9691906 -10.680079
