!Keysight Technologies,P9374A,MY57211807,A.19.30.04
!Date: Friday, May 08, 2026 15:09:07
!Correction: S11(C  2-Port  ) 
!S21(C  2-Port  ) 
!S12(C  2-Port  ) 
!S22(C  2-Port  ) 
!S2P File: Measurements: S11, S21, S12, S22:
# Hz S  dB   R 50
13000000000 -19.156244 54.801353 -45.637001 96.328011 -44.793449 96.369469 -11.943283 -88.364853
13010000000 -19.670885 58.951965 -44.84108 74.243385 -44.135998 71.236893 -12.363505 -91.884834
13020000000 -19.602228 62.572578 -44.289272 48.375198 -43.803059 46.731125 -12.779099 -95.280022
13030000000 -19.323427 64.615746 -44.31929 24.217196 -43.84621 21.426619 -13.22544 -98.767189
13040000000 -19.359722 63.303238 -45.029205 0.79035115 -44.47327 -2.4909782 -13.725673 -102.47776
13050000000 -19.393284 62.866154 -45.33157 -17.734011 -44.73056 -23.16865 -14.276535 -106.68079
13060000000 -19.702225 61.25901 -44.733837 -35.847443 -44.794331 -40.941463 -14.8245 -112.18102
13070000000 -19.868816 61.754234 -44.567383 -58.662071 -44.573971 -61.360138 -15.339399 -118.2402
13080000000 -20.005568 61.849453 -44.278244 -81.065323 -44.332214 -85.336845 -15.71518 -123.6923
13090000000 -19.599812 62.325943 -44.311829 -104.04469 -44.369438 -109.41152 -16.069571 -128.86555
13100000000 -19.583881 60.262897 -44.455929 -125.42275 -44.789513 -129.33907 -16.533823 -134.02341
13110000000 -19.415359 60.327675 -44.343433 -144.65265 -44.673225 -148.68851 -17.106472 -140.00856
13120000000 -19.815063 58.988129 -43.691605 -168.67279 -44.151943 -172.08508 -17.658537 -147.48546
13130000000 -19.689095 61.235661 -43.96962 165.31207 -44.306461 163.33034 -17.993801 -155.88136
13140000000 -19.628298 63.993046 -43.948917 141.91527 -44.355564 139.30423 -18.200521 -164.1219
13150000000 -19.213552 62.666325 -44.731689 120.3191 -45.090656 118.46848 -18.398167 -171.58665
13160000000 -19.266741 63.176758 -44.991165 100.76048 -45.476009 98.352455 -18.628555 -179.73711
13170000000 -18.794022 59.355389 -44.745029 82.18631 -45.37859 82.399078 -18.846159 170.40344
13180000000 -19.409006 56.143753 -44.433113 58.474529 -44.997734 61.997704 -18.680244 159.36121
13190000000 -19.380388 56.002132 -43.916729 37.828323 -43.81908 40.308155 -18.130356 149.19992
13200000000 -19.788036 53.96962 -43.363895 12.172009 -43.269337 12.219981 -17.472275 141.15186
13210000000 -19.714083 56.653419 -43.628666 -17.532188 -43.622261 -17.119715 -16.927986 134.8475
13220000000 -19.352816 55.777111 -44.421478 -42.643482 -44.414413 -42.370388 -16.562588 128.57658
13230000000 -19.060434 54.4314 -45.579666 -62.672321 -45.682201 -61.123875 -16.204344 121.06744
13240000000 -19.078371 52.581062 -45.3409 -79.838463 -45.107361 -78.198524 -15.721245 113.21167
13250000000 -19.057707 50.243885 -45.404259 -100.45132 -45.405624 -99.902649 -14.984858 106.11507
13260000000 -19.49542 50.554379 -44.905815 -123.14211 -44.501896 -122.61568 -14.171363 100.4226
13270000000 -19.33753 49.701363 -45.120716 -148.03889 -44.74361 -149.98871 -13.514379 95.813377
13280000000 -19.473372 49.949245 -45.199684 -173.35458 -45.099136 -174.88736 -13.010865 91.830406
13290000000 -19.282095 47.864525 -45.863041 162.43568 -45.896713 162.12782 -12.584822 87.383675
13300000000 -19.337906 44.533718 -46.437576 143.65778 -46.143578 143.85785 -12.163804 82.096405
13310000000 -19.557333 40.695454 -47.084785 124.02251 -46.69585 123.9799 -11.67264 76.820786
13320000000 -19.999325 38.380077 -45.865578 102.2228 -45.523884 100.1517 -11.16444 72.293427
13330000000 -20.478125 38.919765 -46.44046 71.550163 -46.29166 70.690071 -10.660968 68.50843
13340000000 -20.32762 41.694141 -47.143642 50.593533 -47.023415 46.644699 -10.246343 64.878235
13350000000 -20.096846 41.254524 -47.637131 31.534342 -47.854179 28.042538 -9.9298611 60.963509
13360000000 -19.600786 40.923981 -47.831337 11.682629 -47.760029 12.052467 -9.6579151 56.413361
13370000000 -19.469175 35.571907 -47.462307 -11.273675 -47.408134 -12.346851 -9.315731 51.470814
13380000000 -19.668516 31.567257 -47.383739 -37.94096 -47.406456 -39.176399 -8.8986864 46.66436
13390000000 -20.537598 27.444847 -48.606728 -63.022079 -48.170761 -65.194748 -8.4687614 42.446548
13400000000 -21.15521 27.949614 -49.251179 -87.338043 -49.112396 -91.640305 -8.076745 39.071556
13410000000 -21.833254 27.022419 -50.361435 -108.63945 -50.818253 -112.49126 -7.7791147 35.786228
13420000000 -21.931141 32.851036 -50.414322 -121.26723 -50.614651 -122.3859 -7.6028666 32.051395
13430000000 -21.49626 29.461458 -51.222126 -143.84402 -50.868767 -145.47794 -7.4765549 27.929747
13440000000 -21.355751 27.660202 -50.25827 -167.96909 -50.217163 -170.62318 -7.3493123 23.578178
13450000000 -21.240273 23.66869 -51.53727 165.80135 -51.900768 159.03438 -7.1352754 19.165169
13460000000 -21.448732 20.558128 -50.96022 144.76094 -52.152058 143.50926 -6.9019575 15.051975
13470000000 -22.133696 17.293415 -54.039356 112.01984 -54.569347 113.99324 -6.7096734 11.238228
13480000000 -22.414242 19.110931 -54.991409 98.326721 -55.088318 94.780739 -6.5797377 7.4749813
13490000000 -22.999025 15.972237 -56.912197 93.873192 -58.72047 104.06085 -6.5282984 3.727411
13500000000 -23.103168 17.821062 -56.501942 76.590294 -55.436985 85.069321 -6.5186839 -0.022307521
13510000000 -23.710913 16.388664 -54.631741 62.532261 -54.483936 59.076855 -6.4873867 -3.7520871
13520000000 -24.127363 15.58768 -55.484177 33.487965 -56.616505 35.25462 -6.4763355 -7.4660873
13530000000 -24.735357 16.046452 -57.411953 15.569848 -57.515701 27.332672 -6.4876871 -11.107896
13540000000 -24.502174 16.668253 -57.594353 15.112931 -55.651516 18.756861 -6.5371432 -14.918358
13550000000 -24.501114 15.791878 -55.076199 -6.6035404 -53.68256 -10.377289 -6.6560206 -18.750639
13560000000 -23.963278 13.409376 -54.733086 -35.188084 -54.017017 -35.486767 -6.7827964 -22.578112
13570000000 -24.728743 8.645998 -55.45718 -64.639496 -54.724274 -61.370262 -6.8533244 -26.217438
13580000000 -24.940163 5.6847315 -56.44511 -78.770752 -54.626488 -81.604073 -6.9093518 -29.642
13590000000 -26.673244 3.6612558 -59.216858 -78.430962 -57.984497 -86.021431 -6.9581304 -32.925758
13600000000 -27.359735 10.297729 -54.656326 -92.570679 -53.345573 -104.40034 -7.0663729 -36.011566
13610000000 -28.173872 23.02858 -52.978142 -120.63612 -52.187416 -134.73021 -7.2391129 -38.791111
13620000000 -26.823891 25.502512 -52.205727 -163.66092 -52.624107 -177.15999 -7.4368057 -41.700615
13630000000 -26.597101 24.190605 -52.367893 177.77544 -53.270241 165.82529 -7.641624 -44.704796
13640000000 -25.889753 14.817911 -52.603939 138.54649 -53.710915 134.07721 -7.840919 -47.947727
13650000000 -27.092049 7.9513445 -54.124981 115.4092 -54.425949 110.28005 -8.0243244 -51.166595
13660000000 -27.615984 4.2418847 -56.320915 95.643555 -56.63377 79.942345 -8.1753197 -54.245987
13670000000 -29.846838 2.2186215 -54.805923 80.151344 -56.955296 72.077873 -8.3527098 -57.040894
13680000000 -30.451941 18.369287 -54.999977 50.900669 -57.465706 39.135075 -8.5124979 -59.458267
13690000000 -29.340837 25.996195 -55.678051 28.290802 -58.815228 32.44455 -8.674139 -61.929047
13700000000 -28.234703 30.349796 -54.89431 5.9025064 -56.792633 13.179374 -8.8874855 -64.581337
13710000000 -26.665085 29.445892 -54.569561 -38.591492 -55.620518 -34.094208 -9.1174278 -67.329346
13720000000 -26.701113 17.874933 -58.122303 -71.500252 -60.965904 -79.727333 -9.3251152 -70.021103
13730000000 -28.082479 18.468447 -59.365246 -109.05559 -63.612011 -111.51711 -9.518569 -72.584831
13740000000 -28.007271 16.984846 -63.111435 -101.61567 -65.738266 -82.620903 -9.720048 -74.982681
13750000000 -29.996023 15.816427 -62.191017 -147.6537 -67.466782 -126.66003 -9.9578705 -77.363571
13760000000 -29.600891 23.032297 -67.870354 -170.66422 -68.022652 -120.73113 -10.261915 -79.892563
13770000000 -30.043724 20.990009 -63.82003 161.60979 -68.252586 -146.25441 -10.547322 -82.933594
13780000000 -29.435144 25.250526 -65.753815 124.18306 -68.807167 175.04485 -10.788565 -86.463768
13790000000 -28.373243 21.867744 -66.934555 90.18399 -66.648048 155.7464 -10.942877 -89.960419
13800000000 -28.45648 19.074539 -69.97258 13.025558 -77.389801 153.20645 -11.042874 -92.664307
13810000000 -27.152777 18.681988 -72.593781 -11.397302 -72.224045 116.51801 -11.148008 -94.653885
13820000000 -26.950367 6.0271006 -67.980614 -42.117523 -71.050072 -11.038992 -11.365098 -96.495605
13830000000 -27.462147 8.410964 -66.576675 -52.367054 -69.807526 -49.205124 -11.645352 -98.580826
13840000000 -27.142591 -3.5944409 -61.984692 -101.96614 -65.3657 -105.57512 -11.983718 -101.53216
13850000000 -29.669071 -2.8658624 -59.713207 -141.1955 -63.116158 -148.36884 -12.266448 -104.80788
13860000000 -29.725079 0.73888022 -60.744553 161.35335 -69.523499 129.11501 -12.456538 -108.20685
13870000000 -30.173956 7.4219456 -63.178642 123.86192 -72.220016 157.69678 -12.63312 -111.33767
13880000000 -29.359894 9.4729042 -70.042671 138.7384 -70.13604 -131.55278 -12.85175 -114.35297
13890000000 -27.615398 7.6098065 -66.020973 141.26836 -63.435429 178.13182 -13.117654 -117.52953
13900000000 -27.05451 -8.3705673 -61.018269 141.18468 -59.520325 155.17293 -13.381253 -121.13857
13910000000 -27.024372 -10.800652 -57.32114 88.491837 -56.614567 102.09732 -13.548621 -125.12374
13920000000 -26.83478 -26.627436 -60.280491 36.534279 -60.059845 58.676235 -13.644615 -128.96707
13930000000 -29.016483 -35.201969 -63.565998 29.175795 -60.759285 51.249611 -13.728019 -132.01517
13940000000 -30.390947 -32.907539 -61.035488 18.512423 -58.425793 25.912233 -13.893074 -134.81491
13950000000 -31.63163 -31.23913 -64.533913 1.9358639 -61.120441 3.3354084 -14.180522 -137.75417
13960000000 -32.111267 -25.617783 -62.703568 -14.046111 -58.640266 -10.999437 -14.523839 -141.5266
13970000000 -30.545221 -24.830397 -61.25634 2.919095 -57.112518 -16.293737 -14.83904 -146.5304
13980000000 -30.045174 -35.546528 -57.38118 -29.822016 -55.145828 -50.282379 -15.043741 -152.09956
13990000000 -28.601185 -44.172569 -56.480171 -65.619514 -55.569023 -81.920105 -15.088078 -157.59998
14000000000 -28.474905 -59.846207 -56.582458 -99.716888 -56.024925 -110.66653 -15.026147 -162.87015
14010000000 -28.200714 -65.378311 -57.080143 -108.84878 -55.86636 -121.8511 -14.943565 -167.90115
14020000000 -28.08687 -72.924171 -57.150387 -126.5752 -56.887138 -141.85258 -14.916842 -172.65184
14030000000 -28.76689 -80.999573 -54.264725 -144.5191 -55.191437 -159.21364 -14.907548 -176.97159
14040000000 -29.997179 -84.034851 -53.470566 -167.86319 -54.356007 -177.0775 -14.846744 178.507
14050000000 -30.262684 -79.729248 -53.299473 157.5294 -54.196842 148.76888 -14.785476 173.67184
14060000000 -31.516239 -83.787361 -53.800426 142.33549 -55.324532 131.13965 -14.721946 168.79987
14070000000 -31.692371 -77.594238 -53.580959 125.11873 -55.948139 118.85825 -14.619202 164.04846
14080000000 -31.600952 -85.889305 -52.635345 107.48236 -54.526741 106.14427 -14.504845 159.28098
14090000000 -30.493919 -82.395912 -50.822186 82.172318 -52.495049 83.860222 -14.422219 154.64955
14100000000 -28.386448 -102.33122 -50.442406 55.448601 -51.317711 59.587433 -14.293043 149.78259
14110000000 -28.572851 -113.35151 -50.569771 29.776039 -51.115952 33.313454 -14.166664 144.51431
14120000000 -27.924694 -125.98325 -50.586197 6.7405467 -51.443596 10.647586 -13.938984 139.32031
14130000000 -28.114328 -136.35107 -50.232483 -12.595008 -50.993565 -5.2057543 -13.608075 134.14082
14140000000 -29.001774 -143.97375 -49.714191 -33.369385 -50.604084 -24.06127 -13.291542 129.58739
14150000000 -30.355661 -139.50301 -49.266232 -59.085926 -48.960342 -47.40086 -13.054318 125.55011
14160000000 -30.118389 -137.13246 -49.904308 -78.919304 -48.533485 -71.046814 -12.850497 121.43523
14170000000 -30.645256 -128.87411 -49.081806 -95.51194 -47.963116 -94.635902 -12.650261 116.85832
14180000000 -28.84712 -133.04779 -48.160965 -118.71931 -47.406551 -117.46083 -12.369304 111.84073
14190000000 -27.991766 -138.94366 -48.254581 -143.42406 -47.380268 -140.6781 -12.020548 106.98061
14200000000 -27.170721 -148.94704 -47.764706 -166.61467 -46.587803 -165.15521 -11.64502 102.6632
14210000000 -27.233044 -158.14059 -47.826721 174.22206 -46.512627 171.98064 -11.319506 98.893951
14220000000 -27.346579 -164.23387 -47.322647 151.91634 -46.269375 147.49968 -11.046473 95.333168
14230000000 -27.583591 -170.35272 -46.938507 129.45546 -46.201527 123.77515 -10.818563 91.433266
14240000000 -28.049612 -170.603 -46.560143 107.73785 -45.765862 101.52443 -10.575726 87.205727
14250000000 -28.134148 -168.11952 -45.808033 86.6465 -45.489414 79.974457 -10.319841 82.942879
14260000000 -28.626345 -169.23526 -45.643074 63.670197 -45.249454 56.242332 -10.048219 78.82766
14270000000 -28.063293 -164.11034 -44.910545 40.642727 -44.963745 32.450184 -9.8090525 74.89286
14280000000 -27.981441 -169.10756 -44.448845 14.974162 -44.794224 7.9733419 -9.6104574 70.990715
14290000000 -27.381042 -167.18431 -44.437553 -10.208756 -44.835358 -15.850528 -9.416111 66.797287
14300000000 -27.24876 -174.72044 -44.769119 -30.812271 -44.995747 -36.397381 -9.2154865 62.238632
14310000000 -27.063734 -177.98933 -44.397823 -50.33585 -44.714436 -57.733532 -8.9965954 57.66468
14320000000 -27.268129 173.14037 -43.725826 -75.26046 -44.479141 -81.953583 -8.7586842 53.407524
14330000000 -27.270952 172.10529 -43.562454 -99.131996 -44.672623 -103.21001 -8.5337524 49.400097
14340000000 -28.44297 166.10672 -43.279106 -122.13303 -44.230915 -123.23063 -8.3694849 45.483284
14350000000 -28.712521 175.77299 -42.938843 -144.1851 -43.719849 -145.13541 -8.2631512 41.579159
14360000000 -29.04701 177.29514 -42.658268 -170.64992 -43.455666 -170.68198 -8.1909428 37.456459
14370000000 -27.77636 -175.56068 -42.708336 163.12299 -43.556129 163.61423 -8.1395712 32.848286
14380000000 -27.443937 177.40363 -43.138962 139.4646 -43.850132 142.08095 -8.0896959 28.082945
14390000000 -27.017139 178.77821 -43.261356 121.18869 -43.812862 125.09713 -8.0366755 23.280489
14400000000 -26.956331 168.42848 -42.693855 99.624733 -43.013607 103.85237 -7.9681153 18.685974
14410000000 -27.946861 165.32401 -42.076706 76.152252 -42.358173 79.531265 -7.9064283 14.203576
14420000000 -28.671524 163.98154 -42.261398 51.331974 -42.507103 55.872715 -7.8897548 9.891778
14430000000 -29.096123 167.97388 -41.918816 26.521357 -41.94302 31.353359 -7.9384022 5.5287519
14440000000 -29.265018 172.92815 -42.412727 1.2532649 -42.207619 6.9577847 -8.0311937 1.115188
14450000000 -27.621212 179.33643 -42.421589 -18.771374 -41.861877 -13.443224 -8.1590595 -3.4939337
14460000000 -27.265371 175.48032 -42.285839 -41.485966 -41.47538 -38.063816 -8.2913618 -8.1347799
14470000000 -26.668636 175.51625 -42.20805 -64.32798 -41.378704 -63.029259 -8.4447298 -12.797411
14480000000 -26.790323 174.6217 -42.42358 -88.914627 -41.700024 -88.13768 -8.651782 -17.482317
14490000000 -26.712494 171.74915 -42.247219 -108.35184 -41.507477 -107.58656 -8.9142084 -22.412138
14500000000 -27.293102 174.34892 -42.329807 -132.10732 -41.324158 -130.98984 -9.2195683 -27.741421
14510000000 -27.205721 173.4283 -42.016468 -153.07864 -40.781391 -154.35318 -9.4864359 -33.139019
14520000000 -27.785345 -179.7077 -41.745911 -178.40971 -40.616653 177.92952 -9.701273 -38.540577
14530000000 -26.989073 176.5743 -41.890308 158.71712 -40.917908 153.5537 -9.9042721 -43.358658
14540000000 -26.896431 -176.44548 -41.748833 135.41217 -41.019054 130.30295 -10.200169 -47.805389
14550000000 -25.54833 178.28807 -41.738312 112.1954 -41.038361 106.81886 -10.626306 -51.944298
14560000000 -25.330893 -179.48235 -41.914951 89.545975 -41.195095 82.157661 -11.124507 -56.670815
14570000000 -24.346687 173.49928 -41.728901 67.879845 -41.380016 59.204369 -11.669286 -62.272808
14580000000 -24.471407 172.2377 -41.557053 45.079178 -41.39061 36.391621 -12.177984 -68.623093
14590000000 -24.607262 167.53519 -41.346134 21.988556 -41.389984 13.350158 -12.669465 -74.705826
14600000000 -25.092478 174.24432 -41.127888 -2.133009 -41.245537 -9.83008 -13.12349 -80.604492
14610000000 -24.951591 172.97427 -41.134666 -28.002636 -41.456245 -37.2519 -13.657774 -86.6147
14620000000 -24.523542 -177.95296 -41.198601 -52.866451 -41.898415 -60.99411 -14.227783 -93.577751
14630000000 -23.359697 178.27643 -41.623238 -75.00222 -42.503479 -82.341446 -14.837029 -101.09876
14640000000 -22.688105 176.41684 -41.582359 -98.315765 -42.704002 -104.05658 -15.262358 -108.37427
14650000000 -22.130417 169.63428 -41.370495 -121.94889 -42.62355 -126.26134 -15.631303 -115.49603
14660000000 -22.097267 165.01653 -41.669666 -147.56107 -42.916107 -149.23674 -16.050434 -122.22819
14670000000 -22.696468 160.42137 -41.857792 -168.44951 -42.956184 -169.4827 -16.654716 -129.51306
14680000000 -22.844532 161.99622 -41.655842 166.82262 -42.758888 166.16461 -17.356859 -138.09659
14690000000 -23.284628 164.93163 -41.596668 141.60712 -42.680565 142.04155 -17.895298 -148.17506
14700000000 -22.144892 169.55508 -42.14962 115.34377 -43.512001 118.28205 -18.146553 -159.33711
14710000000 -21.64451 167.61765 -43.140369 90.608078 -44.349995 98.510094 -18.054537 -170.62387
14720000000 -20.981737 165.30777 -43.364971 74.67421 -43.656124 83.404381 -17.872301 178.95819
14730000000 -20.704746 159.86574 -43.281181 50.966793 -43.433334 56.23521 -17.617821 170.21475
14740000000 -20.583029 153.90509 -42.959831 28.968994 -43.352406 34.914791 -17.268307 162.53955
14750000000 -21.233814 150.30338 -43.353863 1.5745698 -43.336754 10.187325 -17.005747 155.35243
14760000000 -21.287214 150.40364 -43.542538 -20.195114 -43.139156 -12.681905 -16.838167 148.36592
14770000000 -21.600525 149.19173 -44.180847 -43.795643 -43.590096 -37.541985 -16.703671 141.20056
14780000000 -21.169107 150.47818 -44.165184 -62.46447 -43.305748 -57.314175 -16.466646 133.50829
14790000000 -21.005934 150.1134 -44.238678 -88.409096 -43.455818 -83.840836 -16.079569 126.0862
14800000000 -20.222471 149.55231 -44.669525 -108.53738 -43.551994 -105.36485 -15.62842 119.81567
14810000000 -20.201836 146.46315 -45.041019 -131.2753 -43.762974 -128.30324 -15.15814 114.18714
14820000000 -19.787951 145.16197 -45.046516 -147.97969 -43.544014 -148.68922 -14.800237 109.24184
14830000000 -19.973461 140.35579 -44.38942 -171.2563 -43.382515 -174.85292 -14.465256 104.51254
14840000000 -20.11302 137.23741 -44.143776 162.77481 -43.129879 159.97874 -14.155444 99.679253
14850000000 -20.75341 134.85872 -44.190269 138.92131 -43.142582 134.25179 -13.844653 95.558487
14860000000 -20.958467 134.72131 -44.528969 112.69596 -43.642422 108.65419 -13.567843 91.847908
14870000000 -21.474136 133.24583 -44.739861 89.43557 -44.088505 84.89563 -13.424362 88.495758
14880000000 -21.275551 134.01692 -45.295444 68.395729 -44.140236 62.72839 -13.401027 84.859703
14890000000 -21.105494 134.20485 -44.932686 49.63987 -44.311203 39.424526 -13.371645 80.320946
14900000000 -20.223341 131.89778 -44.694252 24.006113 -44.471951 15.681438 -13.259871 75.155182
14910000000 -20.08861 126.85347 -44.246994 0.1166379 -44.16898 -6.8096113 -12.9943 70.488556
14920000000 -20.138803 121.9853 -44.320671 -28.978703 -44.528088 -35.249359 -12.676403 66.750862
14930000000 -20.658823 119.97549 -44.733032 -54.398743 -44.793571 -59.766609 -12.466156 64.237984
14940000000 -21.002422 117.01703 -45.20713 -76.864021 -45.094524 -83.629547 -12.434827 62.001289
14950000000 -22.052664 120.29772 -45.231945 -97.796661 -45.459187 -106.07216 -12.53318 59.601044
14960000000 -22.101332 122.79511 -44.736988 -123.94858 -45.335613 -130.32713 -12.662395 56.680805
14970000000 -21.96917 126.92825 -45.098808 -153.05379 -45.733536 -158.81831 -12.710048 53.522186
14980000000 -21.701717 121.96555 -45.883457 -174.36577 -46.464676 -178.78413 -12.767362 50.209698
14990000000 -21.663733 121.98584 -45.815376 165.31169 -46.509777 160.78574 -12.951027 47.477043
15000000000 -21.590918 114.34928 -44.767696 144.35149 -45.440479 140.6915 -13.227612 44.973289
15010000000 -22.421919 111.07413 -43.953674 111.45188 -44.883785 109.01759 -13.532989 42.155048
15020000000 -23.246876 108.55029 -44.173477 78.210304 -44.878796 79.647926 -13.67042 38.603779
15030000000 -23.627144 113.68065 -45.490196 47.966915 -45.807323 46.81979 -13.697318 35.125385
15040000000 -23.808371 112.64194 -46.881313 25.802238 -47.234516 22.958471 -13.676735 32.787697
15050000000 -23.836388 118.91611 -47.138096 9.3268032 -48.122223 4.3951721 -13.774327 32.23246
15060000000 -23.425381 118.69424 -46.343838 -12.211269 -47.906414 -11.734242 -14.091113 32.622536
15070000000 -23.306341 119.00624 -46.066242 -38.917652 -46.996708 -34.138187 -14.601585 33.256729
15080000000 -23.659702 117.15453 -45.890034 -67.461746 -45.829544 -62.864891 -15.126794 33.120457
15090000000 -23.704727 118.53616 -45.883892 -93.859863 -45.882893 -95.238258 -15.685064 31.577833
15100000000 -24.241636 116.09007 -45.893982 -123.80255 -46.48711 -126.24603 -16.147322 30.317974
15110000000 -24.753237 118.23647 -46.13504 -152.27287 -46.918644 -151.68227 -16.550716 29.699484
15120000000 -25.234829 120.2487 -46.819218 -178.58884 -47.727192 -174.01158 -16.858732 30.805574
15130000000 -25.041761 120.9236 -47.121773 154.24626 -47.330925 160.38643 -17.070372 32.126377
15140000000 -25.370338 123.9305 -48.540829 130.36606 -48.279705 136.80057 -17.209959 33.082298
15150000000 -24.585371 127.50554 -47.999649 113.48941 -47.913715 116.25198 -17.258118 34.463707
15160000000 -24.210676 127.44933 -47.323818 87.699615 -47.384144 88.799309 -17.174593 36.997143
15170000000 -23.567093 126.21304 -47.576611 58.216702 -47.413254 62.275883 -17.001556 40.328129
15180000000 -23.572277 123.77258 -47.403576 37.575584 -47.048428 38.917519 -16.818377 44.308964
15190000000 -23.364985 123.09919 -47.396465 7.1817126 -46.775444 10.0846 -16.708838 47.927361
15200000000 -23.910091 122.41922 -47.179398 -13.585775 -46.689556 -15.96512 -16.617226 50.397583
15210000000 -23.988188 123.64542 -46.577633 -46.078754 -46.288921 -47.999126 -16.589905 51.379997
15220000000 -24.464682 128.13969 -47.669098 -77.529594 -47.622509 -77.634377 -16.517822 51.70015
15230000000 -23.725332 129.56944 -49.329121 -101.95525 -49.005451 -101.58633 -16.273699 51.317036
15240000000 -23.549637 130.73045 -49.577198 -109.67265 -48.890888 -111.22955 -15.888328 50.948833
15250000000 -22.783577 127.70099 -48.197975 -131.12289 -47.54052 -134.10832 -15.43292 49.789547
15260000000 -22.698713 124.61773 -46.759621 -161.03297 -46.485809 -163.63353 -14.954845 48.672321
15270000000 -22.482613 121.1644 -46.583488 166.07834 -46.417797 163.72176 -14.476817 47.404804
15280000000 -22.534094 116.68497 -47.366306 137.21796 -47.163509 134.98035 -14.039419 47.0807
15290000000 -22.920122 114.98685 -48.362507 111.7461 -48.370247 109.55846 -13.666644 47.126484
15300000000 -23.125677 114.20487 -48.928043 94.358986 -49.086479 89.182663 -13.366297 47.221645
15310000000 -23.616409 115.53976 -48.395531 75.25901 -48.826042 74.230286 -13.211088 45.925014
15320000000 -23.352142 119.16796 -48.414543 48.176117 -48.622089 50.679836 -13.212542 44.087547
15330000000 -22.890297 119.55857 -47.595051 26.786135 -47.226345 26.20027 -13.153924 41.486385
15340000000 -22.509256 116.06821 -47.610233 1.1791686 -47.608269 -1.0819335 -13.055928 38.620739
15350000000 -22.411894 115.39527 -47.147266 -26.76095 -47.312176 -28.615805 -12.854987 35.955013
15360000000 -22.135317 108.1286 -48.396751 -52.161617 -48.471485 -53.708961 -12.669891 33.428181
15370000000 -22.971001 103.98972 -48.454834 -72.393723 -48.748058 -71.396477 -12.510956 30.729811
15380000000 -23.205221 99.003723 -47.835854 -90.625229 -47.966648 -90.237953 -12.377834 27.560097
15390000000 -24.566236 99.297577 -47.451084 -121.53605 -47.291187 -118.40841 -12.231974 24.510736
15400000000 -24.707048 101.10893 -47.759708 -144.57977 -47.28233 -143.87653 -12.07103 22.104477
15410000000 -24.979723 104.57795 -48.483574 -169.04396 -48.064846 -171.13118 -11.963421 20.39883
15420000000 -24.569302 104.14981 -48.608437 172.86058 -48.660862 173.69965 -11.981961 19.010487
15430000000 -24.093117 102.77185 -47.928093 150.6138 -47.450672 151.63382 -12.159429 16.808128
15440000000 -24.014732 95.872322 -47.451649 127.71008 -46.925556 127.28243 -12.494564 13.17636
15450000000 -24.687174 92.753334 -47.218964 99.161346 -46.747711 100.55002 -12.810161 8.416975
15460000000 -25.067638 85.68544 -47.653969 74.353531 -46.834129 72.527229 -12.947456 3.2484467
15470000000 -26.62175 84.823944 -47.791969 49.8666 -47.250126 46.27597 -12.928788 -1.5709187
15480000000 -27.251245 81.865784 -47.994839 24.703766 -47.745323 21.593464 -12.914114 -5.2152748
15490000000 -28.842419 86.988487 -49.365734 8.3520756 -48.475441 6.499032 -13.00367 -8.2431736
15500000000 -28.53318 87.137283 -48.614906 -13.007932 -47.664719 -17.74552 -13.232947 -11.217153
15510000000 -29.330502 88.42997 -47.64291 -31.881701 -47.469059 -39.285564 -13.547688 -14.379818
15520000000 -29.457035 87.830444 -47.037724 -58.948433 -47.230965 -64.160263 -13.933717 -18.013641
15530000000 -29.067694 87.241341 -47.668488 -88.091789 -47.460491 -91.711823 -14.410927 -21.705576
15540000000 -30.023523 74.035439 -48.377548 -107.97246 -47.999741 -110.66788 -15.035123 -25.762384
15550000000 -31.456316 76.926773 -47.785423 -124.26575 -47.415607 -132.68886 -15.807436 -30.561958
15560000000 -33.016598 63.20224 -46.698364 -152.24596 -46.909317 -161.03905 -16.551712 -36.389713
15570000000 -37.173496 64.161057 -47.051262 176.35728 -47.664764 168.64737 -17.269258 -43.853107
15580000000 -42.556087 51.710346 -48.079975 151.95978 -48.719666 146.37029 -17.848366 -52.045784
15590000000 -42.777061 128.76331 -48.123325 130.18065 -48.92067 127.25105 -18.33889 -60.046658
15600000000 -44.874714 123.33723 -48.089516 108.92723 -48.536404 104.34737 -18.80946 -67.151634
15610000000 -42.267551 148.01555 -48.092075 86.245438 -48.706219 79.863327 -19.348679 -73.971657
15620000000 -46.055115 147.37332 -48.146114 63.34174 -49.819839 59.484577 -20.162401 -80.529465
15630000000 -46.196198 160.46581 -47.518105 37.572258 -48.914688 36.597919 -21.206545 -86.665794
15640000000 -44.182983 -84.421593 -48.143806 11.958205 -49.127823 14.339072 -22.366934 -95.886871
15650000000 -36.810921 -125.89603 -47.710003 -12.009434 -48.45155 -11.982796 -23.611893 -110.36156
15660000000 -35.033817 -125.42536 -47.931595 -42.891674 -49.377468 -43.115479 -24.044176 -129.95354
15670000000 -32.735451 -140.13409 -49.365902 -70.080223 -50.265282 -64.773338 -23.469536 -147.98425
15680000000 -31.373875 -136.34666 -50.236229 -92.717369 -51.459255 -88.185959 -22.360233 -159.9279
15690000000 -30.314812 -146.60767 -50.729424 -111.85994 -51.640076 -104.10986 -21.519165 -168.90866
15700000000 -29.76943 -144.09331 -50.620152 -134.75543 -51.45084 -124.69639 -20.916763 -176.64165
15710000000 -29.411667 -146.28775 -51.605736 -161.41312 -51.632191 -151.39107 -20.367437 175.00327
15720000000 -28.080145 -143.40611 -51.186394 -178.24658 -51.323532 -171.6385 -19.847618 167.22768
15730000000 -28.212759 -146.77753 -50.974983 153.69377 -51.6903 161.47218 -19.249233 161.15846
15740000000 -27.282501 -140.85123 -51.383457 122.02811 -51.266548 138.08247 -18.714226 155.71609
15750000000 -26.709272 -143.52798 -53.276058 90.652328 -51.936047 107.84264 -18.293726 149.98898
15760000000 -25.790442 -143.72588 -55.005875 66.574768 -53.003002 76.40374 -17.832455 143.26053
15770000000 -25.381426 -146.399 -58.21909 45.299713 -57.326389 52.169418 -17.164791 136.48706
15780000000 -24.615124 -148.69287 -59.572575 38.378471 -56.813747 49.79232 -16.307531 131.57445
15790000000 -24.435223 -152.58617 -60.754566 32.883965 -56.68401 34.529423 -15.452826 128.72771
15800000000 -24.323948 -154.58659 -58.78014 24.553562 -55.869095 13.352603 -14.799532 127.25079
15810000000 -24.339325 -153.35262 -57.845932 -27.069557 -55.648163 -28.325974 -14.476046 126.1841
15820000000 -23.614054 -151.24393 -61.650688 -53.276848 -56.515186 -49.532104 -14.318162 124.63419
15830000000 -23.209126 -151.24794 -63.038498 -56.981544 -57.727528 -76.874733 -14.201104 121.87876
15840000000 -22.688969 -150.21248 -66.64753 -66.606873 -61.616951 -112.6484 -14.050478 118.25385
15850000000 -22.166338 -152.77306 -65.251587 -70.548454 -65.069756 -120.93613 -13.822783 114.62637
15860000000 -22.035181 -155.12762 -63.011547 -68.783226 -65.555916 -106.91628 -13.53308 111.01804
15870000000 -22.178991 -156.34996 -60.809872 -93.257278 -63.765278 -117.09458 -13.243158 107.81433
15880000000 -22.280323 -154.58458 -59.752079 -119.09408 -62.901711 -132.09111 -12.903774 104.80044
15890000000 -22.005594 -153.91573 -60.116753 -153.09398 -60.715061 -163.47609 -12.539492 101.87668
15900000000 -21.686787 -154.14801 -57.933792 -170.47887 -59.804661 163.1712 -12.189742 99.607704
15910000000 -21.143768 -153.87422 -58.307007 145.11978 -61.336071 113.52264 -11.8697 98.028458
15920000000 -20.57021 -156.83939 -61.62989 113.46542 -67.401344 76.591133 -11.600625 96.896858
15930000000 -20.549498 -158.27266 -66.065536 82.457245 -76.206467 53.265301 -11.415434 95.530396
15940000000 -20.456387 -157.8094 -73.176056 83.758789 -78.128906 -151.24333 -11.34654 93.903557
15950000000 -20.173389 -156.94899 -66.779526 114.13854 -66.616783 144.27681 -11.342917 91.940376
15960000000 -20.032 -156.50351 -61.29129 90.230324 -62.691669 103.93887 -11.336451 89.632835
15970000000 -19.630632 -154.71445 -59.553326 31.944584 -62.11594 32.206413 -11.321157 86.951012
15980000000 -19.401932 -154.53629 -61.964268 -33.795006 -66.392685 -42.967342 -11.228359 83.869499
15990000000 -18.988386 -154.15388 -65.353073 -77.203575 -72.833954 -138.01537 -11.042445 80.844612
16000000000 -18.935804 -155.71471 -71.633423 -146.72853 -67.950562 107.74007 -10.78383 78.31147
16010000000 -18.679829 -154.79527 -65.432381 100.45995 -61.889271 74.540619 -10.507255 76.323059
16020000000 -18.343243 -156.16277 -60.94051 18.078419 -58.945656 8.7840242 -10.342644 74.916069
16030000000 -18.037817 -156.01936 -62.471828 -33.680069 -59.089432 -30.13497 -10.26805 73.726974
16040000000 -17.820154 -157.56094 -64.887451 -87.288185 -62.107304 -76.022072 -10.303261 72.394371
16050000000 -17.572073 -157.89905 -74.424454 -151.25023 -68.269196 -122.80948 -10.319465 70.421501
16060000000 -17.376032 -157.58839 -66.047333 7.0330515 -66.569183 -25.000578 -10.359878 67.724113
16070000000 -16.999235 -156.18475 -63.311214 -56.178192 -60.162209 -74.905975 -10.401191 65.020294
16080000000 -16.545687 -155.48802 -62.477768 -92.484428 -59.471451 -120.95462 -10.440825 62.634148
16090000000 -15.933847 -155.72717 -61.065533 -122.88975 -59.912594 -158.85681 -10.499023 60.044727
16100000000 -15.641994 -158.30206 -64.82122 -141.84474 -68.64798 -171.9359 -10.55321 57.050587
16110000000 -15.538019 -159.58479 -61.143147 -154.36888 -62.215832 -163.95695 -10.522439 53.673012
16120000000 -15.412604 -160.48914 -61.969967 -175.38258 -61.050983 171.97169 -10.434447 50.333271
16130000000 -15.360473 -161.04018 -58.506355 160.05647 -59.128563 141.38914 -10.305397 48.221992
16140000000 -15.259625 -159.62012 -58.155075 122.35265 -59.624641 110.69735 -10.243031 47.018589
16150000000 -14.726198 -159.23351 -61.142807 80.181496 -59.808041 65.415222 -10.324783 46.173809
16160000000 -14.160179 -160.10695 -62.831566 96.730286 -65.817589 60.161644 -10.573932 44.763531
16170000000 -13.598212 -162.44635 -61.496361 74.620987 -67.30407 77.619804 -10.938733 42.196018
16180000000 -13.370052 -164.28246 -59.168064 61.827602 -61.067204 72.243965 -11.301655 38.2621
16190000000 -13.127772 -166.47427 -57.458572 28.961628 -59.939751 30.08695 -11.580148 33.819843
16200000000 -13.242121 -166.84808 -56.024349 1.7881304 -58.620853 9.3835154 -11.824504 29.715473
16210000000 -13.022533 -166.41435 -56.936489 -30.740936 -57.564617 -16.618029 -12.099044 26.083939
16220000000 -12.833083 -165.53284 -58.255547 -73.177589 -58.477329 -68.400635 -12.379415 22.839314
16230000000 -12.369265 -166.50789 -62.50436 -74.600456 -63.155926 -78.373734 -12.626729 19.393139
16240000000 -12.184902 -166.98085 -60.860069 -71.308334 -62.527561 -70.861038 -12.83299 16.063087
16250000000 -11.793838 -169.14339 -60.080765 -104.54646 -61.091068 -70.980927 -13.082896 13.496663
16260000000 -11.597064 -171.15326 -58.47646 -112.31316 -56.684746 -105.89524 -13.527557 12.024976
16270000000 -11.3867 -173.17662 -58.087177 -147.1647 -57.649998 -144.52109 -14.229227 10.733349
16280000000 -11.258122 -174.70084 -58.039093 -153.80058 -57.551716 -155.62599 -15.264075 9.0471678
16290000000 -11.025362 -175.81912 -57.425785 -179.39749 -56.979393 -175.7851 -16.493265 5.0885706
16300000000 -10.91211 -176.90413 -56.278408 147.70178 -56.270977 149.3488 -17.740696 -0.40983033
16310000000 -10.705003 -177.3293 -57.542183 124.27821 -57.437588 136.13524 -18.743484 -7.3251481
16320000000 -10.547702 -177.22719 -58.451214 100.38461 -57.074802 109.76394 -19.777472 -14.320507
16330000000 -10.156447 -177.51801 -57.699738 95.72477 -56.626709 95.893242 -21.082165 -20.381588
16340000000 -9.9285707 -178.61891 -58.220818 79.011826 -56.354549 81.353378 -22.647314 -26.093184
16350000000 -9.6131439 179.82945 -55.52195 54.709427 -54.29636 50.22258 -24.630659 -30.898451
16360000000 -9.4669857 177.27858 -54.812588 24.354181 -54.66357 26.466936 -27.158957 -34.450439
16370000000 -9.4257002 175.09862 -57.548241 -4.7751336 -55.533947 3.5824471 -31.379568 -35.289421
16380000000 -9.4760323 173.41183 -55.847893 -1.489113 -53.766911 -12.452417 -44.27916 -36.154964
16390000000 -9.4543457 172.939 -54.832066 -33.869473 -54.34248 -44.921574 -35.457874 146.13889
16400000000 -9.3328314 172.94453 -53.286816 -66.38475 -52.956982 -65.372169 -28.180822 151.03918
16410000000 -9.0109558 172.99609 -54.789478 -97.80645 -53.604664 -98.737175 -24.810814 152.08975
16420000000 -8.6048384 172.10828 -56.240383 -115.79105 -54.214928 -122.56229 -22.95055 152.44371
16430000000 -8.2573948 170.21687 -58.123318 -126.59071 -57.056183 -143.22002 -21.522078 149.88637
16440000000 -8.1169538 168.22435 -54.735565 -140.05338 -54.270111 -149.25151 -20.353828 144.65619
16450000000 -8.0545111 166.369 -53.208397 -167.87006 -53.175594 179.97507 -19.294901 139.13249
16460000000 -8.1157932 165.3503 -52.897568 161.00543 -52.665333 145.50233 -18.487585 135.20535
16470000000 -8.1036348 165.13435 -53.508266 128.74208 -54.358776 119.2955 -17.790499 132.00433
16480000000 -8.0200548 164.80884 -55.010841 106.1374 -56.19582 97.538483 -17.048368 128.21297
16490000000 -7.8140459 164.23833 -55.012192 84.837036 -55.534111 78.738663 -16.221888 123.31214
16500000000 -7.6239457 163.3949 -54.776039 63.470646 -55.808178 50.722736 -15.330947 119.35509
16510000000 -7.3485475 161.67561 -56.040462 32.218346 -56.984192 18.158144 -14.471854 117.31232
16520000000 -7.2173142 160.33421 -57.254658 9.1102829 -61.263157 -4.4588356 -13.7886 116.61015
16530000000 -7.0021796 158.77652 -57.645771 9.179719 -60.396614 18.43371 -13.417325 116.01042
16540000000 -6.9343734 157.62807 -56.845188 -11.312566 -58.471451 -1.2429177 -13.302104 114.56132
16550000000 -6.7814856 156.61049 -55.025501 -44.137436 -56.257824 -38.033955 -13.231732 111.99929
16560000000 -6.7293239 155.84651 -56.336143 -77.316086 -57.066261 -67.283348 -13.045432 108.40077
16570000000 -6.6376481 155.07138 -59.623791 -112.04849 -59.935387 -106.44052 -12.751534 104.9157
16580000000 -6.5778298 155.02289 -63.318989 -125.23624 -63.660587 -117.48373 -12.411081 102.08215
16590000000 -6.3636274 154.47569 -64.891159 -128.73712 -67.816513 -92.346115 -12.117331 99.564835
16600000000 -6.1793389 153.54498 -65.496048 -122.74941 -62.128952 -92.53392 -11.866832 97.168297
16610000000 -5.9367614 152.15082 -62.167728 -116.2968 -58.642147 -116.21007 -11.566029 94.701447
16620000000 -5.763207 150.29979 -56.786285 -140.85704 -55.314274 -148.44583 -11.222482 92.476524
16630000000 -5.6211004 148.3047 -56.657825 173.21854 -55.868061 164.03999 -10.905484 91.14267
16640000000 -5.6116123 146.92403 -59.327297 139.98378 -57.73333 138.7429 -10.672334 90.603241
16650000000 -5.5083494 146.26332 -60.567711 131.44801 -59.360458 126.22254 -10.594244 90.011032
16660000000 -5.4099598 145.92245 -59.6894 120.13213 -59.742561 116.74707 -10.625185 88.741028
16670000000 -5.17769 145.71989 -59.922947 105.44294 -59.011848 99.617073 -10.724486 86.097832
16680000000 -4.9387398 144.97203 -57.825314 80.915466 -57.646339 75.674515 -10.767554 82.690422
16690000000 -4.6785364 143.60454 -57.836575 57.766037 -58.927311 52.488052 -10.664855 79.223976
16700000000 -4.5528221 141.94194 -57.167206 50.164402 -56.929749 46.600613 -10.458473 76.219025
16710000000 -4.4371738 140.40196 -54.923214 14.812954 -55.262886 15.223909 -10.238428 74.041481
16720000000 -4.3733802 138.97591 -56.231331 -16.520742 -55.451786 -17.129473 -10.03338 72.475571
16730000000 -4.2690687 137.75684 -56.473862 -47.008743 -57.023373 -49.134556 -9.8547678 70.984459
16740000000 -4.1671867 136.78246 -60.290627 -62.807579 -60.507523 -60.07243 -9.746645 69.503555
16750000000 -3.9666023 135.71973 -60.043438 -66.89521 -60.029255 -58.428104 -9.6925249 68.122185
16760000000 -3.7983067 134.40782 -58.007572 -74.024269 -56.710686 -76.411064 -9.7043552 66.809113
16770000000 -3.6259749 133.06639 -56.235008 -103.06348 -55.54229 -109.15243 -9.7562647 65.253159
16780000000 -3.4747708 131.86258 -55.864132 -130.74324 -55.603165 -134.8071 -9.8219614 63.308575
16790000000 -3.315974 130.52045 -57.146931 -156.18451 -56.440887 -157.50723 -9.8941221 60.594269
16800000000 -3.2002225 129.14859 -56.211304 -174.69263 -55.513718 -178.96054 -9.9453497 57.23196
16810000000 -3.0641544 127.74849 -56.581177 161.19234 -56.233837 149.77458 -9.9560032 53.846806
16820000000 -2.9692602 126.06657 -56.449501 138.20218 -56.441723 128.38284 -9.8993444 50.54932
16830000000 -2.8827403 124.52624 -57.13879 123.11296 -57.249905 114.57428 -9.7520351 47.574162
16840000000 -2.7990324 123.18431 -56.99007 103.12437 -57.460075 101.85435 -9.5839167 45.050495
16850000000 -2.6660142 121.80814 -55.271149 87.689346 -55.746914 81.797546 -9.4492378 43.260876
16860000000 -2.5378299 120.43685 -53.836456 57.515816 -54.171059 46.138374 -9.3680019 42.033611
16870000000 -2.3731267 119.01418 -53.917622 23.123455 -55.586018 15.838326 -9.4019156 40.755772
16880000000 -2.2226954 117.45606 -55.158268 -5.8884854 -56.518658 -7.6982279 -9.5690699 39.382118
16890000000 -2.0947788 115.78917 -55.941139 -26.054222 -57.04213 -28.435028 -9.7715158 37.009922
16900000000 -2.0220699 114.29363 -57.314816 -51.690929 -59.547989 -52.185734 -9.9573069 33.668095
16910000000 -1.9504759 112.88007 -57.832317 -61.081104 -60.013512 -51.712811 -10.060475 29.461267
16920000000 -1.896933 111.61929 -56.699078 -76.993309 -57.806599 -72.390259 -10.084264 25.106367
16930000000 -1.8028857 110.31551 -55.117249 -101.92793 -55.751793 -95.691086 -10.045985 21.22435
16940000000 -1.7130222 108.84259 -54.996605 -140.06815 -55.99572 -129.44373 -10.007715 17.604073
16950000000 -1.5954136 107.16982 -57.375523 -167.54475 -57.93029 -156.67213 -9.9824772 14.505815
16960000000 -1.5060562 105.38832 -59.122112 172.40239 -58.704132 -173.73691 -9.9848757 11.512156
16970000000 -1.4139282 103.64135 -60.8176 158.63268 -59.455387 171.70778 -10.016717 8.7255917
16980000000 -1.3419627 101.98695 -59.363449 144.49568 -58.45359 155.79694 -10.13854 5.8931942
16990000000 -1.2569921 100.40981 -61.788666 124.12604 -58.69783 133.47029 -10.32689 3.1263022
17000000000 -1.185776 98.954147 -60.950089 118.54797 -58.375408 112.08422 -10.56889 -0.39248317
