!Keysight Technologies,P9374A,MY57211807,A.19.30.04
!Date: Friday, May 08, 2026 15:10:47
!Correction: S11(C  2-Port  ) 
!S21(C  2-Port  ) 
!S12(C  2-Port  ) 
!S22(C  2-Port  ) 
!S2P File: Measurements: S11, S21, S12, S22:
# Hz S  dB   R 50
13000000000 -18.81909 56.896797 -42.169296 108.70456 -41.945465 108.38425 -10.586392 -85.295441
13010000000 -19.214504 58.446564 -41.775509 84.332176 -41.397163 83.30864 -10.911839 -88.578125
13020000000 -19.435364 59.729328 -41.666039 58.992043 -41.389164 57.032108 -11.252572 -91.86097
13030000000 -19.534393 62.806847 -41.619236 34.363419 -41.562 32.793709 -11.637666 -95.166977
13040000000 -19.717342 62.741127 -42.439816 10.06127 -42.34346 9.2894087 -12.08685 -98.550873
13050000000 -19.65522 64.577026 -42.832672 -5.2935143 -42.652222 -7.4126258 -12.537081 -102.18797
13060000000 -19.721113 63.372738 -42.330547 -23.819563 -42.183712 -25.934433 -12.988802 -106.82093
13070000000 -19.597832 63.149982 -41.608082 -44.609741 -41.46928 -47.739792 -13.402772 -112.05946
13080000000 -19.7013 61.692776 -40.966507 -71.645164 -40.814304 -74.364563 -13.746691 -116.91708
13090000000 -19.371222 59.893177 -41.28931 -101.27911 -41.215546 -103.58765 -14.098656 -121.48852
13100000000 -19.895767 58.306942 -42.255898 -123.46839 -42.301346 -126.6692 -14.515083 -125.56876
13110000000 -19.70528 61.072266 -42.920486 -141.40422 -43.018959 -143.83662 -15.022511 -130.41739
13120000000 -19.794622 60.926853 -42.444267 -161.33243 -42.546883 -163.38113 -15.561736 -136.46075
13130000000 -19.506863 61.561882 -42.214363 177.30505 -42.361679 175.50076 -15.991379 -143.43054
13140000000 -19.591784 63.541859 -42.0737 151.77594 -42.142872 149.95682 -16.350033 -150.45624
13150000000 -19.113317 62.378696 -42.733002 128.05667 -42.929958 125.52423 -16.700716 -157.07466
13160000000 -19.274092 62.108994 -43.304821 107.27196 -43.452221 106.15588 -17.104158 -163.85313
13170000000 -19.021416 59.381397 -43.345932 89.881264 -43.564682 89.181274 -17.522659 -172.17839
13180000000 -19.544128 56.994709 -42.999447 68.057564 -43.315708 67.968384 -17.714037 177.64964
13190000000 -19.40136 57.538109 -42.620422 42.855015 -42.780418 43.055767 -17.60836 167.14011
13200000000 -19.460772 55.390949 -43.420933 18.141333 -43.399231 19.763105 -17.28455 158.24477
13210000000 -19.38253 54.721302 -43.967957 -0.35384512 -43.680592 -1.3064967 -16.932493 150.78609
13220000000 -19.500605 52.743969 -43.343845 -18.857803 -43.423008 -19.836496 -16.712448 143.40628
13230000000 -19.478193 54.161835 -43.762459 -45.703865 -43.824463 -44.261765 -16.569815 134.81007
13240000000 -19.268421 54.130066 -43.892998 -64.504898 -43.648685 -64.420799 -16.227848 125.45419
13250000000 -19.068565 52.178993 -44.085598 -86.096588 -43.806942 -86.912956 -15.614598 116.53472
13260000000 -19.287062 51.347698 -44.111538 -108.55394 -43.780289 -108.37664 -14.833824 109.50306
13270000000 -19.109411 50.649937 -44.776554 -128.59465 -44.314785 -131.07664 -14.123822 103.90118
13280000000 -19.154806 48.536179 -44.316109 -149.96376 -44.186684 -152.49718 -13.581537 98.986702
13290000000 -19.238422 44.962643 -44.353195 -173.32481 -44.285423 -174.17767 -13.144755 93.666145
13300000000 -19.71858 42.198246 -44.816505 166.511 -44.531956 163.76634 -12.734395 87.524681
13310000000 -20.155462 42.178116 -44.687023 145.52811 -44.679886 141.46622 -12.246934 81.32682
13320000000 -19.990313 41.898518 -44.564022 120.27549 -44.554276 118.37323 -11.702848 76.014091
13330000000 -20.148542 40.486614 -44.893448 94.0149 -45.065422 91.847809 -11.150091 71.628143
13340000000 -20.041758 41.115738 -46.662804 71.133904 -46.525993 70.690208 -10.666595 67.5093
13350000000 -19.968122 40.16209 -46.937355 59.281063 -47.007927 56.565205 -10.303151 63.099495
13360000000 -19.552023 39.68922 -45.950848 39.879753 -46.139297 38.426445 -10.00036 58.0481
13370000000 -19.555593 34.150463 -46.451103 16.022856 -46.383064 14.449268 -9.6618118 52.804188
13380000000 -19.926725 30.520208 -46.262856 -6.8094654 -46.330688 -9.1743107 -9.222476 47.840191
13390000000 -20.891253 29.407833 -47.259693 -29.588633 -47.227959 -31.133713 -8.7515726 43.335979
13400000000 -20.910814 30.789288 -48.186359 -50.654331 -47.822388 -52.089607 -8.3297195 39.513096
13410000000 -21.431047 27.550356 -49.133808 -65.10038 -49.190441 -65.514709 -8.0383291 35.830601
13420000000 -21.733068 29.516758 -47.923195 -78.703728 -47.859337 -78.743355 -7.8533764 31.848711
13430000000 -21.800886 28.417345 -48.38036 -96.835114 -48.069439 -98.825264 -7.6973701 27.581839
13440000000 -21.531305 28.555452 -47.275417 -120.54191 -47.190289 -123.6551 -7.5306115 22.961617
13450000000 -21.088413 25.008228 -47.727295 -145.72997 -47.720287 -146.8175 -7.3015881 18.346849
13460000000 -21.294493 19.496765 -48.141788 -166.22516 -48.16634 -167.48112 -7.0454931 14.18254
13470000000 -22.202507 17.234079 -49.176479 175.79657 -48.925007 174.55742 -6.8355141 10.345245
13480000000 -22.283546 18.824371 -48.921631 161.29347 -48.832443 160.59087 -6.6846666 6.4969635
13490000000 -22.976915 15.066433 -47.597076 145.1656 -47.405273 144.37172 -6.6298218 2.6610401
13500000000 -23.410513 15.695542 -47.046772 116.81187 -46.899841 115.96872 -6.627141 -1.1432396
13510000000 -24.386194 18.58602 -48.584076 96.030762 -48.499741 94.406853 -6.5838623 -4.8750987
13520000000 -23.977476 20.746574 -48.010456 81.548882 -47.841125 79.992699 -6.5377436 -8.669795
13530000000 -24.08003 18.359655 -47.28463 60.958614 -47.09407 60.188408 -6.5196047 -12.527896
13540000000 -23.788361 14.010029 -46.817036 37.760365 -46.559673 34.982803 -6.5501471 -16.403664
13550000000 -24.36396 11.159162 -46.96817 14.913317 -47.040039 12.590175 -6.6296887 -20.144707
13560000000 -24.370993 9.5759602 -47.205326 -8.945879 -47.187233 -10.476525 -6.7228489 -23.853317
13570000000 -25.244802 9.1318769 -47.498356 -25.800018 -47.407215 -26.960449 -6.7589512 -27.378918
13580000000 -25.317234 5.426218 -46.869553 -46.738743 -46.626007 -48.275406 -6.7832518 -30.770685
13590000000 -27.376528 9.5337839 -46.841778 -66.32756 -46.737766 -69.60321 -6.8201637 -34.035088
13600000000 -26.867596 16.18549 -46.487282 -88.252502 -46.518707 -90.582161 -6.9151845 -37.116119
13610000000 -26.948832 24.373526 -45.870388 -111.63293 -46.113983 -113.13811 -7.0591226 -39.945438
13620000000 -26.211611 18.001715 -45.959354 -138.68314 -45.994076 -139.95747 -7.2274046 -42.961861
13630000000 -27.036547 19.425041 -46.027687 -161.84177 -45.980785 -162.37898 -7.3867273 -46.080875
13640000000 -26.419533 12.97552 -46.797028 178.45407 -46.977711 177.83572 -7.542841 -49.404793
13650000000 -27.67305 8.8571739 -46.44722 158.1723 -46.344212 157.14792 -7.6672945 -52.595379
13660000000 -27.90354 5.0609703 -46.482201 138.65034 -46.507645 137.7758 -7.7776446 -55.619797
13670000000 -30.093594 6.176053 -46.267433 115.47145 -46.269062 113.95202 -7.8987408 -58.215294
13680000000 -30.469896 21.492697 -46.063713 94.020988 -45.903286 93.028999 -8.0198488 -60.679523
13690000000 -28.530676 29.819176 -45.99324 69.127975 -45.787125 68.090149 -8.1626348 -63.09827
13700000000 -27.655005 25.193613 -45.945763 44.936886 -45.774586 42.181702 -8.3442249 -65.785736
13710000000 -27.114548 28.422161 -46.956902 22.3353 -47.077496 19.733929 -8.5460749 -68.602783
13720000000 -26.654264 18.920979 -46.68779 4.9476957 -46.822216 3.3325801 -8.7265396 -71.424057
13730000000 -27.711542 17.720901 -47.220554 -17.952934 -47.147804 -17.926262 -8.8805494 -74.080811
13740000000 -28.301455 11.863658 -46.223072 -37.98856 -46.08786 -39.86684 -9.0212212 -76.59565
13750000000 -31.043131 15.678474 -46.085903 -60.623524 -46.277237 -63.360676 -9.2097311 -79.04995
13760000000 -30.041555 27.786036 -46.066135 -87.724472 -46.150726 -88.694237 -9.4429626 -81.622902
13770000000 -29.594883 27.599808 -46.887592 -110.14269 -46.977535 -112.54079 -9.6748066 -84.542076
13780000000 -28.772501 24.971617 -47.389629 -133.36052 -47.312584 -134.03987 -9.852911 -87.839264
13790000000 -27.884426 21.851679 -47.452888 -149.75201 -47.350578 -152.30927 -9.9674797 -91.044777
13800000000 -27.912159 15.834186 -46.910122 -167.9427 -47.030434 -169.35582 -10.054282 -93.63147
13810000000 -27.094673 14.444647 -46.292461 162.30112 -46.205303 160.79115 -10.153165 -95.590408
13820000000 -27.180126 1.2326243 -46.971153 140.11465 -46.932049 138.00037 -10.316259 -97.509377
13830000000 -28.642294 8.0987492 -47.123169 115.47667 -47.320358 112.53821 -10.550865 -99.839622
13840000000 -27.625498 1.7453327 -47.697495 95.377502 -47.761093 93.75013 -10.816938 -102.81352
13850000000 -29.349817 2.731673 -47.918324 72.846519 -47.935223 71.787834 -11.033779 -106.08846
13860000000 -28.992456 2.2581332 -47.759098 50.564999 -47.862385 48.964771 -11.170869 -109.26237
13870000000 -29.932507 5.7542119 -47.837521 34.059258 -47.948368 31.507544 -11.273704 -112.23495
13880000000 -28.996786 7.6744919 -47.214504 7.5377636 -47.608635 4.8422599 -11.431921 -115.08011
13890000000 -27.744804 5.1987786 -47.418392 -18.618803 -47.506535 -17.911829 -11.663251 -117.87833
13900000000 -27.082636 -9.8665018 -47.753403 -44.90836 -47.655697 -47.154083 -11.862908 -121.07151
13910000000 -27.462021 -12.017334 -48.81992 -67.642159 -48.991882 -67.994568 -12.001122 -124.59119
13920000000 -27.206631 -24.380962 -48.431046 -89.383385 -48.842026 -90.250992 -12.068359 -128.12936
13930000000 -28.958363 -31.6931 -49.117569 -110.97836 -49.156891 -110.24395 -12.147704 -131.22542
13940000000 -29.95364 -33.778091 -49.293621 -134.04527 -49.285713 -134.38995 -12.293419 -133.89754
13950000000 -31.718933 -35.562252 -48.958496 -156.92331 -48.805244 -158.62704 -12.514135 -136.67188
13960000000 -32.935287 -25.137682 -49.811562 -179.42392 -49.887363 179.51071 -12.775867 -139.94354
13970000000 -30.409512 -19.409801 -49.099873 156.2411 -49.372368 154.10687 -12.993971 -144.16
13980000000 -29.178205 -34.513115 -49.788345 125.55176 -49.791763 127.00186 -13.144814 -149.00647
13990000000 -28.431969 -46.444252 -50.675632 103.43976 -50.306568 101.45043 -13.231585 -153.96738
14000000000 -28.441221 -60.665611 -50.852749 82.327972 -51.112415 80.068451 -13.245835 -158.53201
14010000000 -27.972603 -66.682007 -51.321026 55.802986 -51.506493 53.273602 -13.238135 -162.84068
14020000000 -28.133486 -76.139732 -51.460873 32.2953 -51.636795 32.591381 -13.219316 -166.98811
14030000000 -29.283026 -83.904022 -53.130199 3.4477835 -53.19511 3.2207916 -13.225899 -171.15402
14040000000 -30.902744 -81.998062 -54.251637 -12.22025 -54.224758 -12.093719 -13.237626 -175.37628
14050000000 -30.703503 -73.010994 -52.812527 -23.91073 -52.874382 -21.624477 -13.234259 -179.59785
14060000000 -30.559387 -77.767807 -51.282555 -55.114502 -51.6656 -56.548122 -13.216668 175.90619
14070000000 -30.781559 -79.206543 -51.768696 -95.719933 -52.068436 -93.506088 -13.169506 171.51109
14080000000 -30.835562 -90.061272 -53.545849 -125.9033 -53.128441 -123.059 -13.114762 167.11647
14090000000 -30.957981 -89.051422 -56.482098 -150.84129 -55.748142 -148.13472 -13.102782 162.70811
14100000000 -28.91798 -102.74739 -57.147438 -156.20305 -55.946659 -159.58354 -13.082977 158.10237
14110000000 -28.651327 -115.29769 -55.162571 -177.68076 -55.525398 177.62024 -13.045413 153.10475
14120000000 -28.372089 -126.52819 -55.279392 155.71771 -55.042912 154.37798 -12.935096 147.82701
14130000000 -28.635332 -132.61746 -54.038921 122.82608 -54.008705 123.01244 -12.730705 142.5493
14140000000 -28.596663 -139.17775 -54.02647 95.227928 -53.771389 91.332527 -12.491507 137.82709
14150000000 -29.698122 -140.76208 -53.973785 57.845993 -54.032772 54.781982 -12.312131 133.61436
14160000000 -30.138628 -139.81274 -55.045311 28.099138 -55.220825 23.722694 -12.156514 129.34822
14170000000 -31.023205 -131.94533 -55.756886 10.699523 -56.154869 7.3452921 -12.03159 124.65485
14180000000 -28.934568 -129.27779 -53.823208 -21.291594 -54.472347 -20.499481 -11.864979 119.49717
14190000000 -27.770607 -138.57443 -55.210045 -52.497902 -54.754528 -51.284458 -11.616601 114.32146
14200000000 -26.946829 -149.52713 -54.909645 -69.640938 -54.490265 -71.743736 -11.307767 109.54176
14210000000 -27.247698 -159.99521 -53.341976 -94.589447 -53.125965 -99.293633 -11.046457 105.21922
14220000000 -27.399906 -163.96765 -52.665123 -130.42673 -52.79776 -133.92165 -10.819297 101.17698
14230000000 -27.435381 -170.94724 -52.152931 -156.14545 -52.29673 -156.02983 -10.634361 96.962051
14240000000 -28.426752 -172.74416 -51.814091 174.79721 -51.918144 175.72864 -10.424201 92.417313
14250000000 -28.714775 -167.0697 -51.819855 146.26265 -51.380043 145.36145 -10.205496 87.744331
14260000000 -28.59268 -162.11212 -51.546169 117.76308 -50.995735 114.14346 -9.9847498 83.324776
14270000000 -27.155296 -161.64224 -51.857117 96.006134 -51.659454 91.313377 -9.7749901 79.066475
14280000000 -27.291607 -172.70097 -51.143681 75.886261 -51.465858 71.590965 -9.6109467 74.743202
14290000000 -27.576937 -172.28865 -49.807747 48.154175 -50.181099 47.762695 -9.4647436 70.174843
14300000000 -27.664351 -176.69705 -50.240253 18.764378 -49.814575 17.319738 -9.3134117 65.297585
14310000000 -27.38343 -178.24965 -50.310925 1.9001591 -50.010773 -1.1213566 -9.1161747 60.410461
14320000000 -27.580343 173.70058 -48.964993 -20.066723 -48.974133 -25.106941 -8.8880634 55.62986
14330000000 -27.757832 175.69328 -47.817905 -49.185024 -48.056389 -50.693844 -8.6826715 51.117687
14340000000 -28.118744 171.36877 -47.472427 -80.633438 -47.532589 -80.648888 -8.527359 46.910297
14350000000 -27.808247 176.08681 -47.737717 -107.46792 -47.689842 -109.74358 -8.4208059 42.717281
14360000000 -28.434708 171.77446 -48.587738 -131.96893 -48.721336 -134.99448 -8.3646917 38.358887
14370000000 -28.665133 -179.2542 -48.700108 -150.04881 -48.904911 -152.47641 -8.3277578 33.578125
14380000000 -27.805912 178.63974 -48.422672 -168.38457 -48.547245 -170.17366 -8.2911768 28.44347
14390000000 -27.099918 179.7915 -46.890018 171.58621 -46.809669 171.92932 -8.2613869 23.328871
14400000000 -26.857933 170.04944 -45.906136 142.77502 -45.789856 142.35458 -8.2046404 18.363468
14410000000 -27.957165 164.33984 -45.344788 114.8905 -45.060802 112.05185 -8.149004 13.679032
14420000000 -28.635017 166.74736 -46.00642 86.037086 -46.090424 81.499771 -8.121067 9.1356001
14430000000 -28.555937 166.42058 -46.311375 63.14389 -46.689106 60.51442 -8.147398 4.4833732
14440000000 -29.282654 169.30824 -46.617962 41.869995 -46.731678 40.896683 -8.2315798 -0.26539034
14450000000 -28.406525 -179.86348 -46.151539 23.092947 -46.089905 22.587948 -8.3517065 -5.0691633
14460000000 -27.097677 -179.74352 -45.939686 0.88772577 -45.734123 -0.85295558 -8.4870539 -9.904088
14470000000 -26.161051 175.58092 -44.589897 -22.113647 -44.775501 -24.262362 -8.6388226 -14.611585
14480000000 -26.285067 171.51976 -44.092239 -51.59457 -44.230061 -52.390392 -8.8262453 -19.511703
14490000000 -27.390142 167.56955 -44.374496 -81.757683 -44.463058 -82.009819 -9.0649042 -24.783247
14500000000 -27.604116 177.19905 -45.408123 -103.92586 -45.381092 -105.21921 -9.3461657 -30.325624
14510000000 -27.271765 174.11569 -45.493809 -122.06657 -45.455765 -123.73858 -9.5704794 -36.041885
14520000000 -27.8162 -178.10121 -45.064789 -142.95682 -45.065582 -144.95279 -9.7410822 -41.667377
14530000000 -26.908142 178.39465 -44.572205 -168.35632 -44.767818 -168.70876 -9.8872309 -46.530346
14540000000 -26.362856 -175.37149 -44.435581 168.6248 -44.304287 168.41284 -10.119726 -51.016644
14550000000 -24.933138 176.56345 -44.24976 144.23712 -43.915977 143.41975 -10.478827 -55.417435
14560000000 -25.475437 174.54727 -44.594521 120.37378 -44.451885 118.35393 -10.938705 -60.331963
14570000000 -25.098114 172.08659 -43.92231 97.532524 -44.032265 93.69603 -11.406149 -66.02169
14580000000 -24.837891 176.03999 -43.936348 70.362999 -44.27813 70.05352 -11.827735 -72.287247
14590000000 -24.612616 170.86467 -44.606262 42.90786 -44.45253 43.379421 -12.200551 -78.629837
14600000000 -24.727646 176.15178 -45.088455 25.067553 -44.849308 24.637772 -12.595658 -84.706726
14610000000 -24.391998 171.90799 -44.979252 5.9970293 -44.942879 1.9336611 -13.014603 -90.711578
14620000000 -24.528349 179.31239 -44.145939 -14.74871 -44.377567 -16.746712 -13.456632 -97.181648
14630000000 -23.365868 176.63464 -43.546257 -42.188202 -43.617531 -41.642086 -13.813468 -104.06023
14640000000 -22.95439 174.08273 -43.452713 -73.342018 -43.266777 -72.65522 -14.101468 -111.15583
14650000000 -22.631145 170.09541 -44.455555 -99.989746 -44.186657 -101.32738 -14.409363 -117.61844
14660000000 -22.250919 167.59253 -45.443455 -119.87246 -45.222294 -122.85403 -14.762475 -123.57083
14670000000 -22.521576 163.54651 -45.239094 -138.83565 -45.298706 -140.51993 -15.248697 -129.85858
14680000000 -22.263481 162.21091 -45.079777 -161.56529 -45.172264 -162.36433 -15.768878 -137.15752
14690000000 -23.069481 162.00529 -45.336121 173.62294 -45.02293 174.38683 -16.189882 -145.95023
14700000000 -22.39809 168.77872 -45.359222 152.84731 -45.087196 150.03183 -16.441059 -155.45016
14710000000 -21.676594 167.15448 -45.551598 130.70961 -45.319141 128.0024 -16.469421 -164.64925
14720000000 -21.089413 164.62556 -44.941891 102.73583 -44.946247 100.17268 -16.372089 -173.39421
14730000000 -20.922455 160.31274 -46.079819 78.754303 -45.987877 76.818634 -16.257431 178.83119
14740000000 -20.675074 155.81999 -46.248028 57.27211 -46.167488 55.647274 -16.123367 172.08592
14750000000 -21.002495 151.46437 -46.975994 34.426895 -46.544464 32.530415 -16.00539 165.58636
14760000000 -21.066195 149.62485 -46.913517 19.025211 -46.650715 15.120961 -15.995247 159.15056
14770000000 -21.723536 147.37054 -46.23761 -2.5245495 -46.3997 -7.9907231 -16.019217 152.01743
14780000000 -21.279192 151.92226 -45.880699 -32.085873 -45.914875 -32.953342 -16.008715 144.5379
14790000000 -20.803282 150.53754 -46.207264 -58.071056 -46.333778 -60.360371 -15.764279 136.9785
14800000000 -20.139402 149.30919 -47.025078 -76.418915 -46.985867 -79.034279 -15.434605 130.2892
14810000000 -20.133892 145.11697 -47.164185 -103.62307 -46.923809 -107.24863 -15.100756 124.36108
14820000000 -19.999041 144.6627 -47.662361 -122.89989 -47.916767 -128.877 -14.839167 119.22035
14830000000 -20.083673 140.83583 -47.839893 -142.10721 -48.254322 -144.99722 -14.606771 114.26267
14840000000 -20.17794 137.7675 -47.442345 -165.15732 -47.751839 -165.4633 -14.380795 109.12963
14850000000 -20.899122 135.52759 -46.941742 171.8806 -46.864086 169.95821 -14.145964 104.208
14860000000 -20.873026 136.75377 -47.212128 144.93138 -47.475121 141.52782 -13.950394 99.875023
14870000000 -21.059896 134.16463 -47.335827 119.02935 -47.680447 115.20439 -13.83699 96.058678
14880000000 -20.87491 132.33888 -47.81778 95.653816 -48.374866 95.181915 -13.862194 91.97818
14890000000 -21.10416 130.38753 -47.91766 71.189049 -48.037319 71.373299 -13.884768 87.248436
14900000000 -20.803028 130.33214 -48.642838 48.660595 -48.835663 47.916199 -13.797901 81.67411
14910000000 -20.335852 129.2942 -48.45673 27.608971 -48.948837 26.122263 -13.594598 76.498718
14920000000 -20.105003 123.0399 -48.514908 2.6478133 -48.777519 1.9214753 -13.272269 72.211441
14930000000 -20.698397 120.94646 -48.257992 -24.361969 -48.468765 -21.140881 -13.132141 68.904968
14940000000 -20.913864 119.07178 -48.531002 -51.12553 -48.157501 -48.979134 -13.174254 66.711456
14950000000 -21.462194 120.54218 -49.488556 -76.918854 -49.066322 -80.495255 -13.288979 64.416481
14960000000 -21.832058 118.96102 -49.406593 -95.807396 -49.648846 -99.506866 -13.35136 60.756508
14970000000 -22.447985 123.59662 -49.630516 -128.95981 -50.164658 -128.56845 -13.500232 56.528023
14980000000 -22.232821 123.23141 -51.021435 -148.86723 -50.891598 -144.73802 -13.602595 52.801147
14990000000 -21.656679 124.53557 -50.550613 -163.63092 -50.107861 -163.41876 -13.857297 49.725437
15000000000 -21.495087 115.34462 -49.44075 163.89577 -49.225609 162.29074 -14.112774 47.568775
15010000000 -22.197725 112.26092 -49.60635 134.14029 -49.771908 135.19083 -14.391673 44.242397
15020000000 -22.932158 107.45513 -49.502609 100.95409 -49.725277 99.897598 -14.572061 40.060043
15030000000 -23.69669 112.15602 -51.38073 66.30761 -51.611816 71.23436 -14.696349 35.556602
15040000000 -23.856602 111.75818 -53.492233 49.295536 -52.720905 50.830975 -14.815109 33.250023
15050000000 -24.058893 118.27001 -53.374115 38.693756 -53.322636 37.844631 -14.937652 32.769634
15060000000 -23.744284 120.87769 -52.033005 11.674293 -52.113773 13.318878 -15.279157 33.28001
15070000000 -23.114849 121.91624 -50.46981 -16.230087 -50.292637 -13.716033 -15.802062 33.040474
15080000000 -23.055984 116.67827 -51.33276 -51.383785 -50.898483 -52.886581 -16.541084 32.158745
15090000000 -23.645889 114.14738 -50.964222 -77.647919 -51.242859 -75.261795 -17.232632 30.344656
15100000000 -24.706121 115.14262 -51.498264 -109.58401 -51.402733 -107.05966 -17.851086 29.109037
15110000000 -25.011307 119.61227 -52.667145 -141.72417 -51.869808 -139.4808 -18.239594 28.953766
15120000000 -25.248783 121.60583 -53.516033 -156.37817 -52.861374 -157.74303 -18.618517 29.564091
15130000000 -24.92663 122.3417 -52.865105 172.86768 -52.608765 174.10863 -19.127577 31.731546
15140000000 -25.164242 125.39331 -52.664642 156.10257 -52.814445 156.84496 -19.369949 34.460117
15150000000 -24.240427 126.54087 -51.580585 125.32817 -51.088295 129.10788 -19.392622 36.386005
15160000000 -24.200211 125.33619 -52.557957 98.405586 -51.789555 96.477219 -19.361744 38.939663
15170000000 -23.765491 124.97404 -53.389111 74.798157 -52.446083 76.700325 -19.312481 43.046501
15180000000 -23.855894 124.3901 -51.120789 65.571449 -50.6688 64.371498 -19.092585 49.156456
15190000000 -23.370899 124.91143 -50.122978 30.742041 -50.092751 29.32106 -18.709106 54.028114
15200000000 -23.765894 122.76064 -49.229412 3.2509475 -48.968948 2.0041988 -18.481466 56.077076
15210000000 -23.867435 122.52223 -49.390167 -34.465981 -48.588776 -33.860306 -18.498226 57.440025
15220000000 -24.722763 127.34815 -51.941448 -57.637787 -51.205654 -62.564377 -18.360962 58.816647
15230000000 -23.645897 131.38776 -51.705971 -66.791542 -51.631023 -69.892906 -17.893795 59.113014
15240000000 -23.361416 130.59375 -49.742676 -82.567741 -50.067284 -83.872528 -17.372999 58.093006
15250000000 -22.605431 127.55733 -48.407318 -114.09253 -47.930176 -112.6972 -16.882719 56.655315
15260000000 -22.705072 123.11745 -47.752388 -145.49561 -47.355438 -146.73473 -16.427221 55.33643
15270000000 -22.531437 121.1776 -48.805244 -171.99077 -48.081738 -177.18292 -15.88616 54.202404
15280000000 -22.531063 115.77552 -48.851482 170.38382 -48.531113 163.71281 -15.324316 52.978676
15290000000 -23.223543 114.0103 -48.18182 144.29732 -48.1922 142.11794 -14.900848 52.54192
15300000000 -23.536884 116.15368 -48.347446 122.55989 -47.970982 118.75558 -14.518398 52.437042
15310000000 -23.486441 120.26649 -48.281628 97.866798 -47.794559 93.56057 -14.31271 50.911278
15320000000 -22.62772 119.24963 -48.207737 79.920204 -48.387211 71.982979 -14.244412 48.802265
15330000000 -22.546852 116.79772 -46.986774 59.019657 -47.666508 54.844395 -14.195704 45.869766
15340000000 -22.552353 112.42979 -46.420238 34.128838 -46.862679 33.570705 -14.046099 42.72818
15350000000 -22.851191 113.81142 -46.198524 5.1076288 -46.202835 5.4078822 -13.838258 39.798119
15360000000 -22.470837 108.11144 -46.387035 -18.397421 -46.370098 -21.173649 -13.649573 37.246323
15370000000 -23.347944 106.43997 -46.289089 -38.314991 -46.412312 -43.773655 -13.485943 34.229336
15380000000 -23.183275 102.01997 -46.149914 -56.954948 -46.65765 -60.34753 -13.356848 30.535006
15390000000 -24.338009 103.40173 -44.904099 -82.236031 -45.214104 -82.520271 -13.220185 26.518923
15400000000 -23.815159 101.33139 -44.872028 -109.8476 -44.96949 -110.47707 -13.097602 23.429882
15410000000 -24.477385 99.038002 -45.543373 -132.60254 -45.647438 -136.19736 -12.937025 21.693815
15420000000 -24.989054 98.685448 -44.923531 -148.76595 -45.61351 -150.8723 -12.854981 19.929476
15430000000 -24.939566 102.59509 -44.268597 -173.21851 -44.699863 -172.21877 -12.989438 17.110559
15440000000 -24.371977 99.069611 -43.904404 160.9342 -44.05254 162.14812 -13.36008 12.956004
15450000000 -24.657078 94.498055 -43.85638 138.43213 -43.761574 138.3533 -13.721487 8.0106936
15460000000 -25.000893 87.813347 -43.152744 115.19556 -43.360111 114.81776 -13.832891 2.6396105
15470000000 -26.344383 87.063698 -42.923168 87.44062 -43.239151 88.035217 -13.785834 -2.7784252
15480000000 -26.496431 83.087364 -43.378887 63.101387 -43.570385 64.997215 -13.804809 -7.4499249
15490000000 -28.343355 81.040215 -43.74435 43.684895 -43.524971 45.684544 -13.957129 -10.981525
15500000000 -29.409523 83.109184 -43.351967 22.326124 -42.933647 23.006918 -14.184224 -14.625185
15510000000 -29.709839 91.750656 -42.882462 1.391822 -42.766155 0.077460706 -14.466719 -18.830359
15520000000 -29.428896 89.971222 -42.04874 -21.917139 -42.172501 -22.257133 -14.841773 -23.58753
15530000000 -28.845325 86.164696 -41.59491 -48.979706 -41.725796 -47.906811 -15.295448 -28.145098
15540000000 -30.42314 71.700584 -41.746471 -79.248932 -41.576447 -76.142899 -15.871417 -33.075962
15550000000 -31.964424 79.87159 -42.908787 -100.35376 -42.361557 -100.51403 -16.532784 -39.10519
15560000000 -32.958427 65.710754 -42.403065 -119.8634 -42.309937 -121.90434 -17.266817 -46.761284
15570000000 -36.564247 71.634911 -42.193466 -142.88615 -42.231575 -142.14368 -17.926523 -55.529064
15580000000 -40.536514 51.87788 -42.124615 -167.32861 -41.848545 -166.29205 -18.343643 -65.106117
15590000000 -42.620926 125.75687 -42.046444 168.15492 -41.457554 168.36067 -18.578997 -74.571465
15600000000 -43.48806 103.69241 -42.432693 144.51218 -41.803307 142.2639 -18.804964 -83.268913
15610000000 -45.01823 131.01576 -42.308392 123.0229 -41.873039 120.41337 -19.053413 -91.287354
15620000000 -51.809544 -108.35083 -42.176624 101.33334 -42.049988 97.598007 -19.422867 -99.424393
15630000000 -39.792309 -157.888 -42.136593 75.407013 -42.004173 74.940414 -19.958401 -108.22063
15640000000 -42.993694 -142.5444 -42.649006 51.390141 -42.164715 50.524464 -20.561499 -118.76449
15650000000 -38.182327 -147.78462 -43.223598 32.57423 -42.591606 28.053219 -20.944986 -131.63028
15660000000 -37.26376 -122.56444 -42.478737 12.150449 -42.445763 7.3001714 -20.678091 -145.31364
15670000000 -33.246803 -140.11906 -42.454903 -14.663874 -42.392822 -17.643667 -19.859447 -157.51973
15680000000 -33.143143 -133.32475 -42.862305 -37.378647 -42.768684 -40.859936 -19.002651 -166.32599
15690000000 -30.710968 -135.20837 -43.005482 -58.349678 -42.821785 -62.257305 -18.408178 -172.88223
15700000000 -28.889767 -135.97455 -43.137104 -82.309349 -43.050617 -86.888535 -17.982986 -178.8141
15710000000 -27.753511 -146.0585 -43.380943 -102.22034 -43.858719 -106.33097 -17.522202 175.06339
15720000000 -27.425095 -150.1109 -43.391273 -123.00867 -43.599937 -125.40744 -17.030493 168.48158
15730000000 -28.330914 -153.57117 -42.945095 -143.9837 -43.248569 -145.83322 -16.598131 162.86191
15740000000 -27.879812 -143.7395 -42.89196 -170.21153 -43.005077 -171.71817 -16.240755 158.06868
15750000000 -27.322981 -144.06128 -43.188786 166.51001 -43.247353 163.78743 -15.995753 153.02504
15760000000 -26.376259 -142.01093 -43.611378 144.38045 -44.105492 140.11369 -15.696223 147.39134
15770000000 -25.808315 -142.15373 -43.73093 122.26207 -44.102566 122.18192 -15.218313 141.3885
15780000000 -24.39757 -142.91803 -43.998241 103.78085 -44.29641 102.60381 -14.569142 136.48988
15790000000 -23.738094 -150.12401 -43.649189 80.777313 -43.767056 80.232872 -13.910003 133.14238
15800000000 -23.393402 -156.53412 -43.877922 59.368504 -44.000648 57.837215 -13.406725 131.23096
15810000000 -24.275196 -158.62415 -43.781796 34.945461 -44.104 34.049904 -13.122332 129.72485
15820000000 -23.860218 -153.77571 -44.051056 12.713859 -44.26086 11.85843 -12.998536 127.8242
15830000000 -23.513365 -152.95636 -44.272171 -8.5272341 -44.595509 -9.1330881 -12.93189 124.85774
15840000000 -23.005743 -151.61185 -44.514793 -31.369785 -44.663925 -31.050791 -12.8396 121.32664
15850000000 -22.960873 -151.74762 -44.855141 -51.635994 -44.983406 -50.729012 -12.685158 117.74641
15860000000 -22.128027 -148.31419 -44.800385 -72.873711 -44.786259 -71.688393 -12.441875 114.31404
15870000000 -21.527231 -153.04417 -44.745552 -92.360435 -44.632267 -91.931305 -12.184194 110.91856
15880000000 -21.514029 -155.46736 -44.497082 -112.46629 -44.376709 -112.75552 -11.941262 107.66248
15890000000 -21.778509 -157.51762 -44.299473 -138.80322 -44.239967 -138.98079 -11.653473 104.90842
15900000000 -21.703339 -156.14226 -44.399479 -162.29449 -44.282181 -162.27545 -11.341641 102.45851
15910000000 -21.300585 -156.62755 -45.090389 172.37422 -44.750977 172.93364 -11.081944 100.44571
15920000000 -21.012789 -158.54637 -45.864174 151.33357 -45.347561 152.43211 -10.894258 98.812767
15930000000 -21.160009 -157.24858 -46.820568 135.47253 -46.24012 132.45561 -10.785271 97.346878
15940000000 -20.637302 -153.63719 -45.796978 117.44289 -45.581776 116.21074 -10.731902 95.659821
15950000000 -19.883144 -154.18214 -45.890129 95.532066 -45.414864 93.155785 -10.724519 93.524017
15960000000 -19.488977 -155.86528 -45.36829 74.507637 -45.225754 72.25264 -10.737395 90.967995
15970000000 -19.370665 -156.69595 -45.262707 46.935993 -44.828236 44.607422 -10.725822 88.093643
15980000000 -19.364431 -155.89233 -46.074818 24.41482 -45.9468 21.590416 -10.659216 84.972397
15990000000 -18.923861 -155.50739 -46.385117 3.3907197 -46.079525 -0.20292704 -10.515309 82.018593
16000000000 -19.087984 -158.05614 -46.808792 -15.688122 -46.99192 -18.727877 -10.306147 79.376678
16010000000 -19.072773 -155.50372 -46.98703 -34.037678 -46.826069 -37.886967 -10.105569 77.364899
16020000000 -18.801224 -154.33556 -46.581291 -53.046879 -46.566502 -56.791985 -9.9831047 75.759544
16030000000 -18.002913 -152.96873 -46.344067 -76.017845 -46.176674 -80.738464 -9.9667444 74.267784
16040000000 -17.564812 -156.41493 -46.285 -96.014397 -46.78656 -103.2888 -10.032753 72.695374
16050000000 -17.405455 -157.64377 -46.4161 -125.51652 -46.719917 -127.77702 -10.061733 70.595184
16060000000 -17.128235 -157.30954 -47.473793 -143.12865 -47.493568 -146.13478 -10.110188 67.633614
16070000000 -16.657797 -157.2718 -47.218529 -163.65114 -47.635941 -167.11145 -10.164884 64.735023
16080000000 -16.474117 -158.85858 -47.038509 172.96957 -47.395237 169.95015 -10.234214 62.167221
16090000000 -16.318781 -158.25142 -47.703751 155.50504 -48.151672 153.26453 -10.315871 59.609734
16100000000 -16.14834 -157.36989 -47.352947 130.96158 -47.685108 129.81117 -10.379235 56.751888
16110000000 -15.6684 -157.0986 -47.447624 109.3596 -48.026443 109.83309 -10.375296 53.528202
16120000000 -15.360645 -158.67116 -48.075226 83.529564 -48.082836 84.88649 -10.333862 50.317326
16130000000 -15.189793 -159.29137 -49.511944 69.723312 -49.43959 67.806732 -10.266879 47.989113
16140000000 -14.911458 -158.6463 -48.370228 57.019783 -48.689583 56.355713 -10.270412 46.593822
16150000000 -14.32222 -160.90338 -47.312309 29.434181 -47.351902 30.605392 -10.396285 45.635143
16160000000 -14.075145 -162.9196 -47.788147 2.0012574 -47.61079 1.6109633 -10.648293 43.895775
16170000000 -13.871503 -164.79007 -48.546772 -22.631304 -48.256317 -24.845596 -11.025798 40.964981
16180000000 -13.76141 -164.2352 -49.95787 -41.945175 -50.543331 -44.325596 -11.401309 36.937508
16190000000 -13.3269 -165.12088 -50.362534 -57.494629 -50.729176 -55.108135 -11.739306 32.613811
16200000000 -13.27503 -165.20447 -49.926315 -72.077713 -49.631134 -69.18763 -11.983768 28.858128
16210000000 -12.941613 -165.27805 -49.098755 -89.619186 -49.023232 -91.377602 -12.211913 25.548693
16220000000 -12.666949 -164.40318 -48.472763 -119.87319 -48.252296 -118.83569 -12.486847 22.084095
16230000000 -12.101685 -166.67297 -49.484894 -143.63647 -49.094685 -145.75458 -12.839205 18.408018
16240000000 -11.985411 -168.41112 -50.53017 -166.28267 -50.162952 -168.00082 -13.193433 15.245221
16250000000 -11.822928 -171.04353 -51.552528 176.86441 -51.434681 170.05981 -13.510516 12.836526
16260000000 -11.817985 -171.86023 -51.51049 164.65678 -51.509121 163.66 -13.98287 11.236622
16270000000 -11.527941 -173.30638 -50.402412 145.54208 -50.134464 145.46997 -14.674836 9.6423931
16280000000 -11.42644 -174.3438 -50.842014 116.62417 -50.01189 117.17126 -15.686931 7.2941189
16290000000 -11.145278 -175.0862 -52.110733 100.57001 -51.729271 95.436028 -16.888248 3.028471
16300000000 -10.947753 -174.99405 -51.575951 92.508682 -51.919357 86.908836 -18.133915 -3.0366619
16310000000 -10.436606 -176.19466 -50.391026 73.194611 -50.812355 72.759575 -19.260313 -10.103733
16320000000 -10.277038 -177.63736 -49.970531 41.391365 -49.474945 43.798363 -20.47406 -16.772556
16330000000 -10.033995 -179.05869 -51.329876 20.563314 -50.529091 14.356515 -21.855301 -21.558931
16340000000 -9.977211 -179.75783 -52.334156 3.7755945 -52.04446 -0.94038129 -23.426678 -27.570175
16350000000 -9.7195578 178.74693 -51.651463 -2.2263224 -51.947655 -6.121109 -25.573858 -35.529438
16360000000 -9.6937609 177.11859 -50.088093 -25.514103 -50.32737 -26.233843 -28.595539 -44.826294
16370000000 -9.6200047 175.73645 -49.871223 -47.907528 -49.766788 -50.988819 -33.934162 -54.362072
16380000000 -9.582428 175.08113 -49.420521 -71.48468 -49.318451 -75.897102 -43.20731 -128.1268
16390000000 -9.2969713 174.39284 -50.044022 -92.311447 -50.335999 -100.06445 -32.365189 164.84634
16400000000 -9.0852365 173.21971 -49.216419 -111.50294 -49.94614 -112.02431 -26.752533 159.29155
16410000000 -8.831687 171.79279 -49.600151 -131.7114 -49.554333 -134.9115 -23.835939 157.31189
16420000000 -8.6319761 171.19043 -48.641357 -150.23387 -49.085564 -154.03864 -22.067696 155.29959
16430000000 -8.2932539 169.50359 -48.75885 -175.09857 -49.08036 -179.46242 -20.858864 151.33827
16440000000 -8.1952496 167.73332 -48.16843 166.03249 -48.838627 164.02155 -19.82872 146.2532
16450000000 -8.2093582 166.19435 -47.819038 142.27995 -48.259064 141.47563 -18.808498 141.96631
16460000000 -8.2386074 166.31464 -47.911999 118.29164 -48.182152 118.21495 -17.836988 138.52202
16470000000 -8.0819235 166.06689 -47.530128 98.962708 -48.118702 98.464661 -17.024345 134.8363
16480000000 -7.9210634 165.39482 -46.984169 78.469963 -47.259293 79.030914 -16.375242 130.81985
16490000000 -7.730216 164.12579 -46.520847 49.736649 -46.799809 50.767723 -15.699561 126.17463
16500000000 -7.5517941 163.31303 -46.696529 26.973154 -46.829956 29.02368 -14.936923 122.19912
16510000000 -7.2796178 161.28232 -46.950172 1.3362643 -46.850086 3.5573564 -14.131439 119.82652
16520000000 -7.1729207 159.57054 -47.446167 -17.675011 -47.327259 -16.831797 -13.463245 118.69335
16530000000 -7.0860887 157.67926 -47.151039 -39.114166 -47.131824 -38.16428 -13.050846 117.78136
16540000000 -7.1016288 157.64293 -47.131626 -63.045292 -46.951611 -61.688438 -12.855672 116.03994
16550000000 -6.8925271 157.20308 -46.737 -84.39402 -46.485893 -82.732796 -12.73896 113.21071
16560000000 -6.7370424 156.91235 -46.635124 -111.01844 -46.101791 -110.23669 -12.522192 109.70582
16570000000 -6.5641503 155.70134 -47.212917 -134.88673 -46.631355 -135.89737 -12.209445 106.33257
16580000000 -6.449717 155.42235 -47.372086 -158.61201 -46.866375 -159.88962 -11.869067 103.71751
16590000000 -6.2175341 154.06837 -48.038105 178.85977 -47.516521 177.95743 -11.588578 101.32805
16600000000 -6.1041746 152.61029 -48.774487 157.01877 -48.133732 156.97047 -11.363383 98.888428
16610000000 -6.0125928 150.89462 -48.95879 138.92085 -48.191463 135.03156 -11.089296 96.171539
16620000000 -5.9530449 150.10292 -48.836353 124.08124 -48.397785 118.85903 -10.790278 93.685608
16630000000 -5.7457161 148.8846 -48.355042 102.92013 -48.089363 97.787949 -10.452998 92.099617
16640000000 -5.6192183 147.81546 -48.044506 77.615166 -47.873112 72.922264 -10.195128 91.066666
16650000000 -5.4560676 146.73216 -47.665272 52.813522 -47.735027 49.058411 -10.083592 90.089539
16660000000 -5.3236561 146.29149 -48.436897 25.708399 -48.476044 22.905359 -10.108603 88.552795
16670000000 -5.0712361 145.48732 -49.515064 6.1937447 -49.400253 -2.1519423 -10.164696 86.044907
16680000000 -4.8790755 144.34087 -49.919495 -10.63166 -50.447819 -17.078123 -10.170284 82.676674
16690000000 -4.7222962 142.93907 -49.66581 -26.489519 -50.3918 -27.934299 -10.055381 79.384689
16700000000 -4.6433759 141.78677 -48.550667 -45.642349 -49.119289 -46.795597 -9.8768568 76.395775
16710000000 -4.4913034 140.6313 -47.938084 -72.043083 -48.229862 -72.839294 -9.6743746 74.153572
16720000000 -4.3924913 139.20122 -47.931377 -97.875374 -48.36787 -101.95212 -9.4987717 72.177414
16730000000 -4.2790294 137.9185 -48.313095 -125.23491 -48.716183 -128.28122 -9.3760996 70.429825
16740000000 -4.1573005 137.06073 -48.900135 -149.09291 -49.741745 -150.01106 -9.262208 68.717743
16750000000 -3.9346673 135.89211 -49.102394 -169.9725 -49.960979 -166.94843 -9.2071552 67.11412
16760000000 -3.7432311 134.40511 -49.496506 170.99435 -49.942646 171.84396 -9.1791601 65.590225
16770000000 -3.5833838 132.79588 -49.341705 151.50246 -49.611813 152.63379 -9.2267094 63.796127
16780000000 -3.4764919 131.52676 -48.690781 124.55083 -48.616051 127.34486 -9.2842503 61.700924
16790000000 -3.3449147 130.33148 -49.11903 96.543205 -49.137482 98.759277 -9.3720942 58.958488
16800000000 -3.2233274 129.02292 -49.749283 72.835617 -49.718941 75.347649 -9.3993826 55.810265
16810000000 -3.1220281 127.71641 -50.150055 52.170757 -49.765583 53.505409 -9.3989725 52.35894
16820000000 -3.0138431 126.41908 -50.812893 27.871342 -50.276096 29.496029 -9.3540735 49.030792
16830000000 -2.8708808 124.95451 -51.212135 7.1124778 -50.493851 6.394248 -9.2573624 46.045212
16840000000 -2.7312427 123.38156 -51.383755 -19.246496 -50.855713 -17.87645 -9.1253901 43.54924
16850000000 -2.6136539 121.5816 -52.60318 -41.653336 -51.495266 -41.115395 -9.0070992 41.523758
16860000000 -2.5185862 120.1239 -52.540279 -59.993267 -51.599552 -61.923336 -8.9413233 40.097893
16870000000 -2.3837166 118.70392 -53.034275 -78.442719 -52.509727 -84.184914 -8.9745893 38.639828
16880000000 -2.2535017 117.28291 -52.72813 -102.25102 -52.4081 -108.20291 -9.1256332 37.088478
16890000000 -2.1411912 115.78198 -53.474545 -129.0891 -53.115929 -130.76863 -9.3133631 34.467499
16900000000 -2.0544662 114.55434 -54.738228 -154.80447 -54.65543 -158.7784 -9.522419 31.208075
16910000000 -1.9401098 113.20658 -57.12561 -167.93962 -56.234776 -173.48926 -9.6209488 27.122133
16920000000 -1.8575268 111.74787 -55.778687 179.76306 -55.760296 169.60732 -9.6422338 23.03903
16930000000 -1.7719811 110.19276 -55.073189 164.38672 -55.961155 154.29308 -9.5921583 19.075726
16940000000 -1.7040313 108.67536 -53.983501 133.6859 -54.794964 129.54356 -9.5812998 15.572243
16950000000 -1.6023693 107.02644 -54.661457 102.68691 -55.552547 102.43157 -9.5853119 12.40864
16960000000 -1.5159799 105.31279 -56.011639 78.112061 -56.612076 80.512566 -9.6248541 9.4228716
16970000000 -1.4252535 103.56894 -57.228542 64.870239 -58.042034 63.089828 -9.6800547 6.5787082
16980000000 -1.3606105 101.99644 -57.071529 45.162071 -57.864437 48.852757 -9.8043289 3.7816157
16990000000 -1.2612753 100.51655 -56.205303 21.60779 -57.088322 25.377478 -9.9945488 0.74606252
17000000000 -1.1779398 99.02108 -56.413696 -6.7106524 -57.099033 -3.9935229 -10.251308 -2.8826647
