!Keysight Technologies,P9374A,MY57211807,A.19.30.04
!Date: Friday, May 08, 2026 15:09:24
!Correction: S11(C  2-Port  ) 
!S21(C  2-Port  ) 
!S12(C  2-Port  ) 
!S22(C  2-Port  ) 
!S2P File: Measurements: S11, S21, S12, S22:
# Hz S  dB   R 50
13000000000 -18.633278 58.49221 -46.717068 97.06591 -46.805847 96.048058 -12.074877 -86.050377
13010000000 -18.840441 59.260284 -45.759468 74.529037 -45.910042 73.594887 -12.500021 -89.560776
13020000000 -18.957335 57.541809 -45.104355 49.481312 -45.112511 48.34359 -12.915031 -92.896286
13030000000 -19.629961 58.242199 -44.756306 21.392399 -44.810741 20.118332 -13.350175 -96.281837
13040000000 -20.24456 61.173653 -45.849831 -6.7685633 -45.925892 -8.7898293 -13.859073 -99.871277
13050000000 -20.120966 65.652153 -47.232719 -24.719683 -47.443954 -26.236881 -14.428477 -103.9191
13060000000 -19.986034 66.557838 -46.938595 -36.507275 -46.90152 -36.750843 -15.026979 -109.33064
13070000000 -19.445089 66.4179 -45.842884 -57.297359 -45.752029 -56.933983 -15.58035 -115.21898
13080000000 -19.186724 62.709312 -45.035126 -83.974907 -44.966393 -84.95784 -15.966602 -120.59218
13090000000 -19.069881 58.718079 -45.818199 -112.58214 -45.612633 -112.84303 -16.338808 -125.82085
13100000000 -19.732088 56.702076 -46.360535 -130.209 -46.151623 -131.73924 -16.85239 -130.99849
13110000000 -19.725649 58.62648 -46.119553 -148.84494 -46.259911 -149.31198 -17.480085 -136.99857
13120000000 -20.219618 58.987865 -45.601234 -172.13754 -45.455971 -173.12721 -18.066126 -144.47878
13130000000 -19.861015 63.659256 -45.550579 160.9845 -45.568481 160.26863 -18.437466 -153.16505
13140000000 -19.424013 65.284523 -45.814892 135.11305 -45.83567 133.78354 -18.657242 -161.56595
13150000000 -19.037777 61.909855 -46.701439 117.23935 -46.663155 117.68362 -18.904526 -169.29268
13160000000 -19.328485 62.295593 -47.0341 94.528023 -47.062077 94.362274 -19.194675 -177.67052
13170000000 -18.977314 59.610142 -47.125595 78.895142 -47.030155 78.258011 -19.43656 172.0172
13180000000 -19.497478 57.644466 -46.137165 59.813366 -46.017895 58.41626 -19.281605 160.35233
13190000000 -19.201448 58.072262 -45.052841 33.280136 -45.078045 32.39043 -18.676491 149.67159
13200000000 -19.320742 54.550812 -45.14925 2.583853 -45.075226 1.5155051 -17.951336 141.3456
13210000000 -19.308945 53.718372 -45.918304 -24.769875 -46.018452 -26.140095 -17.348656 134.68344
13220000000 -19.507805 51.129818 -46.599815 -48.933952 -46.54982 -48.99976 -16.965809 128.24377
13230000000 -19.736828 52.483521 -47.691708 -67.678032 -47.431995 -68.924423 -16.577585 120.61371
13240000000 -19.78134 54.555679 -47.143681 -87.6884 -47.046398 -88.509895 -16.043793 112.74123
13250000000 -19.326702 54.921936 -47.865898 -110.31793 -47.871727 -112.10462 -15.270168 105.66002
13260000000 -19.092703 55.673187 -46.902237 -131.30711 -46.790745 -132.8522 -14.42579 99.961899
13270000000 -18.463181 51.013031 -47.340099 -162.8067 -47.246799 -164.74251 -13.735339 95.35553
13280000000 -18.740259 46.560406 -47.963959 171.36185 -47.921886 167.90819 -13.210089 91.252327
13290000000 -19.092216 41.838768 -49.405159 150.86711 -49.438511 148.24319 -12.763972 86.753265
13300000000 -19.894875 39.3531 -49.584476 132.07439 -49.978123 132.05035 -12.321586 81.539322
13310000000 -20.581871 39.915436 -49.952606 109.49178 -49.822155 109.83813 -11.805082 76.401619
13320000000 -20.776665 43.34272 -48.798042 85.042084 -48.959831 85.457802 -11.272502 71.889366
13330000000 -20.311796 45.296753 -49.857906 51.321224 -49.536594 51.190586 -10.756909 68.111839
13340000000 -19.651993 44.41671 -51.550907 23.31776 -51.426304 21.32177 -10.33007 64.525375
13350000000 -19.424509 40.387886 -53.069389 11.044551 -53.169228 10.136744 -10.007303 60.639118
13360000000 -19.253864 37.127724 -52.473454 -6.6881223 -52.649899 -6.4509206 -9.7277622 56.112568
13370000000 -19.598473 31.656258 -52.837173 -35.196632 -52.875427 -34.686077 -9.3835106 51.19434
13380000000 -20.196205 29.903162 -52.567101 -64.417915 -52.793419 -61.878197 -8.961834 46.383419
13390000000 -20.891867 29.029325 -54.466984 -94.334534 -54.571419 -95.662903 -8.5242825 42.125004
13400000000 -21.180389 29.639145 -54.789333 -126.22462 -55.085014 -125.2589 -8.1236048 38.773785
13410000000 -21.818602 29.274494 -60.127544 -164.06685 -59.30341 -170.78467 -7.8201885 35.580299
13420000000 -21.686077 33.485191 -60.715557 -158.33162 -60.636936 -173.60313 -7.6284885 31.884768
13430000000 -21.365381 28.73031 -63.870411 165.66812 -64.219162 140.43207 -7.5015936 27.767071
13440000000 -21.460352 27.488888 -62.564442 149.86264 -63.899433 140.52768 -7.3748255 23.395231
13450000000 -21.295214 25.428488 -65.469185 88.503151 -66.749649 70.741486 -7.1642714 18.962578
13460000000 -21.135448 21.74445 -69.915955 69.604782 -69.921127 57.644085 -6.9315443 14.875756
13470000000 -21.738695 16.140608 -64.746185 -17.835508 -62.9897 -18.536827 -6.7320895 11.067198
13480000000 -22.170673 16.555944 -62.001041 -50.053947 -60.168068 -55.764809 -6.6017718 7.25811
13490000000 -23.052666 10.984373 -58.228092 -121.34956 -56.56818 -126.66549 -6.5544195 3.4745255
13500000000 -24.019409 13.909192 -59.888 -163.57475 -59.01569 -171.92072 -6.5495315 -0.26260945
13510000000 -24.728546 20.906778 -61.499252 175.50084 -60.616154 168.87581 -6.513556 -3.963321
13520000000 -24.352106 22.936131 -59.348461 160.06206 -58.364391 156.80269 -6.4979138 -7.7120938
13530000000 -24.057545 22.774309 -56.328918 144.39014 -55.947651 135.56955 -6.5137134 -11.332852
13540000000 -23.272478 18.851067 -54.560562 104.19155 -54.976898 96.762367 -6.5658641 -15.120781
13550000000 -23.222908 11.111272 -54.743027 66.152748 -54.956566 63.934307 -6.6849909 -18.941376
13560000000 -23.630985 3.9090817 -56.607933 40.257862 -56.823452 38.251461 -6.8122683 -22.799547
13570000000 -25.684237 -0.90874749 -57.256435 33.459332 -56.932514 31.33013 -6.887898 -26.472815
13580000000 -26.647539 4.2790751 -55.433559 9.7051506 -55.568871 6.133585 -6.9466686 -29.878618
13590000000 -28.007196 11.88409 -54.5424 -3.7040415 -55.138474 -6.2805128 -6.9933252 -33.139408
13600000000 -27.422262 22.418901 -53.484123 -33.238499 -53.981281 -34.686607 -7.1045952 -36.228798
13610000000 -26.382547 30.010912 -52.44622 -65.372215 -52.658566 -65.33036 -7.2808356 -39.079498
13620000000 -25.23448 21.529266 -54.60265 -90.3293 -54.636112 -91.590515 -7.4859328 -41.987579
13630000000 -25.971727 14.738406 -53.633915 -114.17506 -53.8447 -112.5743 -7.6879044 -44.948391
13640000000 -26.275234 6.6451149 -55.184433 -139.22845 -55.281857 -142.4185 -7.8826966 -48.175114
13650000000 -28.173561 3.4714589 -55.128551 -160.95821 -56.084496 -164.3871 -8.074976 -51.4095
13660000000 -28.840626 5.5910687 -56.181351 -160.63795 -56.39859 -158.35667 -8.2283802 -54.503986
13670000000 -30.621162 9.9476309 -54.631542 174.20367 -54.384903 177.45026 -8.4106607 -57.314148
13680000000 -29.85775 25.310879 -53.454334 160.92265 -52.803329 161.07162 -8.5718327 -59.81015
13690000000 -28.654114 25.350206 -51.28418 123.70839 -50.958588 121.9332 -8.7413921 -62.240334
13700000000 -27.942738 29.74394 -51.732853 86.386345 -51.396248 86.895042 -8.9503174 -64.868294
13710000000 -26.617563 28.436247 -56.314659 54.619316 -55.855331 56.543205 -9.1818943 -67.626175
13720000000 -26.645779 17.364218 -55.170853 68.883881 -55.049118 67.424744 -9.393774 -70.3414
13730000000 -27.811335 19.123129 -54.415203 49.060211 -54.067204 49.097786 -9.5987844 -72.918854
13740000000 -27.487349 13.823206 -51.329578 15.180072 -51.552876 14.606236 -9.7983284 -75.337608
13750000000 -30.370485 7.5620089 -52.927071 -12.339774 -52.881172 -14.91038 -10.045602 -77.734787
13760000000 -30.747097 21.78117 -52.744377 -42.207474 -52.574528 -41.602024 -10.3573 -80.247505
13770000000 -31.188183 25.430344 -54.655441 -64.893608 -54.411617 -63.571667 -10.646087 -83.28186
13780000000 -29.66326 34.674156 -55.787064 -86.456985 -55.361023 -88.040329 -10.89182 -86.920303
13790000000 -27.703606 29.39459 -54.982159 -101.39348 -54.564995 -100.27825 -11.052322 -90.411484
13800000000 -26.952532 21.777475 -54.898949 -123.36402 -54.421665 -124.73513 -11.148173 -93.06884
13810000000 -25.92288 13.390244 -55.629982 -154.77005 -55.171001 -157.80624 -11.260781 -95.027702
13820000000 -26.418087 -3.0880256 -58.291988 -163.89053 -58.140572 -170.60571 -11.475841 -96.732315
13830000000 -28.312893 -0.76740116 -58.130871 -169.78217 -58.371407 -167.93959 -11.757143 -98.837524
13840000000 -28.483097 -7.3689032 -56.937817 169.20451 -56.266403 164.6042 -12.101315 -101.87299
13850000000 -31.722412 2.9651 -57.983215 157.16541 -58.153194 149.33727 -12.399604 -105.24041
13860000000 -29.950247 16.026781 -55.788475 134.02217 -56.354095 127.82892 -12.591125 -108.67133
13870000000 -28.611872 15.240333 -54.986343 104.74741 -55.568905 103.43618 -12.775843 -111.85947
13880000000 -27.858202 7.9360175 -57.337109 81.989609 -58.070938 83.210312 -12.989592 -114.84433
13890000000 -26.819984 1.6811094 -58.049213 70.506149 -58.107193 67.650314 -13.266439 -118.04643
13900000000 -26.819721 -15.044873 -58.193253 70.807564 -59.161636 75.890991 -13.516134 -121.63627
13910000000 -27.715424 -17.512465 -53.891331 50.920105 -53.327477 52.626877 -13.673449 -125.66
13920000000 -28.095911 -27.442118 -53.664833 10.6744 -53.539806 10.550686 -13.775717 -129.4729
13930000000 -29.593681 -29.242222 -54.70694 -9.8212004 -54.738586 -12.647511 -13.862528 -132.39816
13940000000 -30.219778 -30.181076 -53.071747 -32.035919 -53.260101 -34.371441 -14.032064 -135.25491
13950000000 -31.583393 -29.648092 -54.233631 -64.672562 -54.450333 -64.063019 -14.32432 -138.14851
13960000000 -31.491428 -23.101345 -54.233574 -77.521805 -54.28138 -76.657944 -14.675387 -142.11313
13970000000 -30.16283 -29.525801 -54.742184 -99.147881 -54.224808 -102.25858 -14.998774 -147.19165
13980000000 -30.587355 -37.24744 -54.139069 -131.35544 -54.191914 -129.52394 -15.196206 -152.84676
13990000000 -28.871086 -39.382019 -55.13599 -142.83263 -54.750267 -144.25845 -15.231581 -158.46387
14000000000 -27.91091 -56.445999 -54.580967 -171.58553 -53.749241 -176.63039 -15.167974 -163.72025
14010000000 -27.466301 -67.322182 -55.818722 169.9993 -55.208359 167.86385 -15.079045 -168.67764
14020000000 -27.887541 -76.416931 -55.868076 144.08289 -55.221329 139.95305 -15.022218 -173.43123
14030000000 -28.788313 -85.135239 -56.38953 128.06071 -56.421101 125.49876 -15.002213 -177.70201
14040000000 -30.549562 -89.300323 -56.534241 105.09026 -56.517059 100.82302 -14.951438 177.86372
14050000000 -31.908775 -79.96875 -55.549538 79.022354 -55.829823 76.805428 -14.900697 173.0163
14060000000 -32.254124 -73.220818 -58.863552 40.407482 -58.301792 41.515343 -14.844355 168.09756
14070000000 -30.846617 -68.332825 -65.444908 36.082413 -66.048119 36.289303 -14.73712 163.17509
14080000000 -30.124752 -82.080719 -61.307564 65.617386 -63.59597 65.857445 -14.605628 158.47769
14090000000 -29.259501 -87.000916 -58.551975 36.856716 -58.306873 41.366085 -14.496033 153.86125
14100000000 -27.855246 -108.34576 -57.538162 20.932587 -57.74194 24.156813 -14.362997 148.94659
14110000000 -28.723206 -121.34303 -56.089279 -11.766044 -56.372391 -7.1599941 -14.234158 143.69487
14120000000 -28.854198 -130.11775 -58.701687 -37.596638 -58.13842 -38.306435 -14.001374 138.56393
14130000000 -28.943583 -135.64661 -58.684483 -26.619682 -58.808102 -26.279514 -13.642589 133.45503
14140000000 -29.606627 -140.07643 -55.473301 -46.826542 -55.298668 -46.331577 -13.322273 128.88092
14150000000 -30.32021 -132.88991 -53.591442 -75.450912 -52.905083 -75.033371 -13.097045 124.93841
14160000000 -29.28088 -133.93243 -53.025734 -109.98702 -52.396622 -109.80179 -12.891253 120.84382
14170000000 -29.632664 -133.48483 -54.058681 -133.32672 -53.998219 -132.34843 -12.685602 116.28677
14180000000 -29.186213 -138.06819 -53.798374 -143.26581 -53.511063 -145.49194 -12.396542 111.2363
14190000000 -28.597351 -139.84859 -53.154427 -168.43538 -53.069473 -171.1362 -12.029803 106.34371
14200000000 -27.401196 -146.99448 -51.650513 166.5396 -51.279728 163.84244 -11.651985 102.10871
14210000000 -27.410301 -156.62587 -51.852089 136.70427 -51.324551 133.28717 -11.322766 98.405128
14220000000 -27.088169 -161.74783 -52.279297 112.51202 -51.859299 107.31458 -11.050382 94.865601
14230000000 -27.089451 -169.94197 -52.728287 86.93367 -52.81741 78.474808 -10.820449 90.988579
14240000000 -27.700411 -174.13373 -53.005482 68.301956 -53.669449 63.66103 -10.579446 86.813019
14250000000 -28.428595 -173.10435 -52.755943 49.947277 -53.137909 48.885937 -10.318289 82.504051
14260000000 -29.530849 -169.80937 -52.505127 20.788742 -52.759918 19.689062 -10.054721 78.432922
14270000000 -28.411255 -158.81566 -52.857647 -0.36268231 -53.337181 -3.8641369 -9.8090467 74.548775
14280000000 -27.634792 -164.48657 -52.47533 -27.877886 -53.115429 -29.963816 -9.6122561 70.6073
14290000000 -26.752304 -165.89656 -53.834618 -58.334438 -54.224056 -57.661167 -9.416213 66.390572
14300000000 -26.710018 -176.34357 -56.65271 -68.668732 -57.080975 -69.840485 -9.219368 61.852901
14310000000 -26.736017 179.62619 -55.611454 -87.876091 -56.236992 -88.225121 -8.9948254 57.387653
14320000000 -27.189198 167.59535 -56.088554 -112.39436 -57.644756 -110.67439 -8.7524595 53.133801
14330000000 -28.239807 168.8062 -57.413197 -128.68159 -58.427189 -118.46152 -8.5339241 49.116985
14340000000 -29.254808 171.28564 -56.992664 -139.95334 -57.057274 -132.08229 -8.3775072 45.237118
14350000000 -28.532001 -179.76205 -57.058189 -148.92477 -56.384163 -149.37724 -8.2635822 41.365585
14360000000 -28.340513 179.61658 -56.064278 175.72754 -56.336308 178.94595 -8.1890936 37.174862
14370000000 -27.460728 -178.32886 -57.342663 152.18681 -56.578957 155.84801 -8.144515 32.561119
14380000000 -27.401344 175.31425 -59.556957 120.97577 -58.810329 122.29537 -8.0896406 27.850502
14390000000 -27.137419 176.75853 -61.938885 153.64905 -60.574909 154.8855 -8.0310516 23.076326
14400000000 -27.281082 167.71074 -58.233421 139.48076 -57.094387 135.65407 -7.9648323 18.450771
14410000000 -28.245983 167.84026 -53.626301 112.95518 -53.559574 107.26944 -7.9026375 14.079699
14420000000 -28.352564 167.57033 -53.923347 84.265564 -54.52803 80.315987 -7.8792129 9.7368422
14430000000 -28.43182 167.12296 -53.850132 43.502316 -54.093174 43.000168 -7.9340758 5.3436742
14440000000 -29.088366 168.95352 -58.506153 22.91662 -58.301811 23.603039 -8.0359306 0.9373455
14450000000 -28.189695 175.95934 -56.389313 37.751369 -56.773399 33.15535 -8.1664076 -3.6540492
14460000000 -27.944971 177.40387 -53.259254 10.775864 -53.296452 13.249873 -8.2971716 -8.3363171
14470000000 -26.860146 -179.89085 -52.737522 -27.089966 -52.338234 -28.982191 -8.4559479 -13.014565
14480000000 -26.331821 177.37515 -55.55275 -48.61113 -55.435852 -50.91309 -8.6534796 -17.640759
14490000000 -26.234255 172.44513 -55.095478 -64.579582 -54.728733 -64.810654 -8.8941555 -22.605612
14500000000 -26.579172 172.79701 -53.460419 -71.539803 -53.410374 -74.550995 -9.2125254 -27.974302
14510000000 -26.931694 166.53728 -52.084545 -103.32937 -52.469154 -104.71898 -9.490756 -33.322361
14520000000 -28.841124 175.98192 -52.72654 -126.21706 -52.580128 -128.26543 -9.7041473 -38.679741
14530000000 -27.887363 178.64877 -52.886772 -154.50992 -52.816921 -153.73538 -9.9123669 -43.634518
14540000000 -27.048161 -170.30873 -54.026241 -172.7084 -53.215008 -174.44867 -10.221171 -48.045589
14550000000 -25.151676 -178.23241 -53.113266 169.1158 -52.833752 165.91867 -10.64323 -52.251968
14560000000 -24.816492 -179.24269 -53.66114 140.34679 -53.55748 137.80099 -11.167185 -57.020447
14570000000 -23.901598 172.91449 -53.363285 134.56407 -53.649815 131.41519 -11.703959 -62.697632
14580000000 -24.211134 168.80435 -52.805214 111.47343 -52.998444 106.63545 -12.202007 -69.011726
14590000000 -24.945171 163.47018 -52.044598 89.677414 -51.989174 88.061707 -12.697705 -75.135979
14600000000 -25.635721 175.32326 -51.811916 62.834259 -51.54612 58.388016 -13.155927 -80.918121
14610000000 -25.021839 175.30632 -53.087265 36.821041 -53.04335 32.589787 -13.687108 -86.993828
14620000000 -24.361599 -177.01981 -55.199932 22.608923 -56.353287 15.138254 -14.296636 -93.803154
14630000000 -23.237801 177.91714 -53.544674 27.777071 -53.911594 23.780304 -14.88853 -101.31862
14640000000 -22.644213 176.1032 -50.925522 5.55828 -51.501087 4.6952972 -15.320805 -108.77679
14650000000 -22.168194 169.45827 -50.303753 -32.250881 -50.96114 -31.683472 -15.709084 -116.19376
14660000000 -22.169472 165.14235 -51.413654 -52.831242 -51.860641 -53.859478 -16.187187 -122.83597
14670000000 -22.783848 161.7854 -51.484596 -73.854408 -51.95697 -72.717323 -16.755983 -130.01392
14680000000 -22.680277 163.40172 -51.211422 -89.913887 -51.046185 -87.507179 -17.446003 -138.84306
14690000000 -22.834364 164.45627 -50.515591 -115.11147 -50.577263 -113.04996 -17.983526 -148.8353
14700000000 -22.04361 166.37971 -50.992775 -132.99971 -50.744534 -128.99081 -18.213491 -159.87999
14710000000 -21.983595 165.03955 -49.43803 -144.8098 -49.019352 -143.70903 -18.115469 -170.995
14720000000 -21.436895 165.6618 -48.387718 -176.42593 -48.185356 -175.38972 -17.944794 178.2655
14730000000 -20.953176 161.63672 -48.864918 162.9494 -48.284988 163.97458 -17.700268 169.63203
14740000000 -20.684084 156.28964 -47.614784 141.07883 -47.189342 139.96349 -17.34445 161.96378
14750000000 -20.969652 153.64731 -47.727818 114.42904 -47.221104 113.88647 -17.070683 154.62538
14760000000 -20.6668 150.85759 -47.85994 87.114349 -47.151489 84.983162 -16.898663 147.64667
14770000000 -21.16235 146.82703 -48.32394 70.329819 -47.98455 66.455612 -16.759918 140.48712
14780000000 -21.120417 146.35349 -48.316345 45.665043 -47.787182 42.431103 -16.490416 132.881
14790000000 -21.430056 147.52425 -48.348766 34.565697 -48.151081 31.342882 -16.110228 125.46488
14800000000 -20.748726 149.74355 -46.759613 7.746459 -46.454483 5.1378789 -15.667211 119.37431
14810000000 -20.56258 148.90877 -46.691216 -16.852226 -46.356163 -20.024996 -15.193427 113.98112
14820000000 -19.736479 148.05141 -46.629303 -44.385338 -46.396114 -49.121429 -14.8175 108.92027
14830000000 -19.698393 142.0219 -47.026897 -64.635033 -47.136589 -68.753807 -14.503715 104.03829
14840000000 -19.767227 137.82343 -47.399384 -86.878593 -47.466961 -91.475975 -14.190169 99.267334
14850000000 -20.40395 133.52261 -47.248947 -104.92287 -47.353447 -108.53809 -13.875232 95.137039
14860000000 -20.795858 132.21564 -46.670029 -129.74019 -47.104816 -133.17769 -13.583852 91.390465
14870000000 -21.748854 130.49277 -47.047661 -150.66164 -47.461506 -152.44606 -13.454498 88.097092
14880000000 -21.530376 134.54665 -46.763817 -170.87386 -47.067577 -172.04752 -13.412407 84.569206
14890000000 -21.159857 134.25195 -46.242634 166.71539 -46.425652 164.9131 -13.381523 79.925293
14900000000 -20.524132 131.64255 -46.005989 146.18739 -46.425415 144.46471 -13.282298 74.803093
14910000000 -20.239241 129.10771 -45.718971 117.29772 -46.299187 117.07737 -13.015023 70.144753
14920000000 -19.998243 123.70993 -45.81102 100.05917 -46.339119 100.13248 -12.697886 66.503197
14930000000 -20.458935 120.19398 -46.357967 73.452377 -46.508484 75.626427 -12.483341 64.001015
14940000000 -20.945229 117.60102 -45.856098 56.390553 -45.970356 57.940701 -12.444008 61.692879
14950000000 -21.564888 121.2026 -45.661472 31.644512 -45.749607 32.698364 -12.548869 59.252037
14960000000 -21.722832 118.79604 -44.973793 10.730978 -45.002071 11.167591 -12.677835 56.24427
14970000000 -22.286386 123.20196 -45.009998 -13.101691 -44.968948 -12.673206 -12.729811 53.128967
14980000000 -22.262123 121.11087 -44.457615 -38.892437 -44.477009 -37.677895 -12.784801 49.983505
14990000000 -22.071161 123.13683 -44.663635 -65.050186 -44.501007 -64.657982 -12.959415 47.227776
15000000000 -22.0133 116.78232 -45.05838 -91.819458 -44.911362 -93.186348 -13.227064 44.625313
15010000000 -22.472334 116.62588 -45.72897 -112.74329 -45.766155 -111.48252 -13.56255 41.821854
15020000000 -22.536869 112.36886 -46.002468 -134.76349 -45.691525 -134.03395 -13.679189 38.525795
15030000000 -22.726875 112.55618 -46.41087 -153.77962 -46.034187 -153.02298 -13.684256 34.863388
15040000000 -23.278009 107.89124 -46.12072 -171.2758 -45.758865 -173.0258 -13.689773 32.637493
15050000000 -23.941046 113.01412 -44.893867 165.48531 -44.58633 164.0753 -13.761158 32.128357
15060000000 -24.286121 114.86157 -44.681011 134.95888 -44.281303 133.77922 -14.090265 32.531353
15070000000 -24.212528 121.09005 -44.993378 106.73264 -44.668911 103.96671 -14.577851 33.122025
15080000000 -24.021412 122.43974 -46.320724 76.864662 -45.85091 74.607399 -15.121749 33.090073
15090000000 -23.526987 122.78551 -48.599918 58.736942 -48.091644 55.193176 -15.653016 31.707497
15100000000 -23.711866 119.8326 -48.617111 51.967937 -48.302601 48.512482 -16.093721 30.33132
15110000000 -23.880125 118.58889 -47.24963 32.613148 -47.253387 28.01457 -16.482561 29.73822
15120000000 -24.472147 115.32076 -46.489147 3.1485796 -46.366783 -0.041236818 -16.763094 30.645918
15130000000 -25.132824 114.57145 -47.516525 -19.39632 -47.571194 -24.114206 -16.974291 31.868727
15140000000 -26.086527 120.81803 -46.839603 -42.691254 -47.186207 -46.318222 -17.111223 33.015621
15150000000 -25.135408 127.71319 -47.738762 -68.197777 -47.833096 -70.329323 -17.119034 34.267155
15160000000 -24.839903 128.97029 -47.830463 -87.137306 -48.174351 -91.581932 -17.028973 36.425121
15170000000 -23.855982 131.24377 -48.388691 -109.66809 -48.814163 -112.55047 -16.859177 39.742165
15180000000 -23.160772 128.57813 -49.385406 -133.50301 -49.819466 -134.59192 -16.662952 43.521595
15190000000 -22.760771 124.08193 -49.330784 -144.20329 -49.570644 -146.36879 -16.567781 46.891777
15200000000 -23.392855 121.12669 -48.543076 -167.40872 -49.062157 -168.38501 -16.517807 49.406506
15210000000 -23.498056 120.81667 -48.705097 174.1875 -48.97821 178.08702 -16.485693 50.358505
15220000000 -24.453133 122.36773 -47.556736 147.50722 -47.642735 148.5676 -16.426033 50.275173
15230000000 -24.42548 125.9609 -47.211437 121.81391 -46.952709 122.96521 -16.217985 49.947323
15240000000 -24.34901 131.82262 -48.571117 89.335823 -48.673607 89.128593 -15.825768 49.420891
15250000000 -23.218094 131.12944 -49.913597 74.374359 -49.547367 76.948677 -15.370446 48.294983
15260000000 -22.78801 128.75574 -49.520409 61.07584 -49.411968 62.349274 -14.92183 47.122147
15270000000 -22.133142 125.45798 -48.355804 37.410469 -47.962032 38.413155 -14.45289 46.048836
15280000000 -21.777182 117.97964 -48.090145 13.452585 -47.612354 12.890351 -14.018533 45.665764
15290000000 -22.282406 112.71409 -47.743126 -14.040078 -47.368279 -15.361292 -13.654242 45.804916
15300000000 -22.858826 110.43046 -47.982243 -41.398514 -47.584976 -42.586567 -13.378444 46.001568
15310000000 -23.724649 110.98751 -48.68119 -69.375793 -48.184517 -71.098503 -13.216912 45.01075
15320000000 -24.000536 116.06269 -49.129482 -92.920227 -48.759289 -96.169167 -13.19634 42.987408
15330000000 -23.681648 121.11382 -50.316154 -114.3934 -49.953335 -116.74606 -13.182238 40.2976
15340000000 -22.779818 120.01411 -50.058704 -135.33318 -49.844456 -138.72005 -13.089481 37.53524
15350000000 -22.322277 119.0075 -50.310028 -155.41058 -50.260479 -160.33124 -12.874804 34.866257
15360000000 -21.910635 110.73411 -49.475101 174.73912 -49.514221 172.47501 -12.687429 32.304817
15370000000 -22.399467 106.30209 -49.969967 143.22818 -49.847496 140.10271 -12.528606 29.669874
15380000000 -22.516224 97.963371 -52.472546 113.86368 -52.342667 107.93242 -12.38555 26.45661
15390000000 -24.132393 94.662025 -53.115646 103.58397 -53.507874 98.655754 -12.242859 23.472824
15400000000 -24.814421 95.939682 -53.087624 84.276176 -53.274979 82.530327 -12.08367 21.109131
15410000000 -25.553633 101.68746 -51.309509 56.9324 -51.60487 53.23595 -11.957989 19.554287
15420000000 -25.296625 102.91168 -52.44759 19.688454 -52.916721 14.98225 -11.974559 18.224369
15430000000 -24.94363 106.06493 -54.857754 -14.416139 -55.74181 -20.344238 -12.154965 16.041988
15440000000 -24.275501 102.42297 -59.738876 -24.059404 -61.655411 -25.190197 -12.496281 12.450698
15450000000 -24.151783 98.05938 -57.92308 -41.756443 -59.031605 -39.892982 -12.795275 7.6563811
15460000000 -24.272039 87.682701 -57.596333 -52.231167 -57.709484 -47.798035 -12.903825 2.3467696
15470000000 -25.711042 84.194168 -56.164326 -90.289032 -56.198719 -90.130936 -12.892387 -2.4632459
15480000000 -26.350565 77.641205 -56.944439 -109.30154 -57.669106 -107.99702 -12.863248 -5.8783188
15490000000 -28.532446 75.071877 -57.451538 -151.5218 -57.802437 -149.8788 -12.930448 -8.9921503
15500000000 -30.075188 79.087967 -57.457333 -178.66597 -57.767742 -174.48981 -13.168125 -12.029178
15510000000 -30.891533 90.874565 -61.100105 137.59825 -61.627747 141.46873 -13.499805 -15.186855
15520000000 -30.708084 93.455322 -62.254955 127.71313 -62.880768 139.42198 -13.883291 -18.486858
15530000000 -29.276796 99.028633 -60.138493 101.83775 -59.643536 109.93082 -14.323655 -22.067068
15540000000 -29.197992 84.842003 -59.399155 50.221321 -60.043068 51.626225 -14.901998 -26.090149
15550000000 -29.59115 80.020935 -63.992054 -3.0234404 -65.865829 -0.90821892 -15.678125 -30.859577
15560000000 -31.219961 61.667561 -68.756981 -19.810341 -71.244087 5.4569902 -16.392654 -36.643982
15570000000 -34.55114 53.663967 -65.734581 13.518866 -62.987801 22.22089 -17.068361 -44.031994
15580000000 -39.113361 19.299417 -59.009846 -30.16783 -58.400383 -31.813955 -17.626257 -52.02002
15590000000 -54.09095 178.36389 -59.028496 -83.377213 -59.366798 -84.816696 -18.096443 -59.541363
15600000000 -46.487011 -161.41013 -58.285549 -118.65906 -58.691063 -119.60043 -18.523737 -66.333496
15610000000 -38.369617 175.47693 -59.945343 -154.14282 -60.397118 -146.88531 -19.052696 -72.791817
15620000000 -40.245697 159.29558 -58.032818 -173.87212 -57.860191 -173.13377 -19.872408 -78.92437
15630000000 -40.033405 147.57152 -59.323212 150.69705 -60.5695 155.21959 -20.889482 -84.592545
15640000000 -60.976727 -155.51443 -58.076748 136.12759 -58.246822 137.28368 -22.049944 -93.166039
15650000000 -42.245033 -130.74753 -56.823605 103.28241 -57.380959 101.03706 -23.315725 -106.78841
15660000000 -37.035515 -104.83755 -58.149849 79.447136 -58.660797 80.513748 -23.948629 -125.09865
15670000000 -32.854755 -125.56171 -57.545044 56.836704 -57.592663 54.398586 -23.54501 -143.16258
15680000000 -30.718561 -127.79052 -56.64193 44.456749 -56.805256 50.420864 -22.575167 -155.52466
15690000000 -29.249445 -139.24655 -55.055107 16.645887 -54.826241 17.978552 -21.814932 -164.54601
15700000000 -27.91548 -143.60973 -54.670177 -8.789176 -54.306435 -8.2777777 -21.278969 -172.48814
15710000000 -28.246338 -154.74556 -53.392712 -38.278023 -53.471146 -37.299023 -20.813 178.94255
15720000000 -28.161966 -151.56912 -53.421169 -73.974632 -53.249294 -74.516129 -20.276798 170.64571
15730000000 -28.942682 -154.03734 -55.504925 -96.405853 -54.706768 -94.386703 -19.664883 164.01665
15740000000 -28.448736 -143.45699 -54.714123 -111.75788 -54.41494 -115.52932 -19.105259 158.16986
15750000000 -28.148523 -139.99449 -53.900158 -139.07303 -53.823883 -141.97479 -18.713511 152.23097
15760000000 -26.20047 -135.26613 -56.088211 -160.43539 -56.309059 -161.34688 -18.262735 145.30365
15770000000 -24.860924 -139.37587 -53.242645 -166.01834 -52.984394 -168.47939 -17.608948 138.31326
15780000000 -23.690048 -145.7187 -52.506863 158.69945 -52.444996 155.13242 -16.727524 133.20909
15790000000 -23.460539 -153.34387 -52.343876 131.01308 -52.286274 129.60008 -15.832699 130.20282
15800000000 -23.49608 -158.7505 -52.55275 98.487 -52.026608 96.657921 -15.173752 128.64574
15810000000 -24.101982 -161.24567 -55.925411 77.8647 -55.788795 72.059708 -14.846082 127.63035
15820000000 -24.484674 -158.05707 -54.699715 66.001297 -54.786003 60.319683 -14.67669 126.1054
15830000000 -24.456781 -150.39362 -54.622574 41.567604 -54.955544 37.661114 -14.559518 123.22653
15840000000 -23.315638 -144.94496 -54.391415 26.724884 -54.646973 27.246439 -14.383096 119.56696
15850000000 -22.237103 -147.0722 -53.586903 0.88115412 -53.53191 -2.1964569 -14.142508 115.74226
15860000000 -21.519089 -150.05482 -53.916386 -26.285233 -53.722847 -28.97216 -13.847685 112.22217
15870000000 -21.258915 -154.80733 -54.929321 -47.696842 -55.21104 -48.38065 -13.537847 109.07159
15880000000 -21.451859 -158.61206 -54.31086 -58.121529 -54.529373 -57.634823 -13.18398 105.99306
15890000000 -21.841442 -159.26767 -53.777534 -85.395866 -54.16663 -87.600082 -12.807991 102.95483
15900000000 -22.003742 -159.17291 -53.585907 -115.11016 -53.767719 -113.93388 -12.459622 100.61717
15910000000 -21.969088 -156.06944 -56.104313 -133.14038 -55.677593 -137.27452 -12.126763 98.876869
15920000000 -21.246109 -154.2316 -55.709415 -141.03015 -56.090084 -141.58148 -11.854249 97.749596
15930000000 -20.727339 -154.19809 -55.160721 -157.80936 -55.32988 -158.3078 -11.668469 96.431526
15940000000 -20.275961 -154.84802 -55.163193 -174.30103 -55.062031 -174.78407 -11.586261 94.772278
15950000000 -19.858717 -154.70572 -52.736927 163.1752 -52.271286 161.6584 -11.557454 92.717567
15960000000 -19.477415 -156.45447 -52.603725 134.80798 -52.20612 134.2737 -11.552061 90.37722
15970000000 -19.270817 -156.81514 -52.394089 107.71089 -52.227421 106.80672 -11.52524 87.711823
15980000000 -19.335388 -157.90604 -53.28759 87.539658 -53.507622 87.723038 -11.422893 84.633186
15990000000 -19.248165 -156.55107 -53.800205 70.380341 -53.402138 69.963951 -11.239976 81.581779
16000000000 -19.298086 -156.65466 -52.650711 50.893429 -52.42009 51.767002 -10.977507 79.000008
16010000000 -19.096647 -154.58891 -52.696342 32.98032 -52.587154 29.55932 -10.694719 76.944305
16020000000 -18.709579 -153.75439 -50.822296 6.7772837 -50.703182 5.4260831 -10.520248 75.435616
16030000000 -17.990223 -152.38641 -51.196934 -19.688648 -51.131485 -20.460165 -10.456941 74.147636
16040000000 -17.391724 -155.45068 -50.984756 -48.48201 -50.821587 -48.102287 -10.481135 72.782837
16050000000 -17.12619 -157.95177 -52.31382 -69.50148 -51.954109 -70.836075 -10.496905 70.715157
16060000000 -16.988852 -159.4216 -52.722569 -84.355591 -52.028973 -85.847702 -10.537434 67.976799
16070000000 -16.915314 -159.49446 -51.708778 -102.35881 -51.383881 -105.58068 -10.563491 65.29464
16080000000 -16.833673 -158.25543 -51.511715 -133.80699 -51.283165 -137.83578 -10.605448 62.890293
16090000000 -16.462292 -156.35121 -52.109802 -153.35196 -52.031826 -155.92229 -10.657023 60.329109
16100000000 -16.026749 -156.35545 -52.562691 -175.09541 -52.424469 -178.40382 -10.698704 57.340961
16110000000 -15.617519 -156.72948 -52.92255 173.30273 -52.978306 168.44447 -10.673235 53.916767
16120000000 -15.193409 -158.08032 -51.684052 152.99881 -51.697025 149.37616 -10.588681 50.47728
16130000000 -14.94752 -160.17323 -51.157108 129.00169 -51.35725 126.29459 -10.45429 48.270309
16140000000 -14.903384 -160.79567 -50.736317 103.5683 -50.731899 100.17041 -10.38738 47.073254
16150000000 -14.574501 -161.79701 -51.175098 72.328117 -51.171341 68.876015 -10.474027 46.212555
16160000000 -14.336988 -162.13573 -52.931343 53.653088 -52.811821 51.922066 -10.734418 44.726067
16170000000 -13.851485 -163.23848 -53.795914 36.974155 -53.928143 35.730289 -11.091608 42.087696
16180000000 -13.642898 -163.92935 -52.774136 28.808413 -53.121651 28.510426 -11.439835 38.159664
16190000000 -13.28206 -164.90398 -51.80291 9.1293726 -51.678009 4.8817835 -11.70701 33.589535
16200000000 -13.198861 -165.25676 -49.745533 -14.634101 -49.673267 -16.932261 -11.962714 29.351376
16210000000 -12.860988 -165.69835 -49.562965 -49.657501 -49.550907 -51.815914 -12.256763 25.740162
16220000000 -12.699242 -165.49161 -50.693249 -81.950661 -50.743034 -83.088921 -12.552092 22.573036
16230000000 -12.213328 -166.87236 -52.661499 -96.322327 -52.872112 -96.90773 -12.781878 19.030359
16240000000 -12.076316 -167.93889 -52.759045 -110.57349 -52.993526 -111.87376 -12.996079 15.56162
16250000000 -11.813962 -170.40263 -52.114761 -125.21452 -52.238781 -124.76859 -13.25899 13.000164
16260000000 -11.733344 -171.98241 -50.880013 -145.31888 -51.039623 -145.16133 -13.698609 11.616549
16270000000 -11.542214 -173.43529 -50.090256 -173.23511 -50.177471 -173.08383 -14.388331 10.374948
16280000000 -11.441367 -174.21321 -50.21907 163.6041 -50.222519 165.03903 -15.424895 8.2636509
16290000000 -11.107997 -174.65768 -50.559002 135.59409 -50.649643 136.86931 -16.663427 4.1772671
16300000000 -10.854598 -175.45711 -51.646763 115.56944 -51.347836 118.56719 -17.929895 -1.58998
16310000000 -10.503962 -176.46315 -50.886337 105.08969 -50.559261 103.80138 -18.951719 -8.494976
16320000000 -10.292289 -177.83226 -49.763126 71.962822 -49.481857 71.401184 -19.989595 -15.483576
16330000000 -10.073087 -178.8318 -50.190742 50.374874 -49.939884 48.822868 -21.292152 -21.577051
16340000000 -9.9718189 179.93376 -51.592621 26.487869 -51.090359 24.925184 -22.826241 -27.45579
16350000000 -9.8039112 178.94958 -50.403515 10.564976 -50.136848 8.0951366 -24.740576 -33.053112
16360000000 -9.6909151 177.4942 -50.490032 -17.538773 -50.406849 -17.681402 -27.157158 -37.893456
16370000000 -9.5653172 176.31198 -51.482552 -38.842239 -51.241138 -40.52195 -31.479713 -40.493427
16380000000 -9.4448109 174.90913 -50.973209 -50.600616 -50.535763 -51.822826 -43.898342 -55.552914
16390000000 -9.2844706 173.75014 -50.105282 -80.367477 -49.915432 -83.42791 -35.460167 153.50375
16400000000 -9.1325703 172.79784 -50.002506 -107.1637 -49.721222 -110.24251 -28.154696 154.79022
16410000000 -8.9035015 171.99133 -51.364861 -134.05766 -51.30265 -137.16151 -24.78302 154.48087
16420000000 -8.6284332 171.13483 -51.57299 -148.17548 -51.518501 -151.84425 -22.920818 154.45262
16430000000 -8.3498898 169.61172 -52.844757 -173.90901 -52.62455 -177.70578 -21.511419 151.61237
16440000000 -8.2270603 168.11028 -51.647053 176.33466 -51.755859 174.05539 -20.391748 146.15147
16450000000 -8.1551619 166.78308 -51.255222 155.73499 -51.310795 152.91704 -19.372408 140.78601
16460000000 -8.1393929 166.10873 -50.446575 126.50429 -50.617645 124.25651 -18.559498 136.69431
16470000000 -8.04877 165.53104 -50.809769 102.59123 -50.919914 100.79089 -17.848003 133.55202
16480000000 -7.9757223 165.00064 -50.731995 76.794228 -51.280457 75.642334 -17.094292 129.55789
16490000000 -7.7592096 164.40068 -50.989449 53.03611 -51.099659 51.692715 -16.295691 124.44479
16500000000 -7.5332174 163.21158 -51.016464 31.083326 -51.124565 29.753189 -15.408474 120.28618
16510000000 -7.3140402 161.12337 -51.532955 2.4953387 -52.04129 0.83749437 -14.52645 118.26804
16520000000 -7.240571 159.7859 -52.75161 -16.611055 -52.822643 -15.698075 -13.820418 117.50741
16530000000 -7.0577078 158.43556 -52.260155 -32.547199 -52.219151 -33.05286 -13.432376 116.99953
16540000000 -7.0284171 157.45078 -52.287689 -55.705231 -51.789265 -54.521988 -13.298748 115.48495
16550000000 -6.8956943 156.99944 -50.948547 -79.384132 -50.986275 -79.29052 -13.234793 112.81645
16560000000 -6.7478485 156.82718 -50.639248 -115.17258 -50.554134 -114.02642 -13.059564 109.14212
16570000000 -6.5416327 155.71959 -51.874199 -145.05975 -51.946194 -145.58348 -12.763361 105.61131
16580000000 -6.4445868 155.03444 -53.209496 -175.39493 -53.143642 -173.59021 -12.42567 102.74884
16590000000 -6.261621 153.95657 -55.311214 160.74361 -54.53299 162.79933 -12.130807 100.303
16600000000 -6.1559882 152.65396 -57.428299 140.78142 -56.907707 140.19963 -11.858016 97.854988
16610000000 -6.0300107 151.44719 -58.033798 125.17467 -57.573757 129.25844 -11.557369 95.222092
16620000000 -5.890974 150.19751 -58.835941 117.79902 -58.238522 115.25961 -11.215589 92.858078
16630000000 -5.7254243 148.82858 -57.122948 86.240173 -56.851128 82.614571 -10.887348 91.523155
16640000000 -5.6241078 147.73068 -58.832703 53.485947 -57.975552 53.515312 -10.649518 90.940544
16650000000 -5.430872 146.85074 -60.86887 36.323154 -60.703449 33.955082 -10.566658 90.319077
16660000000 -5.2948141 145.91988 -61.681435 12.055517 -61.316772 8.8641396 -10.60954 88.975624
16670000000 -5.1255155 145.20641 -63.553154 -26.202265 -63.973755 -30.305744 -10.704961 86.333862
16680000000 -4.9420104 144.4794 -68.74646 -56.040909 -69.605598 -63.386497 -10.74411 82.820549
16690000000 -4.7243471 143.28473 -77.529289 140.4295 -84.331268 154.57408 -10.640531 79.297592
16700000000 -4.6098232 141.83908 -64.967781 55.351738 -66.153435 48.053001 -10.447183 76.266335
16710000000 -4.480536 140.63579 -59.631447 -0.19684581 -61.671307 -1.4792415 -10.220338 74.093597
16720000000 -4.3773108 139.27487 -60.354626 -57.32325 -61.53178 -57.919273 -10.027126 72.414047
16730000000 -4.2479367 137.91043 -63.125092 -101.89973 -64.736153 -99.524284 -9.8577709 70.918762
16740000000 -4.1462636 136.80739 -77.473122 -147.50204 -82.711548 -117.83167 -9.7365093 69.419365
16750000000 -3.9627581 135.78525 -64.587715 -58.621185 -65.005478 -53.036907 -9.6872702 67.999344
16760000000 -3.7696023 134.44498 -62.499241 -85.442108 -61.621193 -81.402115 -9.696414 66.729347
16770000000 -3.5984023 132.91379 -62.544083 -121.33145 -61.532066 -124.80898 -9.7567396 65.235855
16780000000 -3.4725969 131.67749 -62.108376 -155.69702 -60.94371 -154.41954 -9.8227816 63.201641
16790000000 -3.3276858 130.30513 -65.726791 178.94402 -64.782272 -177.43254 -9.8928213 60.416351
16800000000 -3.2353723 129.02951 -61.502037 -170.79454 -60.947266 -172.85286 -9.9397383 57.011536
16810000000 -3.1062694 127.78997 -61.812675 140.63011 -60.775333 136.23515 -9.9593868 53.607479
16820000000 -2.9972937 126.35908 -63.374851 124.20911 -62.57003 123.11102 -9.8951664 50.360714
16830000000 -2.8640976 124.85368 -63.910927 100.63573 -64.895187 100.52085 -9.7473707 47.40649
16840000000 -2.7490971 123.29564 -66.299057 123.94654 -66.505005 117.1123 -9.5848761 44.887203
16850000000 -2.6224506 121.63335 -60.926598 98.850227 -60.546772 99.775108 -9.454402 43.022442
16860000000 -2.5211942 120.14467 -59.012527 66.017113 -59.374527 63.855289 -9.3758125 41.855953
16870000000 -2.3890359 118.71451 -58.952492 34.560696 -58.73275 32.112885 -9.4006052 40.655804
16880000000 -2.2632279 117.33925 -59.610237 -7.6562877 -59.29866 -5.5590243 -9.5639133 39.151634
16890000000 -2.1368086 115.89346 -63.413113 -17.064049 -63.329491 -18.835911 -9.7767792 36.718498
16900000000 -2.0369086 114.57628 -64.376282 -27.362951 -64.274094 -35.93528 -9.9638824 33.367451
16910000000 -1.9253238 113.08883 -61.667011 -24.757631 -62.295135 -23.432892 -10.052402 29.192223
16920000000 -1.86225 111.60506 -59.61441 -58.093254 -60.280483 -60.173782 -10.05599 24.85659
16930000000 -1.782842 110.16984 -57.263191 -85.446503 -57.794353 -84.562019 -10.019258 20.918226
16940000000 -1.7094423 108.67593 -57.638832 -129.42259 -58.035355 -126.5265 -9.9924669 17.396324
16950000000 -1.6059188 107.03996 -61.220699 -152.944 -62.434231 -154.6582 -9.9690094 14.237801
16960000000 -1.5251421 105.35294 -62.445702 -153.33386 -63.008816 -159.58525 -9.9835491 11.282068
16970000000 -1.4242847 103.70739 -61.398335 -168.45551 -61.430546 -166.97841 -10.011358 8.4815197
16980000000 -1.3397543 102.03574 -60.386284 168.0954 -59.643326 163.07269 -10.12579 5.7238274
16990000000 -1.2535695 100.42489 -60.559589 140.93169 -60.762344 138.38751 -10.313415 2.8454089
17000000000 -1.183444 98.954971 -61.152992 127.83896 -61.339512 128.52101 -10.557622 -0.73249102
