!Keysight Technologies,P9374A,MY57211807,A.19.30.04
!Date: Friday, May 08, 2026 15:12:07
!Correction: S11(C  2-Port  ) 
!S21(C  2-Port  ) 
!S12(C  2-Port  ) 
!S22(C  2-Port  ) 
!S2P File: Measurements: S11, S21, S12, S22:
# Hz S  dB   R 50
13000000000 -18.763771 56.266258 -40.627003 90.729652 -40.449696 92.942413 -12.570663 -80.291679
13010000000 -19.150404 57.203087 -40.150085 64.870338 -39.744259 66.744087 -12.93579 -83.342415
13020000000 -19.520206 59.127254 -40.169147 41.356461 -39.801273 40.672283 -13.341284 -86.502449
13030000000 -19.653261 61.421165 -40.430984 14.132197 -40.039017 14.850288 -13.794824 -89.488014
13040000000 -20.067986 63.089958 -41.127609 -6.9340453 -40.952682 -7.6653123 -14.311591 -92.654915
13050000000 -19.732609 66.816872 -41.696465 -27.576355 -41.260712 -27.537764 -14.86266 -96.287704
13060000000 -19.549452 65.112747 -41.646648 -44.906574 -41.212177 -45.186615 -15.441099 -100.93322
13070000000 -19.281519 63.455273 -41.268635 -64.948509 -40.694984 -66.552063 -15.964954 -106.54668
13080000000 -19.489136 60.770203 -40.847557 -89.186211 -40.519131 -91.274513 -16.389011 -111.8755
13090000000 -19.312239 58.91806 -41.150425 -114.21793 -40.847637 -116.57317 -16.784039 -116.84602
13100000000 -19.825947 56.967468 -41.577374 -134.27 -41.307701 -136.22354 -17.248268 -121.41605
13110000000 -19.902109 58.903545 -41.231426 -155.37402 -40.886078 -156.93892 -17.859991 -126.64397
13120000000 -20.227718 60.789902 -41.633587 179.56641 -41.270649 176.48712 -18.497332 -133.25526
13130000000 -19.782932 63.790668 -41.786144 161.69447 -41.390007 156.99039 -18.973715 -141.7106
13140000000 -19.402437 65.992928 -41.577965 137.97351 -41.565884 133.07849 -19.356348 -150.37425
13150000000 -18.845177 62.394558 -41.838421 115.99905 -42.008026 111.81219 -19.728882 -158.67966
13160000000 -19.089724 61.459045 -41.849361 95.82589 -41.935474 92.040245 -20.122253 -167.11926
13170000000 -18.960104 58.653164 -41.688946 75.579781 -41.918247 71.638382 -20.458426 -177.32422
13180000000 -19.447746 55.867535 -41.194496 53.00489 -41.5215 49.923237 -20.376953 170.6479
13190000000 -19.541609 56.114372 -40.834118 26.733679 -41.234615 24.104767 -19.811539 158.84705
13200000000 -19.657192 55.007751 -41.056393 -0.025587179 -41.425587 -2.1007814 -19.098181 149.21678
13210000000 -19.727901 55.518909 -41.964455 -24.660225 -42.351463 -26.190189 -18.489571 142.09816
13220000000 -19.321463 55.172718 -42.430161 -41.074348 -42.804234 -42.715031 -18.077593 135.12781
13230000000 -19.358847 53.448959 -42.298958 -62.582081 -42.578053 -64.298752 -17.659554 126.7297
13240000000 -19.291903 53.952705 -41.963654 -83.358925 -42.348347 -84.369446 -17.090364 117.56134
13250000000 -19.136539 52.924992 -42.041565 -109.01958 -42.575909 -109.36088 -16.264791 109.43844
13260000000 -19.068178 52.116577 -42.013035 -133.29181 -42.271576 -131.92143 -15.306451 103.34199
13270000000 -19.013487 49.675316 -42.373249 -159.39717 -42.522476 -159.50861 -14.497715 98.560966
13280000000 -19.068834 47.382298 -43.192978 177.45967 -43.533512 177.34021 -13.888499 94.220078
13290000000 -19.426861 43.869431 -43.589298 155.46515 -43.885155 157.30362 -13.408456 89.397362
13300000000 -19.758324 42.525085 -44.039955 136.10309 -44.03677 138.60196 -12.963633 83.959732
13310000000 -20.399364 41.276413 -44.021343 116.3177 -43.984909 116.52086 -12.42668 78.508377
13320000000 -20.220566 43.200314 -44.011154 91.957123 -44.011517 91.897346 -11.821768 73.733421
13330000000 -20.281197 42.88599 -44.14204 66.041817 -44.184162 66.873596 -11.228587 69.557159
13340000000 -19.6455 43.83144 -44.938061 39.063862 -44.92841 43.128784 -10.735249 65.635201
13350000000 -19.472664 39.302284 -46.232723 16.368126 -45.607796 19.304268 -10.351512 61.395935
13360000000 -19.319555 36.420002 -47.178295 1.0252144 -46.309151 0.038068209 -10.057364 56.674683
13370000000 -19.824442 31.641596 -47.303234 -16.284756 -46.981186 -18.271143 -9.681263 51.769142
13380000000 -20.189409 29.717365 -47.21558 -40.975891 -47.018044 -40.059715 -9.2233286 46.953049
13390000000 -21.283829 29.856573 -48.411587 -65.895248 -47.778179 -64.36747 -8.7629309 42.59687
13400000000 -21.101461 32.769287 -49.661541 -80.537369 -48.463032 -82.21225 -8.352911 38.896748
13410000000 -21.510183 29.667826 -49.710339 -98.163612 -48.885788 -102.70681 -8.0764313 35.313934
13420000000 -21.354769 32.673843 -49.469326 -117.19602 -49.371735 -121.69407 -7.8927159 31.383671
13430000000 -21.268991 27.286045 -50.510555 -140.13518 -49.860088 -142.63879 -7.7360511 27.062927
13440000000 -21.39393 25.561369 -51.340561 -158.65057 -50.687943 -166.18317 -7.5728679 22.386541
13450000000 -21.460556 23.477358 -52.945198 -167.87833 -52.560226 -178.57289 -7.3459563 17.715277
13460000000 -21.482229 20.480433 -51.774708 178.23892 -52.264812 168.66597 -7.0903797 13.602665
13470000000 -22.146709 17.767387 -51.698765 157.62267 -52.579067 152.39995 -6.8735065 9.6925802
13480000000 -22.195503 18.569426 -52.121716 143.0134 -53.057541 134.56877 -6.7349281 5.8445902
13490000000 -23.074921 14.197144 -50.602089 124.95723 -51.571117 128.39024 -6.6885123 2.0204134
13500000000 -23.529526 15.902825 -50.4645 105.37126 -50.503338 104.45195 -6.6895938 -1.8033102
13510000000 -24.426958 18.958628 -50.568264 80.078529 -50.965355 77.470566 -6.6516852 -5.6734409
13520000000 -24.084009 21.920692 -51.222088 62.989574 -52.321224 62.017178 -6.6160593 -9.6762781
13530000000 -24.016863 20.168945 -51.869328 46.453789 -52.191341 53.676018 -6.6019468 -13.662001
13540000000 -23.373289 16.232849 -50.336025 39.170902 -49.913734 39.355694 -6.6295495 -17.682022
13550000000 -23.79302 9.9677076 -48.916183 11.842422 -48.659698 11.757617 -6.7088828 -21.521572
13560000000 -24.107878 4.248704 -48.565968 -13.955681 -48.925205 -15.161391 -6.7918663 -25.361788
13570000000 -26.024485 4.6566019 -48.768497 -38.682526 -49.221004 -36.458981 -6.8346539 -29.050068
13580000000 -26.165012 5.7981176 -49.583035 -62.223454 -49.645153 -59.688622 -6.8656697 -32.638657
13590000000 -27.857531 14.994722 -51.164097 -71.704704 -50.274212 -70.615807 -6.9125843 -36.134521
13600000000 -26.512888 21.054676 -49.374611 -85.143074 -49.421642 -86.207703 -7.0168729 -39.380325
13610000000 -26.13242 25.617088 -47.841278 -107.62988 -47.713661 -105.90896 -7.181025 -42.494423
13620000000 -25.557095 16.886778 -47.908947 -137.47 -47.642159 -136.4071 -7.3680601 -45.793671
13630000000 -26.488354 13.76231 -47.873817 -158.28195 -47.506126 -156.62086 -7.541152 -49.227787
13640000000 -26.80496 6.2565432 -48.774567 -174.93214 -47.963963 -176.1366 -7.6926427 -52.82967
13650000000 -28.984566 7.0787473 -47.458973 166.6348 -46.624264 163.37744 -7.8108277 -56.344872
13660000000 -28.875664 10.848627 -47.700954 141.09996 -47.068821 138.02214 -7.9160857 -59.6469
13670000000 -29.601797 14.4118 -47.465622 121.9482 -47.030075 118.31416 -8.0454531 -62.621449
13680000000 -29.44965 21.731068 -47.366886 102.49488 -46.965126 97.433823 -8.2094908 -65.293259
13690000000 -28.290285 26.018145 -46.611824 82.867714 -46.013069 76.185997 -8.3812981 -68.004646
13700000000 -27.753214 23.909246 -45.865791 58.240124 -45.92363 52.032742 -8.6047287 -70.991348
13710000000 -27.291147 26.080729 -46.197845 34.476631 -46.262203 30.270706 -8.8287573 -74.194931
13720000000 -26.969784 19.289167 -45.806217 13.852553 -45.960949 7.5492868 -9.0420475 -77.506393
13730000000 -28.084591 19.424438 -46.048775 -11.88238 -46.194195 -15.081943 -9.2320957 -80.584366
13740000000 -27.993469 16.395887 -45.646568 -32.764629 -45.741047 -38.094097 -9.408535 -83.490402
13750000000 -29.916861 13.558204 -45.342789 -51.55772 -45.997276 -57.389851 -9.6105537 -86.276611
13760000000 -30.445185 22.066648 -45.151855 -77.257019 -45.892757 -79.636307 -9.8528318 -89.325508
13770000000 -30.488464 26.3302 -45.078667 -97.761322 -45.800385 -100.00078 -10.096994 -92.669189
13780000000 -29.459908 31.400385 -45.051044 -121.64183 -45.379486 -123.26102 -10.30197 -96.154106
13790000000 -27.376993 26.996824 -44.626492 -142.9437 -45.149681 -144.08463 -10.439155 -99.493858
13800000000 -27.374531 16.098141 -44.282349 -166.39841 -45.045246 -167.52989 -10.547747 -102.26305
13810000000 -26.753607 14.059851 -44.052692 165.04102 -44.813183 166.92819 -10.705804 -104.65477
13820000000 -26.792063 -0.027077798 -44.904915 140.61157 -45.591381 144.29927 -10.942593 -106.99171
13830000000 -28.174955 2.3244319 -45.427219 120.39229 -45.684578 124.11112 -11.247348 -109.85561
13840000000 -28.402189 -5.4449768 -45.426464 101.30582 -45.589668 104.16801 -11.550834 -113.35791
13850000000 -30.533436 6.2782531 -44.777805 81.961838 -45.107464 84.828453 -11.777473 -117.19669
13860000000 -29.488449 10.259635 -44.665363 55.835121 -44.564651 61.471432 -11.90799 -120.78072
13870000000 -28.813745 12.375805 -44.612274 33.138176 -44.265167 36.336403 -12.024547 -123.93859
13880000000 -28.161356 4.6383109 -44.577164 8.4776039 -44.300251 10.185997 -12.181719 -126.78237
13890000000 -27.366268 2.6593616 -45.204472 -13.542942 -44.75877 -11.16221 -12.416342 -129.85045
13900000000 -27.064156 -13.252174 -45.123081 -37.393066 -44.644348 -35.993855 -12.656291 -133.44092
13910000000 -27.667986 -13.904392 -45.54644 -56.296005 -44.944584 -53.943661 -12.832162 -137.23276
13920000000 -27.461636 -27.138529 -45.132305 -78.444466 -44.237888 -79.393867 -12.918869 -140.83275
13930000000 -29.678947 -31.288202 -45.314396 -100.96939 -44.826305 -105.36293 -13.012908 -144.22797
13940000000 -30.145447 -29.998123 -45.139297 -123.89793 -44.606655 -126.29113 -13.198735 -147.30989
13950000000 -31.293104 -29.751289 -45.109463 -149.11526 -44.724594 -151.77031 -13.438622 -150.58067
13960000000 -31.730932 -31.156565 -45.469952 -171.09891 -45.078194 -174.44321 -13.696214 -154.40619
13970000000 -31.112314 -22.855715 -45.379387 164.55281 -44.755016 159.86967 -13.871537 -159.09673
13980000000 -29.833345 -34.212013 -45.768127 139.86514 -45.602516 132.81778 -13.941094 -164.14088
13990000000 -28.960508 -42.371754 -46.848354 120.25957 -46.817184 114.75122 -13.949666 -169.01208
14000000000 -28.113312 -56.537392 -46.225071 100.34679 -46.369476 97.126869 -13.929978 -173.24904
14010000000 -27.754454 -65.463303 -46.794231 74.708267 -46.582546 71.154564 -13.89301 -177.36656
14020000000 -27.524462 -75.127609 -46.833958 57.855843 -46.686459 50.684147 -13.885118 178.70779
14030000000 -28.722607 -87.217461 -46.990971 30.825962 -47.50539 23.111469 -13.862393 174.56194
14040000000 -30.368113 -87.763924 -47.428963 11.168229 -48.30706 8.4108696 -13.837782 170.32663
14050000000 -31.556717 -83.073929 -47.710186 -5.8945875 -47.974644 -8.0071316 -13.777328 166.09383
14060000000 -32.696217 -76.37999 -46.800991 -29.312819 -47.131454 -33.245876 -13.68835 161.82048
14070000000 -31.469875 -67.298759 -47.376984 -54.735409 -47.811138 -59.233292 -13.596717 157.60088
14080000000 -30.005388 -79.528702 -47.3573 -75.726746 -48.474194 -80.636589 -13.497541 153.58867
14090000000 -29.669645 -86.044106 -47.567711 -97.126801 -48.799355 -95.308083 -13.449865 149.68721
14100000000 -27.906883 -104.31754 -47.748093 -118.80803 -48.439274 -115.37279 -13.372609 145.52959
14110000000 -28.233593 -119.8252 -47.707634 -140.76067 -47.775417 -140.14066 -13.287594 140.98618
14120000000 -28.212002 -130.17764 -47.586563 -161.64032 -47.963547 -162.36647 -13.14736 136.10081
14130000000 -28.870811 -138.83397 -47.469971 175.82834 -48.06517 174.33189 -12.906238 131.42438
14140000000 -29.363188 -141.02257 -47.539173 148.95184 -48.301765 150.16443 -12.656347 127.17841
14150000000 -30.638866 -139.24762 -48.12291 126.04363 -48.404446 128.41776 -12.463399 123.33625
14160000000 -30.045591 -133.67558 -48.052773 105.0192 -47.862194 107.6975 -12.303296 119.56801
14170000000 -30.254513 -130.11633 -47.985786 78.872917 -48.486355 78.728172 -12.139791 115.40174
14180000000 -28.824129 -132.49062 -48.469398 56.923386 -49.236221 60.127972 -11.919685 110.80538
14190000000 -28.158348 -139.70004 -48.620529 34.80629 -48.386108 38.90514 -11.640335 106.25453
14200000000 -27.257427 -146.22978 -48.996346 5.907063 -49.106567 10.574296 -11.324391 102.02706
14210000000 -26.866243 -156.95609 -49.845322 -16.540554 -49.318859 -11.89755 -11.070012 98.314346
14220000000 -26.81325 -164.0054 -51.013519 -38.592926 -50.200409 -37.122395 -10.862292 94.762306
14230000000 -27.189133 -174.1971 -50.769184 -55.069473 -50.482819 -52.055935 -10.680037 91.036301
14240000000 -28.407867 -174.11662 -50.474773 -81.274139 -50.352596 -73.326408 -10.452597 86.776138
14250000000 -28.60331 -171.67906 -51.528137 -106.11159 -50.262409 -101.2049 -10.232776 82.335449
14260000000 -29.493645 -166.57127 -52.607677 -131.92984 -51.199673 -129.66869 -10.014041 78.217575
14270000000 -28.167416 -159.63678 -54.459896 -141.29178 -52.864365 -143.48726 -9.8233757 74.440392
14280000000 -27.698444 -164.33737 -53.93766 -159.17932 -52.758839 -163.39153 -9.6435699 70.696014
14290000000 -26.880962 -165.49388 -54.902966 178.26555 -53.065788 -179.91458 -9.4804897 66.439407
14300000000 -26.557398 -174.48294 -55.277008 167.45708 -52.781376 159.17731 -9.3193827 61.752029
14310000000 -26.604122 177.88043 -53.748238 148.86153 -52.935146 134.93459 -9.1490173 56.957172
14320000000 -27.328661 169.16887 -53.723896 124.52213 -53.54319 112.17487 -8.9625473 52.512363
14330000000 -27.588545 170.03236 -53.338837 110.06702 -53.972843 99.550949 -8.7546549 48.445644
14340000000 -28.924868 164.67737 -53.702526 82.307159 -53.202499 72.373222 -8.5733624 44.585899
14350000000 -29.125637 175.96046 -53.836796 64.712204 -53.78516 47.989506 -8.4472265 40.359062
14360000000 -29.550516 -179.96336 -53.469933 50.773418 -55.167805 36.208706 -8.4156752 35.910221
14370000000 -27.633726 -171.00839 -52.28096 29.663212 -54.876896 21.715212 -8.4075384 31.317322
14380000000 -27.032015 179.66179 -50.869026 5.8583689 -52.279682 7.4031901 -8.3817863 26.632547
14390000000 -26.39283 178.61914 -50.772755 -26.287388 -51.914413 -27.815418 -8.3095322 21.882095
14400000000 -26.651037 166.69946 -50.615414 -52.845036 -51.697433 -55.585136 -8.2344799 16.85029
14410000000 -27.49749 162.72488 -51.609604 -73.409828 -53.314342 -74.147957 -8.2123518 12.079511
14420000000 -28.777746 158.99927 -51.266018 -88.285294 -52.97823 -80.759407 -8.2253733 7.5175934
14430000000 -29.589756 162.99232 -49.688255 -114.11256 -49.947861 -108.47765 -8.2735062 3.0104921
14440000000 -30.655117 174.66959 -48.636105 -144.84535 -49.292812 -144.26189 -8.3446989 -1.5469887
14450000000 -27.862833 -173.8844 -49.667988 -175.96461 -50.712551 -170.92175 -8.4386644 -6.3258739
14460000000 -26.921749 -179.65392 -51.466297 161.276 -51.472904 169.97818 -8.5659838 -11.348799
14470000000 -25.961384 177.4816 -49.914787 146.7681 -50.19735 150.6409 -8.7534103 -16.150145
14480000000 -26.019352 172.62177 -49.711906 115.02503 -49.309307 119.40453 -8.97439 -20.819746
14490000000 -26.431799 168.42216 -49.102177 89.962143 -49.607224 92.920555 -9.2069988 -25.95323
14500000000 -27.303818 169.25847 -49.588657 61.99073 -49.660114 67.522247 -9.4831696 -31.65107
14510000000 -27.840219 168.84605 -50.126816 35.827393 -49.361843 44.937244 -9.7436171 -37.594845
14520000000 -28.853601 -177.58794 -50.004128 9.788271 -48.908108 11.531095 -9.951849 -43.113846
14530000000 -27.187126 -177.22726 -50.958305 -9.4945965 -50.844616 -12.723047 -10.117946 -47.991787
14540000000 -26.449707 -173.35454 -50.637085 -32.704578 -50.981411 -28.950478 -10.34826 -52.494087
14550000000 -25.019094 179.57927 -50.196526 -54.338238 -49.74456 -48.449051 -10.698885 -56.99683
14560000000 -25.156488 178.06685 -49.057621 -79.838554 -47.929104 -76.748055 -11.177317 -62.090019
14570000000 -24.150158 173.31178 -49.197342 -115.68927 -48.198589 -117.54131 -11.687831 -67.925758
14580000000 -24.413765 170.12564 -50.441189 -140.86684 -50.49955 -143.47772 -12.146358 -74.083855
14590000000 -24.786877 167.10757 -51.714165 -164.90088 -51.339512 -162.05339 -12.539272 -80.272888
14600000000 -25.272295 173.22925 -51.23085 -177.43236 -50.401409 -177.60997 -12.891834 -86.327316
14610000000 -24.932381 173.85834 -50.635059 160.45995 -49.393772 155.77232 -13.328744 -93.017769
14620000000 -24.685291 -178.97211 -49.531921 132.69305 -48.871311 124.11835 -13.88719 -99.640221
14630000000 -23.519348 178.96631 -49.873352 99.077965 -50.153664 96.534416 -14.26057 -106.15086
14640000000 -22.821516 177.51761 -51.072201 74.976814 -50.821678 76.452156 -14.46491 -113.11695
14650000000 -22.036125 171.99667 -50.992882 58.887554 -50.024052 56.176491 -14.697975 -120.02737
14660000000 -21.840292 165.22342 -49.834999 35.955612 -49.703556 27.106943 -15.086102 -126.46906
14670000000 -22.380856 161.15118 -49.966217 11.31719 -50.670265 3.3804162 -15.653638 -132.99065
14680000000 -22.465611 159.56804 -49.284622 -18.147242 -50.449207 -16.812363 -16.192545 -139.86877
14690000000 -23.226992 161.88052 -50.466778 -45.099957 -50.212585 -39.819038 -16.595026 -148.5256
14700000000 -22.638271 167.26929 -51.383739 -62.657322 -49.901142 -62.243992 -16.730865 -158.10333
14710000000 -22.103731 168.35027 -49.790215 -76.012672 -49.388237 -86.063347 -16.692772 -167.71039
14720000000 -21.14917 167.42296 -48.896702 -107.00835 -49.679539 -111.81647 -16.608187 -176.61757
14730000000 -20.717443 162.48157 -48.285576 -137.83072 -48.800842 -135.08267 -16.515127 176.02739
14740000000 -20.345938 155.91527 -49.419132 -166.25223 -49.140385 -165.38147 -16.357887 169.87828
14750000000 -20.859726 151.03299 -49.974934 175.7578 -49.145725 178.25444 -16.204178 163.47229
14760000000 -20.919569 148.53221 -49.626904 160.42084 -49.261314 155.63437 -16.167204 156.93951
14770000000 -21.601822 146.71227 -48.943027 136.27908 -48.70332 136.01033 -16.224377 149.85892
14780000000 -21.267616 148.88705 -48.104446 111.07869 -47.815666 109.66084 -16.158966 142.44856
14790000000 -21.275229 149.6035 -47.841499 84.052444 -47.407055 82.349197 -15.922635 134.9082
14800000000 -20.467588 150.17963 -48.0896 60.490288 -47.231422 56.360302 -15.575317 128.42995
14810000000 -20.240568 147.57446 -48.018555 35.091473 -47.788692 26.916529 -15.244666 122.97836
14820000000 -19.773148 145.86803 -47.819199 14.666146 -47.983395 11.54571 -14.922959 118.07814
14830000000 -19.950384 141.07884 -47.539505 -12.59845 -47.491341 -14.957665 -14.700553 113.00494
14840000000 -20.034744 138.53833 -47.78817 -34.345867 -47.486839 -36.992226 -14.508386 108.06548
14850000000 -20.528597 135.55251 -47.281673 -54.575489 -47.238384 -64.498962 -14.307806 103.22665
14860000000 -20.649467 134.07468 -46.363708 -80.173561 -47.161064 -87.406456 -14.142683 98.920677
14870000000 -21.287788 131.30215 -46.171917 -112.07645 -47.150772 -112.86532 -14.053895 95.234596
14880000000 -21.306049 132.04314 -47.102264 -134.94885 -47.519188 -135.0578 -14.025039 91.270287
14890000000 -21.333731 131.69406 -47.073112 -157.19353 -47.401073 -160.40123 -14.002651 86.319443
14900000000 -20.791988 131.67316 -46.855087 -177.63559 -47.514862 179.12753 -13.90118 80.576515
14910000000 -20.50161 129.49471 -46.787689 157.0255 -47.655991 157.96054 -13.7021 75.137421
14920000000 -20.104446 125.41273 -46.683464 132.69926 -47.133736 134.68907 -13.490877 71.086632
14930000000 -20.342531 122.24274 -47.840824 108.4021 -47.855038 108.18629 -13.38162 68.758575
14940000000 -20.506882 118.35558 -47.40028 91.727478 -48.151451 90.613503 -13.30142 66.779366
14950000000 -21.372654 117.82372 -46.920593 68.641518 -47.445549 72.342743 -13.374681 63.377552
14960000000 -21.998211 117.2844 -46.502209 43.956173 -46.233044 47.760235 -13.590072 59.136967
14970000000 -22.641226 123.23092 -46.675976 20.884211 -46.501198 21.633444 -13.849082 54.944984
14980000000 -22.33643 123.16309 -46.370937 -7.3693414 -46.783573 -7.7394838 -14.004098 51.974796
14990000000 -22.081448 124.66708 -47.346676 -31.18606 -47.387184 -23.69482 -14.058274 49.399055
15000000000 -21.669456 118.5695 -47.93383 -46.155293 -47.395786 -42.622707 -14.1957 45.981102
15010000000 -22.087799 114.43328 -46.947281 -64.57193 -46.642685 -63.410358 -14.562686 41.696644
15020000000 -22.446957 110.04586 -47.001202 -87.638107 -46.553837 -88.024811 -14.920622 37.816803
15030000000 -23.202885 109.5034 -46.172531 -109.89499 -46.043983 -108.19914 -15.131366 34.569252
15040000000 -23.783895 109.82191 -46.175034 -138.10303 -45.659847 -136.81206 -15.146956 33.183239
15050000000 -24.20927 116.01602 -46.332893 -159.20306 -45.775623 -158.18646 -15.183421 32.439621
15060000000 -23.879562 119.28173 -45.897556 -179.55556 -45.415657 177.67696 -15.540591 31.465691
15070000000 -23.580132 121.24728 -46.378052 153.43245 -45.69828 153.27029 -16.367342 30.395735
15080000000 -23.395046 119.37581 -45.958618 130.64612 -45.493202 130.27472 -17.379087 30.652113
15090000000 -23.634659 117.32526 -46.387554 106.63616 -45.459957 105.72507 -17.939692 30.713385
15100000000 -24.320644 117.58849 -46.64975 92.148178 -46.030312 84.650742 -18.206238 28.549128
15110000000 -24.662006 117.8764 -45.733299 67.754379 -45.60585 62.974918 -18.602221 26.31916
15120000000 -25.153158 121.62954 -45.205345 44.010712 -45.004723 39.9118 -19.292324 26.347239
15130000000 -24.824852 120.74687 -45.175598 19.482365 -45.042992 15.809189 -19.98193 31.568138
15140000000 -25.054256 123.49037 -45.4058 -9.6031179 -45.189102 -14.182613 -19.911186 36.749111
15150000000 -24.504414 123.65866 -46.070923 -29.409555 -45.847046 -34.896076 -19.662117 37.729366
15160000000 -24.71277 125.24581 -45.572102 -46.711666 -46.048012 -53.306217 -19.847525 38.378712
15170000000 -24.069473 126.93125 -44.971573 -75.135757 -45.667961 -77.906548 -20.124907 43.921719
15180000000 -23.747232 127.08458 -45.654991 -101.20288 -46.072136 -103.50961 -19.752728 52.093887
15190000000 -23.273024 125.92371 -46.152092 -121.64635 -46.278484 -125.84356 -19.079559 56.463779
15200000000 -23.486647 124.94015 -46.387531 -143.07382 -47.209003 -146.19193 -18.781481 57.128952
15210000000 -23.376564 122.44648 -45.943634 -162.93861 -46.458065 -163.4465 -18.920818 57.363174
15220000000 -24.243885 124.08297 -45.842724 175.1456 -45.875847 174.33511 -18.852108 59.356407
15230000000 -23.981554 126.54121 -44.928028 146.61183 -45.445736 146.38376 -18.252655 60.3009
15240000000 -24.17877 130.23227 -45.637486 117.00854 -46.139194 118.42616 -17.534206 59.295666
15250000000 -22.914894 130.30136 -47.125271 94.216141 -47.333637 97.665321 -16.923025 56.986847
15260000000 -22.782982 125.29119 -47.776855 77.172333 -47.750416 79.507042 -16.530348 54.730881
15270000000 -22.290289 122.51624 -47.467602 62.696194 -47.261513 63.383358 -16.136984 54.09494
15280000000 -22.411558 116.60849 -46.692173 40.843784 -46.924728 39.697853 -15.573962 53.970898
15290000000 -22.838188 114.2093 -46.534321 12.756358 -46.561825 16.457674 -15.03576 52.977608
15300000000 -23.267708 114.89668 -46.778069 -13.235935 -46.127949 -9.3082676 -14.701285 51.865467
15310000000 -23.427029 116.90479 -48.192726 -33.376038 -46.905247 -35.388481 -14.588215 50.03426
15320000000 -23.137037 118.53702 -47.42675 -54.096851 -47.306881 -61.238693 -14.541282 47.847771
15330000000 -22.657076 118.33587 -48.138763 -77.196968 -48.659229 -76.385658 -14.419469 45.060001
15340000000 -22.598295 113.16444 -48.253048 -93.390648 -47.79591 -91.553596 -14.196736 41.660564
15350000000 -22.700409 114.35091 -48.001541 -114.14051 -46.916264 -116.77183 -13.9604 38.424316
15360000000 -22.642643 107.7196 -47.33744 -138.73816 -46.908413 -145.12933 -13.783032 35.709389
15370000000 -23.258497 107.92626 -47.960789 -166.56664 -48.170063 -173.00041 -13.644271 32.737194
15380000000 -23.147493 101.86773 -49.070393 172.53836 -49.226231 173.40465 -13.5635 29.059088
15390000000 -24.118979 102.40367 -48.49736 160.03015 -48.766891 157.31323 -13.446802 25.35936
15400000000 -23.991394 101.25139 -47.140968 134.88329 -47.307003 132.93697 -13.287572 22.025368
15410000000 -24.303183 100.41137 -47.362293 102.25712 -47.684849 98.801201 -13.141215 19.630556
15420000000 -24.695587 97.626717 -48.7061 76.743546 -49.219379 75.292961 -13.152372 17.468071
15430000000 -24.817728 100.05373 -50.037674 60.541439 -50.439571 60.159119 -13.270148 14.750632
15440000000 -24.932678 96.92099 -50.030441 43.137653 -49.659721 48.711262 -13.554803 10.295874
15450000000 -24.996445 96.739853 -48.980423 23.392879 -48.472202 21.958233 -13.851836 4.9389
15460000000 -25.313915 90.499657 -48.571758 -7.3702312 -48.609905 -9.6835632 -13.978187 -0.66356784
15470000000 -25.968805 89.902168 -49.031521 -35.261177 -49.468716 -34.763374 -13.944432 -5.6521378
15480000000 -26.292492 82.954231 -50.735004 -62.129471 -49.99128 -54.073471 -13.94355 -10.073103
15490000000 -27.723169 81.238113 -51.65271 -75.166748 -50.038082 -75.992897 -14.10327 -14.022268
15500000000 -28.922947 79.561119 -52.246582 -95.346741 -51.076302 -98.797676 -14.391116 -18.092379
15510000000 -29.634642 85.643784 -51.820652 -110.46741 -51.559311 -118.02784 -14.708095 -22.533766
15520000000 -30.500198 85.323479 -51.944485 -138.00749 -51.729179 -139.19226 -15.033729 -27.666323
15530000000 -29.576889 91.219368 -52.00362 -155.12868 -50.808395 -161.97864 -15.437705 -33.05405
15540000000 -30.665619 77.623077 -52.747074 -175.55988 -52.071892 171.22731 -16.000509 -38.414639
15550000000 -31.002995 83.26696 -52.537384 165.44676 -53.301167 154.96184 -16.609968 -44.521709
15560000000 -32.885643 62.760715 -51.96096 140.70769 -53.255783 133.1264 -17.187204 -52.035542
15570000000 -36.424931 76.364929 -53.018517 111.28745 -53.228325 110.51433 -17.693829 -61.255924
15580000000 -39.426231 54.12085 -53.16317 91.344635 -53.877796 83.223137 -18.082214 -70.986191
15590000000 -42.975281 108.95212 -55.460545 73.275208 -56.638245 63.493622 -18.326189 -80.477333
15600000000 -48.99147 93.046921 -54.153988 63.475163 -56.182129 59.265339 -18.51766 -88.983521
15610000000 -43.662125 153.13719 -53.371132 35.466675 -55.09116 39.851715 -18.712746 -96.923187
15620000000 -57.251793 -146.91571 -53.57996 -0.9213444 -54.69035 4.2199092 -18.983574 -105.07391
15630000000 -41.7859 -164.37335 -55.561279 -28.736036 -55.819683 -20.05785 -19.332863 -113.82845
15640000000 -41.643597 -119.85011 -58.080326 -42.142548 -58.160572 -41.852562 -19.709106 -124.19127
15650000000 -36.097214 -146.68652 -57.877991 -52.027592 -59.149788 -37.398598 -19.901077 -136.14165
15660000000 -36.616943 -136.27534 -56.849934 -73.039932 -55.611671 -59.481503 -19.670156 -147.97322
15670000000 -34.024017 -148.44205 -57.703697 -106.84469 -56.605679 -93.264183 -18.942257 -158.06496
15680000000 -33.965393 -129.10599 -59.311222 -136.70308 -58.22332 -126.58373 -18.182308 -166.15614
15690000000 -30.968229 -134.62799 -66.310387 -167.14618 -62.583954 -139.30222 -17.659101 -173.0246
15700000000 -28.991579 -133.57645 -64.796799 -123.29448 -61.778221 -131.98174 -17.318007 -179.37195
15710000000 -27.821568 -143.60594 -60.036934 -158.59909 -58.207726 -159.35313 -16.988184 174.60609
15720000000 -27.159613 -146.3839 -63.552559 168.30783 -60.427635 163.04721 -16.498501 168.7514
15730000000 -27.538084 -154.63678 -67.636284 139.24281 -62.639378 138.95938 -16.019125 163.31859
15740000000 -27.840662 -148.55453 -69.89357 134.21323 -64.731934 99.910927 -15.663079 158.31046
15750000000 -27.836174 -146.40376 -65.666405 -144.59595 -71.19413 157.33206 -15.443188 153.26385
15760000000 -26.601679 -139.52815 -62.256161 177.34363 -66.309174 144.4863 -15.201458 147.94046
15770000000 -25.453468 -142.50339 -59.622673 143.78835 -66.48481 129.19066 -14.794092 142.19896
15780000000 -24.522371 -145.2373 -59.084225 105.0846 -64.63681 119.98354 -14.210722 137.43765
15790000000 -24.12031 -150.71815 -61.260452 95.982758 -64.322334 102.86447 -13.59129 133.98206
15800000000 -23.715502 -153.38467 -59.160149 99.633202 -59.879105 113.02658 -13.104494 131.78886
15810000000 -23.897526 -156.42813 -56.445469 66.801636 -58.173687 77.221085 -12.846231 129.86922
15820000000 -23.594069 -153.6503 -54.655273 34.116993 -56.583488 51.076874 -12.747628 127.7494
15830000000 -23.396942 -153.64027 -56.805866 4.0018153 -56.62648 27.426424 -12.674515 124.71274
15840000000 -22.900017 -151.41141 -57.114883 -7.645072 -55.968159 13.031151 -12.565634 121.15073
15850000000 -22.712072 -153.75432 -56.329105 -21.813856 -54.765507 -13.690645 -12.37879 117.43889
15860000000 -22.303278 -151.61008 -54.995808 -48.763062 -53.533516 -40.816982 -12.163981 113.81615
15870000000 -22.15373 -153.65479 -53.827496 -65.445633 -52.956268 -66.372581 -11.931773 110.47997
15880000000 -21.858168 -152.6954 -52.805447 -95.267685 -52.643055 -90.417534 -11.715803 107.23448
15890000000 -21.678106 -154.83514 -53.947178 -127.65805 -52.574192 -116.96748 -11.460916 104.44769
15900000000 -21.424376 -155.09521 -54.383015 -146.25435 -52.312977 -141.45987 -11.16395 101.88885
15910000000 -21.107878 -156.33089 -55.297218 -168.80174 -52.451206 -168.42868 -10.925442 99.721489
15920000000 -20.696886 -157.90364 -55.412491 177.42744 -53.025818 170.39676 -10.749168 97.934647
15930000000 -20.788248 -159.40746 -54.737938 160.62154 -53.355648 151.52643 -10.658093 96.189034
15940000000 -20.709332 -157.53827 -53.749779 144.29927 -52.773575 132.32858 -10.624358 94.398232
15950000000 -20.465124 -155.9006 -53.847191 122.87395 -52.785057 107.29902 -10.606619 92.164223
15960000000 -20.01515 -154.11185 -52.241497 103.07796 -52.606384 87.899078 -10.593327 89.466789
15970000000 -19.447889 -153.04793 -51.74387 72.506615 -52.535824 63.461838 -10.574586 86.491859
15980000000 -19.086178 -154.38512 -52.201515 51.262554 -51.901627 46.658634 -10.508386 83.285385
15990000000 -18.717447 -155.01361 -52.016289 28.544445 -51.846371 14.354867 -10.386306 80.310715
16000000000 -18.797523 -158.0497 -51.741714 16.083965 -52.923424 2.0237482 -10.206401 77.737442
16010000000 -18.805618 -157.17406 -50.695774 -12.577907 -52.420544 -18.260765 -10.017542 75.633324
16020000000 -18.803619 -157.21019 -51.086987 -38.660862 -51.682796 -37.863075 -9.9099503 73.901428
16030000000 -18.445154 -154.44687 -51.062653 -58.71896 -51.402103 -61.426029 -9.9227171 72.252884
16040000000 -17.869993 -154.94437 -50.850666 -81.362839 -51.494827 -86.748848 -9.9828653 70.471878
16050000000 -17.388399 -155.7776 -51.081203 -104.5143 -52.228619 -109.19577 -10.053813 68.001678
16060000000 -17.054665 -156.85246 -50.484863 -121.68019 -51.983242 -123.85683 -10.132805 65.126213
16070000000 -16.653929 -156.75606 -50.169933 -149.98116 -51.481369 -148.51485 -10.171084 62.311462
16080000000 -16.394825 -158.14066 -49.966499 -175.422 -51.464127 -170.90959 -10.208156 59.616058
16090000000 -16.117964 -158.0027 -50.312302 165.6106 -50.625759 172.61499 -10.268332 56.900303
16100000000 -16.014582 -158.77515 -49.88295 139.04694 -50.821793 136.78104 -10.335242 53.931568
16110000000 -15.776402 -158.48857 -50.710014 111.37992 -51.993019 118.92013 -10.355773 50.686378
16120000000 -15.511078 -158.59854 -51.809765 96.680847 -52.002308 108.28738 -10.338013 47.608101
16130000000 -15.20832 -159.17288 -51.563843 81.841728 -51.142887 88.235367 -10.288713 45.463631
16140000000 -14.94649 -159.24683 -50.158516 60.134747 -49.675705 63.676857 -10.286757 43.895927
16150000000 -14.532793 -160.50485 -49.326859 26.254885 -49.566761 30.680548 -10.440837 42.46986
16160000000 -14.150518 -161.2327 -51.012554 -0.42937982 -50.40377 9.2300949 -10.76234 40.419056
16170000000 -13.665758 -163.29588 -51.616528 -22.866243 -50.393444 -16.073458 -11.177545 37.431427
16180000000 -13.502913 -164.70779 -53.300949 -36.995396 -51.506622 -34.015228 -11.526185 33.48674
16190000000 -13.273896 -166.10497 -51.876053 -54.095337 -50.388668 -55.663651 -11.765202 29.203547
16200000000 -13.27092 -166.06268 -52.255707 -78.658096 -50.810516 -79.619797 -11.94465 25.208315
16210000000 -12.961968 -166.10464 -51.922115 -98.811935 -50.705212 -101.88445 -12.208372 21.642677
16220000000 -12.810277 -165.37303 -52.054234 -119.82342 -50.563709 -125.84615 -12.531106 18.419392
16230000000 -12.352637 -166.41907 -52.106518 -145.79514 -50.683201 -148.7795 -12.878816 15.149995
16240000000 -12.109544 -166.84239 -53.069195 -167.40077 -51.536411 -178.84436 -13.204962 11.971477
16250000000 -11.724659 -169.49522 -53.97583 166.9799 -52.694603 155.45009 -13.549641 9.19701
16260000000 -11.582745 -171.33264 -54.818623 163.56253 -53.852787 142.20468 -14.081133 7.2242227
16270000000 -11.345493 -173.94637 -52.691441 140.73958 -54.08268 126.45119 -14.82122 5.2587857
16280000000 -11.372787 -175.26608 -53.011444 111.27216 -53.204479 102.67471 -15.847864 2.6205893
16290000000 -11.151216 -176.10005 -53.202023 88.844429 -53.812649 71.772568 -16.968018 -2.4445951
16300000000 -11.078302 -175.99782 -53.803226 64.814232 -55.475613 54.894886 -18.146851 -9.3088503
16310000000 -10.667921 -176.21283 -55.561687 51.452168 -56.997868 47.217552 -19.222788 -16.061256
16320000000 -10.430183 -176.30624 -53.891953 29.293234 -54.678513 29.610523 -20.273371 -21.839258
16330000000 -9.9447756 -177.68507 -55.416294 7.3466616 -57.157635 0.098726861 -21.542313 -27.386393
16340000000 -9.8144112 -179.65692 -55.11515 -16.427639 -56.497597 -16.616859 -23.261913 -34.279621
16350000000 -9.6446848 178.3846 -58.541367 -33.250381 -60.634396 -32.34486 -25.425482 -40.984184
16360000000 -9.6673365 176.75813 -57.253021 -30.430235 -57.564648 -23.696203 -28.08847 -51.220711
16370000000 -9.5869722 175.41626 -56.430988 -49.147308 -55.840355 -48.57037 -32.665836 -67.420143
16380000000 -9.5731716 174.57449 -53.998814 -69.746666 -54.483162 -71.881538 -38.093754 -129.70438
16390000000 -9.3976088 173.83479 -53.854134 -103.04296 -55.762638 -99.600517 -31.606243 171.90735
16400000000 -9.2033463 173.68674 -54.860596 -127.41985 -55.89003 -113.58943 -26.851929 162.37422
16410000000 -8.8377657 172.48557 -56.910595 -141.64183 -57.000694 -126.85925 -23.920601 159.35121
16420000000 -8.5608578 171.42468 -54.47488 -152.46724 -54.16967 -144.4628 -22.313532 155.57893
16430000000 -8.2853127 169.28181 -55.66135 178.13814 -54.811996 -173.67195 -21.149246 150.95358
16440000000 -8.2340803 167.98384 -55.446434 171.00444 -53.569393 177.11674 -20.079626 144.96411
16450000000 -8.1330833 166.57326 -54.199318 149.98506 -52.839684 148.42722 -18.962322 139.89536
16460000000 -8.1333437 165.92989 -53.911495 123.94101 -52.825932 120.99467 -17.95484 135.77022
16470000000 -8.0860291 165.26836 -53.786541 109.88623 -52.735294 107.16369 -17.18948 132.06592
16480000000 -7.9812827 165.06674 -54.046917 89.696899 -53.366104 84.017899 -16.538626 128.2444
16490000000 -7.8090963 164.09917 -53.005241 71.412102 -51.918362 66.071899 -15.808718 123.64528
16500000000 -7.5896349 163.66629 -51.637135 47.730446 -51.299248 42.151295 -15.098835 119.56757
16510000000 -7.3093801 161.54012 -51.833794 22.169197 -51.588467 19.405602 -14.307309 117.34825
16520000000 -7.1731443 160.2301 -51.291073 2.5217819 -51.116112 -1.7486417 -13.694123 116.04736
16530000000 -6.9944863 158.11794 -51.154194 -26.648033 -50.997375 -30.469627 -13.301094 114.89225
16540000000 -6.9850383 157.33853 -51.952667 -46.150795 -51.344749 -48.119705 -13.120799 112.84282
16550000000 -6.8759351 156.35414 -52.39603 -64.687271 -51.66074 -72.691269 -12.971367 109.6229
16560000000 -6.8236914 156.47093 -51.54425 -82.244232 -51.354118 -90.537239 -12.747111 105.84763
16570000000 -6.6349101 155.81108 -50.639427 -100.60232 -50.879761 -109.90201 -12.402637 102.61194
16580000000 -6.457233 155.60825 -49.772247 -128.51918 -50.027107 -131.8365 -12.061197 100.10895
16590000000 -6.2489386 154.15712 -50.626846 -151.67551 -50.787018 -159.56723 -11.777198 97.834618
16600000000 -6.1185617 153.0752 -49.848728 -174.20256 -50.485859 177.66162 -11.577543 95.580185
16610000000 -5.9594307 151.2644 -50.116116 157.66042 -50.887016 153.20993 -11.31799 92.82486
16620000000 -5.8685827 150.06503 -50.581749 141.04471 -51.073006 138.71324 -11.032964 90.302841
16630000000 -5.7202702 148.41943 -50.170807 120.65804 -50.545071 119.52342 -10.704785 88.500641
16640000000 -5.6592946 147.59724 -50.159031 98.507431 -50.497406 94.739769 -10.487379 87.276039
16650000000 -5.4809752 146.75728 -49.770184 78.127716 -50.716114 75.192833 -10.38399 86.311356
16660000000 -5.3353777 146.28365 -49.359818 55.077374 -49.911289 54.537273 -10.38169 84.696304
16670000000 -5.0906863 145.46533 -49.028358 30.809376 -49.586658 31.95558 -10.422485 82.027817
16680000000 -4.9107738 144.50128 -48.73819 2.6317255 -49.431992 3.5200107 -10.399108 78.633354
16690000000 -4.7112288 143.19601 -49.658051 -21.667408 -50.293278 -17.873529 -10.265627 75.436317
16700000000 -4.598948 141.88756 -50.203587 -37.435349 -50.783344 -35.856804 -10.071963 72.553223
16710000000 -4.472497 140.40063 -49.601933 -61.246025 -49.624031 -53.987267 -9.8984833 70.404236
16720000000 -4.4055152 139.20111 -50.000217 -85.003006 -49.486004 -80.198303 -9.7531404 68.655907
16730000000 -4.2672663 137.99559 -50.016651 -106.00963 -49.589638 -105.63946 -9.642499 66.968742
16740000000 -4.1333065 136.92934 -50.48621 -122.9686 -49.896233 -122.30145 -9.5441599 65.128769
16750000000 -3.9539361 135.66792 -49.119209 -145.29178 -48.583595 -145.38422 -9.4975691 63.463989
16760000000 -3.7831438 134.43275 -48.842426 -171.41805 -48.369911 -172.77055 -9.4483652 61.728294
16770000000 -3.6049316 132.93707 -49.28598 160.119 -48.615879 157.70078 -9.4792976 59.687923
16780000000 -3.4601951 131.73219 -50.350101 140.19998 -50.182388 134.90369 -9.5243006 57.561966
16790000000 -3.3314698 130.25688 -50.410408 120.45166 -50.639675 120.50729 -9.5741014 54.814415
16800000000 -3.2241817 129.09654 -50.463196 100.98828 -50.239807 101.99498 -9.5814753 51.677029
16810000000 -3.1032474 127.72228 -49.54718 82.574005 -48.742207 82.528694 -9.5849724 48.348915
16820000000 -2.9891958 126.34954 -49.276981 51.961796 -48.501556 50.791073 -9.5455885 45.257923
16830000000 -2.8708191 124.73753 -49.566345 28.088224 -48.853813 26.602839 -9.449811 42.452827
16840000000 -2.7607169 123.33051 -49.893497 2.2462451 -49.124821 -3.880758 -9.3167534 39.978512
16850000000 -2.6300464 121.69135 -51.044838 -15.051403 -51.052258 -25.327375 -9.2117777 37.898529
16860000000 -2.5112233 120.2121 -50.806801 -35.774982 -50.844177 -41.398354 -9.1482353 36.418011
16870000000 -2.3875778 118.70092 -50.583508 -53.751915 -50.722824 -57.81234 -9.1847868 34.786198
16880000000 -2.2559841 117.34697 -49.766716 -76.248489 -50.129459 -81.774765 -9.3200245 33.074425
16890000000 -2.1380951 115.858 -49.467564 -105.20139 -49.795605 -108.83103 -9.5016785 30.304249
16900000000 -2.0288634 114.55843 -49.916721 -134.55843 -50.681385 -139.15755 -9.6665249 27.107162
16910000000 -1.9370438 113.02454 -50.611248 -155.32552 -51.201675 -157.04994 -9.7332792 23.126347
16920000000 -1.8691313 111.6917 -51.057201 -178.97333 -51.476212 179.49945 -9.7268286 19.2078
16930000000 -1.7783432 110.22575 -51.530674 159.72041 -51.716373 157.24864 -9.6790276 15.347782
16940000000 -1.6998301 108.68737 -51.670094 138.34174 -51.809052 136.90097 -9.6789904 12.004031
16950000000 -1.6072081 107.01339 -52.403149 112.96776 -52.591579 111.77702 -9.7006416 8.8598785
16960000000 -1.5229573 105.35886 -52.387486 93.460304 -52.822029 94.349777 -9.7510471 6.0516691
16970000000 -1.4286282 103.68518 -52.425179 69.88588 -52.486141 70.463303 -9.7890348 3.2225175
16980000000 -1.3438843 102.05054 -52.636818 47.840191 -52.90572 47.733173 -9.88027 0.23890887
16990000000 -1.2558889 100.44961 -53.139351 23.586794 -52.861568 21.705448 -10.055865 -3.0599344
17000000000 -1.1794899 98.971092 -53.403893 -0.23092884 -53.70472 -2.8708706 -10.276794 -6.6976938
