!Keysight Technologies,P9374A,MY57211807,A.19.30.04
!Date: Friday, May 08, 2026 15:09:44
!Correction: S11(C  2-Port  ) 
!S21(C  2-Port  ) 
!S12(C  2-Port  ) 
!S22(C  2-Port  ) 
!S2P File: Measurements: S11, S21, S12, S22:
# Hz S  dB   R 50
13000000000 -19.020002 57.551338 -48.954834 90.203606 -48.413055 89.919167 -10.852353 -83.114815
13010000000 -19.410837 59.916531 -47.398426 69.113304 -47.839027 66.048134 -11.191815 -86.369522
13020000000 -19.213928 61.771923 -46.80595 39.392441 -47.596981 41.458797 -11.524964 -89.545128
13030000000 -19.285931 62.263145 -46.990189 13.019305 -47.067684 16.81204 -11.886134 -92.725929
13040000000 -19.532835 61.150372 -47.886005 -13.778587 -47.88982 -11.79712 -12.303709 -96.035889
13050000000 -19.808956 63.359131 -48.669842 -34.291294 -48.882351 -34.006683 -12.771741 -99.777512
13060000000 -19.792995 63.297291 -49.750973 -45.083328 -49.573971 -44.757523 -13.2627 -104.47193
13070000000 -19.752331 63.148987 -48.933388 -62.069462 -48.72192 -60.040943 -13.727373 -109.55418
13080000000 -19.753054 62.238995 -47.717735 -88.655678 -47.355171 -87.718948 -14.072717 -114.35749
13090000000 -19.385111 61.641121 -47.788452 -115.4326 -47.61488 -116.27897 -14.403062 -118.98494
13100000000 -19.513474 58.60928 -48.650955 -141.26709 -48.541485 -142.55614 -14.83205 -123.40069
13110000000 -19.757652 59.396946 -49.314419 -159.05841 -49.65591 -160.60396 -15.361221 -128.28906
13120000000 -19.929525 60.130856 -49.323418 177.4803 -49.258808 -176.88622 -15.904232 -134.35411
13130000000 -19.719286 62.591656 -49.305908 160.41298 -48.478485 160.65968 -16.323315 -141.32954
13140000000 -19.403278 64.438911 -49.471058 132.17007 -48.609791 128.72617 -16.646679 -148.38591
13150000000 -19.070135 62.344688 -50.17593 112.96236 -50.06741 110.19766 -16.992949 -155.07381
13160000000 -19.147739 61.882839 -51.431736 93.87368 -51.148956 89.15667 -17.4144 -161.9731
13170000000 -18.975857 58.266201 -51.29044 81.360527 -50.834824 79.264549 -17.85474 -170.41869
13180000000 -19.575842 56.016384 -49.680996 62.251553 -49.63673 60.110432 -18.078938 178.87607
13190000000 -19.554626 57.683422 -48.605923 34.394333 -48.344467 34.49329 -17.917082 167.89417
13200000000 -19.684088 55.721096 -48.515423 4.5118217 -47.997478 1.3751515 -17.488956 158.49879
13210000000 -19.449268 56.985481 -49.921291 -28.226057 -49.533092 -31.903172 -17.087975 150.62259
13220000000 -19.19883 54.260433 -50.498562 -43.647331 -50.333778 -49.064293 -16.851467 143.44888
13230000000 -19.177221 53.08709 -51.32653 -71.031837 -51.570396 -75.998726 -16.670359 134.98842
13240000000 -19.179033 52.113235 -51.193409 -86.115227 -51.631794 -86.560951 -16.3062 125.94363
13250000000 -19.187071 50.247768 -52.098755 -112.52053 -52.028511 -113.08111 -15.646269 117.19347
13260000000 -19.643345 51.416508 -50.914169 -134.98555 -51.240589 -138.28275 -14.848889 110.01466
13270000000 -19.26005 51.312389 -51.776718 -166.26898 -51.954117 -166.95528 -14.133877 104.33752
13280000000 -19.224651 49.997787 -52.980774 161.65503 -52.470825 163.70557 -13.571389 99.251823
13290000000 -19.197861 46.329865 -54.342751 139.71223 -53.494129 135.84703 -13.125782 93.868004
13300000000 -19.399818 43.504482 -55.611526 122.43165 -56.326897 117.16691 -12.693208 87.902122
13310000000 -19.748688 40.764252 -56.484184 96.601181 -56.853024 92.910355 -12.168243 81.908791
13320000000 -20.05895 39.383682 -55.753349 66.961533 -56.204399 62.371868 -11.609392 76.645271
13330000000 -20.568186 39.021507 -57.237251 25.95697 -56.654198 22.336676 -11.067197 72.282188
13340000000 -20.231558 43.343899 -60.129551 -11.967017 -59.331631 -23.901806 -10.600905 68.208382
13350000000 -19.82456 40.650734 -60.116665 -46.215206 -62.105873 -53.25024 -10.249447 63.843632
13360000000 -19.63096 39.450886 -66.5951 -108.30093 -67.289124 -99.592972 -9.9473248 58.846638
13370000000 -19.612286 35.195805 -65.868607 -143.3053 -63.779411 -128.81982 -9.5994568 53.456341
13380000000 -19.744446 31.516129 -64.235649 -143.03505 -60.467327 -156.08966 -9.1654081 48.267464
13390000000 -20.660944 27.874189 -57.790096 165.02899 -57.206413 150.66548 -8.7107716 43.715641
13400000000 -21.137276 29.626932 -56.419746 116.99322 -56.227005 106.88835 -8.2851191 40.030914
13410000000 -21.545486 27.776802 -54.96212 78.957184 -54.532459 75.529526 -7.9726443 36.465984
13420000000 -21.733921 31.521797 -55.844494 53.391083 -54.765934 44.678699 -7.771975 32.478748
13430000000 -21.532244 27.812555 -52.965576 24.677862 -52.930126 15.186338 -7.6339288 28.162348
13440000000 -21.476021 27.382675 -53.440353 0.9844166 -53.893768 -2.9950428 -7.4862247 23.572403
13450000000 -21.392305 23.378572 -51.089134 -28.402233 -51.078171 -27.693691 -7.2741504 18.942009
13460000000 -21.634066 21.468494 -51.206371 -59.184334 -50.655987 -60.737007 -7.0259395 14.782526
13470000000 -22.098726 18.482882 -50.833645 -81.94413 -50.483307 -86.640816 -6.8109436 10.876454
13480000000 -22.253782 19.988821 -51.248035 -98.201172 -50.896923 -110.57964 -6.6654329 6.9339919
13490000000 -22.767267 15.007421 -48.573902 -122.29044 -49.38028 -130.3996 -6.6114655 3.0270946
13500000000 -23.1623 15.894265 -47.863888 -156.46664 -48.521454 -160.11191 -6.6039286 -0.77715784
13510000000 -23.919254 15.199953 -48.281036 177.23036 -48.795799 172.48816 -6.5578465 -4.5183463
13520000000 -24.307297 16.904352 -48.317497 155.25909 -48.945477 153.33507 -6.5221043 -8.3207788
13530000000 -24.730909 16.513227 -47.444305 133.76291 -47.661797 128.90428 -6.5123405 -12.085269
13540000000 -24.550505 18.102839 -47.003468 105.24255 -47.963875 101.145 -6.543982 -15.968382
13550000000 -24.197664 16.803146 -47.055893 78.809616 -48.014462 80.059151 -6.6342597 -19.819445
13560000000 -23.74511 11.935361 -47.194962 54.733006 -47.578747 56.488987 -6.7374396 -23.670458
13570000000 -24.858662 7.1517582 -46.856392 32.579636 -47.489376 32.442093 -6.7874346 -27.329983
13580000000 -25.144566 4.6766868 -47.674583 10.361308 -48.015675 10.196254 -6.815383 -30.770002
13590000000 -26.955252 5.6941814 -46.635502 -4.8916459 -47.655998 -4.4077449 -6.8353629 -34.152882
13600000000 -27.394165 11.71903 -45.602505 -32.084442 -46.375854 -27.582127 -6.9272499 -37.334206
13610000000 -27.964663 24.532711 -45.125584 -63.224331 -45.536701 -58.464485 -7.0783253 -40.23914
13620000000 -26.514143 25.524294 -46.675591 -91.037422 -46.932171 -85.228546 -7.2585616 -43.273312
13630000000 -26.165989 21.661398 -46.469555 -110.88219 -46.453075 -107.508 -7.421977 -46.438042
13640000000 -26.059004 11.133449 -47.378334 -133.71429 -47.322834 -130.33739 -7.5918784 -49.911968
13650000000 -27.672016 7.5300703 -46.906136 -151.40099 -46.995979 -148.19058 -7.7429795 -53.220074
13660000000 -27.891413 7.1088276 -46.710823 -172.12373 -46.293999 -163.42288 -7.8632941 -56.349518
13670000000 -29.48716 4.642169 -46.635349 164.16908 -45.61573 166.76842 -7.9915724 -59.280231
13680000000 -30.38603 19.172102 -45.911461 141.73969 -45.571693 143.72134 -8.1276922 -61.961388
13690000000 -28.795025 27.329708 -46.161934 115.00003 -45.499355 117.48743 -8.2839994 -64.561554
13700000000 -27.823072 25.662275 -45.729408 92.187485 -45.103302 95.759834 -8.4726191 -67.377426
13710000000 -27.311129 25.68857 -46.853165 64.518845 -45.954906 65.976028 -8.684947 -70.288345
13720000000 -27.256649 19.873463 -46.79081 48.183422 -45.685947 47.808903 -8.8796892 -73.237411
13730000000 -28.060532 19.479475 -47.270313 27.674784 -46.144749 24.099419 -9.0612259 -76.073448
13740000000 -28.17827 18.088221 -46.17691 6.1813545 -45.952324 4.889966 -9.2361574 -78.738106
13750000000 -29.667177 19.089251 -46.337318 -16.726112 -45.614655 -17.511696 -9.4602242 -81.420685
13760000000 -29.014061 21.638105 -45.958397 -41.405659 -44.882931 -44.826458 -9.7409735 -84.198441
13770000000 -29.876204 17.639523 -46.225105 -69.083138 -45.477821 -72.783676 -9.9813089 -87.421532
13780000000 -29.888954 24.871431 -47.595364 -91.857559 -46.458729 -99.379395 -10.186606 -91.127975
13790000000 -28.283041 22.320816 -46.774498 -107.41536 -46.876156 -115.6319 -10.332554 -94.601135
13800000000 -28.739708 17.768044 -46.857574 -131.69206 -46.736259 -136.35402 -10.420421 -97.36425
13810000000 -27.435005 19.362648 -46.686417 -152.92821 -46.264683 -160.76497 -10.53201 -99.595634
13820000000 -26.97278 8.2141724 -46.417007 -178.6384 -47.01627 173.78001 -10.747999 -101.52042
13830000000 -27.197144 8.5436535 -47.691257 158.35896 -47.820702 153.14154 -11.011252 -103.92628
13840000000 -27.289452 -3.5653377 -47.182777 141.95093 -47.717796 136.25711 -11.324881 -107.25457
13850000000 -29.415718 -1.2214956 -46.773998 118.19978 -47.434418 114.47611 -11.594222 -110.78145
13860000000 -29.433996 1.6212595 -46.851563 91.462296 -47.237247 88.641121 -11.760045 -114.34644
13870000000 -29.749676 4.639688 -46.550106 70.113472 -46.908028 64.432716 -11.905275 -117.70821
13880000000 -29.443317 5.8388486 -47.093849 42.509083 -47.722744 35.13401 -12.101499 -120.76201
13890000000 -28.028614 6.6457987 -47.353588 17.549755 -48.877785 14.521595 -12.35317 -124.0294
13900000000 -27.494186 -6.9350429 -49.02597 -3.1229675 -50.266014 -0.68589878 -12.56321 -127.6231
13910000000 -27.284035 -9.0155506 -48.477921 -13.506814 -49.606247 -13.464495 -12.698887 -131.6102
13920000000 -26.980139 -24.215519 -47.29385 -41.570503 -48.532639 -37.932945 -12.798185 -135.32945
13930000000 -28.884802 -29.899687 -47.718842 -67.931084 -48.216248 -63.92226 -12.876429 -138.41405
13940000000 -29.416704 -32.073174 -47.588345 -89.975548 -48.632992 -88.909752 -13.041529 -141.33791
13950000000 -30.755636 -35.901249 -48.141361 -119.89284 -49.182629 -114.38047 -13.311036 -144.40472
13960000000 -32.129715 -35.364891 -49.356449 -140.28871 -50.006718 -135.21227 -13.623753 -148.41641
13970000000 -31.36314 -26.385084 -49.848377 -161.43547 -50.333546 -153.36604 -13.889666 -153.27196
13980000000 -30.507551 -36.812748 -49.745659 179.38921 -50.438297 -174.45921 -14.020253 -158.63156
13990000000 -29.484915 -41.186813 -49.072361 156.13759 -49.649128 164.68082 -14.03461 -163.96814
14000000000 -28.661673 -53.285839 -50.481506 126.26903 -50.479355 137.5394 -13.971238 -168.94872
14010000000 -27.672371 -61.743252 -52.08971 114.52714 -50.977116 124.3779 -13.906945 -173.42789
14020000000 -27.23345 -73.814507 -51.254322 93.596054 -50.260372 98.346382 -13.866955 -177.72041
14030000000 -28.723206 -84.490219 -51.676907 74.395714 -50.986401 80.592751 -13.844093 178.18163
14040000000 -29.844704 -85.493813 -50.454132 54.619095 -50.038406 60.364277 -13.817466 173.8866
14050000000 -30.59412 -84.919357 -50.309807 30.211706 -49.364273 38.967987 -13.772582 169.46306
14060000000 -32.33305 -83.830086 -50.938057 -6.6547513 -49.202534 1.0639219 -13.713504 164.79445
14070000000 -31.884069 -71.740433 -53.2342 -25.30842 -51.23103 -19.259153 -13.651949 160.27402
14080000000 -30.402525 -82.049553 -53.139301 -31.71036 -51.101204 -36.460052 -13.556174 155.9507
14090000000 -30.090792 -87.697311 -51.912144 -54.356979 -50.79343 -56.083218 -13.464156 151.55362
14100000000 -28.520468 -105.5108 -52.476662 -78.438522 -50.427292 -79.540665 -13.360627 146.85204
14110000000 -28.943806 -116.8388 -51.718483 -102.06187 -50.462307 -107.12931 -13.262382 141.90839
14120000000 -28.695526 -127.97727 -51.80637 -127.72832 -50.241306 -130.40224 -13.063023 137.04192
14130000000 -29.039011 -131.99089 -52.736866 -151.12318 -51.532959 -158.74089 -12.772394 132.20062
14140000000 -29.022333 -135.85971 -52.875572 -173.47705 -52.015312 178.43788 -12.505874 127.87811
14150000000 -29.346058 -134.51295 -52.823799 171.55316 -51.868412 164.28067 -12.317165 124.06023
14160000000 -28.834116 -137.68996 -51.824158 145.00304 -50.646294 132.61407 -12.14308 120.17097
14170000000 -29.529484 -138.83641 -52.20118 114.3283 -51.903923 101.48738 -11.968579 115.6693
14180000000 -29.310019 -145.53723 -54.272564 96.078888 -53.665478 82.778519 -11.739292 110.76487
14190000000 -29.995502 -144.17447 -51.749084 78.875389 -52.608494 66.925301 -11.444623 106.02043
14200000000 -28.713989 -141.88036 -52.013699 45.863407 -52.774155 40.439903 -11.107945 101.91022
14210000000 -27.824785 -148.59184 -52.036041 21.790739 -52.717468 12.556828 -10.814187 98.134682
14220000000 -26.878138 -155.00797 -52.333378 -6.4418731 -53.177021 -8.3327131 -10.580894 94.555641
14230000000 -26.352957 -164.37106 -53.076405 -29.295723 -52.941422 -35.205269 -10.384604 90.745255
14240000000 -26.25481 -173.4427 -53.088844 -48.957531 -53.231266 -59.77906 -10.157739 86.626953
14250000000 -27.262196 179.47073 -52.903191 -73.573967 -54.263699 -86.228043 -9.9339018 82.325127
14260000000 -29.769733 178.38864 -52.819923 -98.865913 -54.294853 -98.901962 -9.7118416 78.339172
14270000000 -30.085379 -163.16975 -52.327633 -126.98911 -52.578316 -128.50821 -9.4916344 74.506493
14280000000 -29.072123 -160.90805 -52.95583 -146.74065 -54.023827 -152.31741 -9.3127317 70.53437
14290000000 -27.313379 -157.14961 -51.374836 -168.95425 -52.437267 -172.81456 -9.1497536 66.263672
14300000000 -26.261171 -167.8924 -51.04567 158.31987 -52.290306 153.85411 -8.9910679 61.755913
14310000000 -25.624567 -178.69542 -51.063587 128.47459 -52.154957 124.60542 -8.7924728 57.385666
14320000000 -26.483023 165.79599 -51.795673 102.52668 -52.785389 105.02449 -8.5631847 53.034653
14330000000 -27.605745 166.02205 -51.710373 82.799751 -52.473953 79.827721 -8.3729191 48.940861
14340000000 -29.387665 163.58804 -50.934925 56.747898 -52.322605 58.837612 -8.2328119 45.156544
14350000000 -29.340815 178.41594 -50.709114 28.555111 -50.780354 28.857883 -8.1163082 41.242279
14360000000 -29.181858 -176.8725 -49.805794 8.0974855 -50.926899 3.7576277 -8.0713186 36.983189
14370000000 -26.870958 -172.90027 -49.412796 -23.53828 -50.716 -17.738712 -8.0589838 32.491638
14380000000 -26.893803 173.09401 -49.191559 -44.817986 -49.263416 -39.059498 -8.0086679 27.878538
14390000000 -27.335014 174.51831 -49.015968 -76.147438 -48.216686 -74.542961 -7.9550676 23.030262
14400000000 -27.794075 169.31787 -47.983467 -96.496109 -48.035702 -100.82272 -7.9201469 18.295744
14410000000 -28.056841 170.049 -48.010155 -127.43851 -48.610558 -132.60983 -7.8799834 14.022254
14420000000 -28.474501 169.01642 -47.548775 -153.5937 -48.603249 -154.18817 -7.8512349 9.6768837
14430000000 -27.8659 169.95764 -47.83625 -178.19302 -48.594795 -175.42473 -7.9132595 5.2116675
14440000000 -28.365295 166.92152 -47.682266 159.91544 -47.749428 164.75398 -8.027257 0.83041227
14450000000 -27.927603 169.14552 -47.026325 134.75142 -46.397236 134.77136 -8.1435394 -3.655241
14460000000 -29.171806 171.18712 -46.416569 112.42773 -46.311298 106.21346 -8.2794371 -8.5206528
14470000000 -27.767218 -176.21466 -45.779545 84.359283 -46.64529 80.344345 -8.4957838 -13.172482
14480000000 -26.572577 -176.20393 -45.628262 57.904617 -46.261589 59.510372 -8.6976957 -17.537142
14490000000 -25.602526 177.71605 -46.147404 32.373508 -46.662449 36.042671 -8.9166088 -22.651201
14500000000 -25.655016 172.62885 -45.623108 11.628211 -45.006565 11.673157 -9.2534771 -28.203056
14510000000 -26.24486 163.53702 -44.828697 -10.424398 -44.815372 -15.116681 -9.5480213 -33.478069
14520000000 -28.648989 166.24026 -44.152683 -39.961479 -44.937401 -43.392033 -9.7477255 -38.854649
14530000000 -29.387907 173.62253 -44.800373 -65.501579 -45.495701 -65.151451 -9.9705706 -43.893562
14540000000 -28.13805 -163.62576 -44.803253 -88.004478 -44.641636 -84.353462 -10.303539 -48.160168
14550000000 -24.904974 -170.93239 -43.980827 -106.99451 -44.048332 -109.81934 -10.70854 -52.263916
14560000000 -24.061106 -177.35945 -43.548813 -132.41269 -44.170025 -135.6095 -11.224004 -57.130199
14570000000 -23.348682 171.45625 -43.220448 -160.45836 -43.82021 -160.00261 -11.78457 -62.917408
14580000000 -23.929775 164.79852 -43.180679 175.7565 -43.570614 178.03262 -12.334404 -69.188828
14590000000 -25.314348 159.7206 -43.238125 149.36829 -43.374882 150.75916 -12.848889 -75.188332
14600000000 -26.459164 173.98317 -43.438843 128.32893 -43.810791 127.85207 -13.300871 -81.147354
14610000000 -25.654266 -179.16832 -43.10973 107.22799 -43.318478 109.21802 -13.876231 -87.408646
14620000000 -23.714315 -172.25475 -42.627419 81.76107 -42.822056 82.136818 -14.482595 -94.050598
14630000000 -22.510368 178.37311 -42.475288 56.78772 -42.882931 58.044014 -15.022041 -101.54182
14640000000 -22.164892 172.04846 -42.4776 34.359856 -42.652248 35.442772 -15.494469 -109.20641
14650000000 -22.328934 165.17038 -42.312012 9.655468 -42.542179 12.056374 -15.958365 -116.41918
14660000000 -22.82597 162.76276 -42.483768 -14.740981 -42.391399 -12.109311 -16.462404 -122.90298
14670000000 -23.499361 163.54018 -42.637405 -35.226917 -42.483917 -33.387272 -17.030724 -130.29199
14680000000 -22.761906 168.20209 -42.2817 -57.673744 -42.284363 -56.203472 -17.766062 -139.36827
14690000000 -22.465836 168.01122 -42.297932 -81.092255 -42.099567 -79.949379 -18.370152 -149.53685
14700000000 -21.37751 166.28307 -42.246334 -101.92172 -42.066097 -100.2769 -18.583342 -160.75551
14710000000 -21.602234 162.13857 -41.600597 -123.3405 -41.313129 -123.83656 -18.448341 -172.38771
14720000000 -21.430473 161.26736 -41.418606 -149.77478 -41.345711 -150.60402 -18.330647 176.77068
14730000000 -21.589804 159.89111 -41.468571 -172.36722 -41.550034 -171.88359 -18.059462 168.67786
14740000000 -21.067274 158.55487 -41.170589 163.23444 -41.240013 163.43936 -17.618328 161.05394
14750000000 -21.014606 156.12961 -41.633389 141.83916 -41.476238 143.48155 -17.358053 153.241
14760000000 -20.436996 152.33295 -41.49369 117.42056 -40.975628 118.72964 -17.291231 146.16878
14770000000 -20.836279 146.9865 -41.493931 99.342644 -41.182453 97.22641 -17.132332 139.35001
14780000000 -20.912073 144.62041 -40.909805 76.098587 -40.861591 74.241325 -16.787329 131.32191
14790000000 -21.64996 145.33386 -40.559402 54.673145 -40.573826 53.901585 -16.408949 123.49623
14800000000 -21.038307 149.85533 -40.262341 28.420864 -40.184013 27.327188 -15.971413 117.74972
14810000000 -20.720652 151.0482 -40.334747 4.9202461 -40.443523 3.5084105 -15.436307 112.56997
14820000000 -19.544876 149.28157 -40.62183 -16.374084 -40.660645 -17.251051 -15.03185 107.1528
14830000000 -19.445396 142.19603 -40.221046 -37.561825 -40.163651 -38.729713 -14.773445 102.34638
14840000000 -19.489326 135.81012 -39.959606 -61.650013 -39.940281 -63.21489 -14.463055 98.349289
14850000000 -20.587708 131.35847 -39.879707 -84.712631 -39.812317 -86.539612 -14.051289 94.126442
14860000000 -21.136555 131.0155 -39.782867 -107.27313 -39.847965 -109.90144 -13.797275 89.807503
14870000000 -22.146179 132.43527 -39.621895 -131.32462 -39.877102 -133.05357 -13.715955 86.800522
14880000000 -21.564634 136.6042 -39.626167 -153.63379 -39.826668 -154.00029 -13.621245 83.295959
14890000000 -21.018526 136.88567 -39.238697 -178.14766 -39.195786 -177.88948 -13.554504 78.241249
14900000000 -20.012041 131.67015 -39.346367 159.69972 -39.109409 157.93542 -13.500957 73.206642
14910000000 -20.155373 126.68593 -39.340927 134.36775 -39.401737 131.21846 -13.189068 69.011337
14920000000 -20.058952 121.76672 -39.159523 113.19808 -39.280258 111.19796 -12.820054 65.128143
14930000000 -20.821627 119.86235 -39.409317 88.275917 -39.396877 85.919434 -12.643015 62.535049
14940000000 -20.997379 118.62771 -39.085014 66.497726 -39.469452 65.548286 -12.614358 60.478996
14950000000 -21.644821 121.81676 -39.269947 41.79842 -39.298603 40.832722 -12.673286 58.240231
14960000000 -21.679598 119.66623 -38.966553 19.483463 -39.001602 16.608246 -12.778854 54.86327
14970000000 -22.19611 123.60823 -39.140549 -6.2311597 -39.245247 -7.5628791 -12.874186 51.467384
14980000000 -22.090513 120.65998 -39.122082 -29.064135 -39.281216 -31.280659 -12.911073 48.599064
14990000000 -22.20974 122.54417 -39.366592 -52.264713 -39.685989 -53.276501 -13.04442 45.507668
15000000000 -22.06032 117.63034 -39.292824 -77.07122 -39.403034 -78.102562 -13.364573 42.809628
15010000000 -22.238365 117.55401 -39.525887 -101.81176 -39.817284 -103.15329 -13.683727 40.461884
15020000000 -22.286726 111.1533 -40.192013 -123.85649 -40.658863 -122.61031 -13.680207 37.031158
15030000000 -22.787245 109.72509 -39.891438 -140.95284 -40.096039 -141.07814 -13.715617 32.637276
15040000000 -23.778824 106.50692 -39.49913 -164.61363 -39.830143 -163.59531 -13.780461 30.863785
15050000000 -24.399752 114.58926 -39.42585 169.29848 -39.47406 171.09622 -13.786295 30.480268
15060000000 -24.302328 118.86547 -39.469925 144.89691 -39.599384 145.67404 -14.135767 30.383738
15070000000 -23.847601 123.92324 -40.060875 119.15951 -40.052422 121.12045 -14.655398 30.995689
15080000000 -23.326199 122.74644 -40.331429 98.575012 -40.232384 98.832146 -15.16458 30.812599
15090000000 -23.002285 119.23568 -40.629147 76.159988 -40.565723 75.941429 -15.655706 28.920496
15100000000 -23.728943 114.55653 -40.588745 54.393078 -40.612579 55.24596 -16.160582 27.089363
15110000000 -24.503496 114.33645 -40.916851 31.05435 -40.684025 33.124683 -16.554281 26.932165
15120000000 -25.591908 117.31291 -40.662952 8.307312 -40.093857 10.114652 -16.773003 27.699152
15130000000 -25.501711 121.50443 -40.901955 -14.270056 -40.314377 -15.53672 -17.010693 28.205345
15140000000 -25.342981 126.45075 -40.613071 -38.294029 -40.301346 -41.339214 -17.269005 29.645426
15150000000 -24.330244 126.51118 -41.263779 -66.196701 -41.015507 -67.031219 -17.209698 31.083652
15160000000 -24.434683 126.30605 -41.889843 -85.91291 -41.633224 -86.982643 -17.121601 32.548923
15170000000 -23.779753 127.02092 -41.94566 -107.38026 -41.327011 -108.59883 -17.101791 35.859386
15180000000 -23.585064 124.95724 -42.103287 -131.02101 -41.497337 -133.78702 -16.895557 40.181454
15190000000 -23.439735 124.74114 -41.996288 -155.29562 -41.709141 -158.85118 -16.797928 42.899715
15200000000 -23.505922 124.28871 -43.113518 -179.81381 -42.683399 176.65224 -16.88043 45.235542
15210000000 -23.352121 121.62811 -43.614376 164.32993 -43.064396 158.73669 -16.876198 46.800716
15220000000 -24.563643 121.80721 -43.012787 141.93916 -42.75703 136.06628 -16.758186 46.806458
15230000000 -24.508204 127.57736 -42.320984 118.07317 -42.053192 113.19753 -16.55792 46.406075
15240000000 -24.193014 132.85088 -43.029949 85.934303 -42.663696 81.537498 -16.205359 46.042324
15250000000 -22.978039 132.02762 -44.061798 64.489426 -43.459423 57.818283 -15.743258 45.112076
15260000000 -22.486603 128.52965 -44.809231 46.602299 -45.079609 39.061909 -15.318066 43.772488
15270000000 -21.821339 124.19193 -44.431805 24.122803 -44.557796 19.506935 -14.911787 43.01825
15280000000 -21.738867 114.06351 -44.730915 4.4214716 -44.839798 -1.7090385 -14.442854 43.232883
15290000000 -22.765339 109.23486 -44.45348 -20.438427 -44.633602 -24.242908 -14.019397 43.111198
15300000000 -23.739319 110.63699 -44.668468 -45.06076 -44.745354 -51.326633 -13.788669 43.152012
15310000000 -24.228054 116.56711 -45.650272 -72.33535 -45.842949 -78.244766 -13.66 42.608776
15320000000 -23.686375 122.07275 -45.584953 -91.93013 -45.958431 -96.874504 -13.553316 40.723511
15330000000 -22.719233 123.15003 -46.383335 -115.37214 -46.440159 -122.05833 -13.542751 37.566631
15340000000 -22.054819 117.59198 -46.613075 -143.23972 -47.211758 -149.54991 -13.484734 35.25676
15350000000 -21.877159 113.14318 -47.723423 -159.603 -48.015419 -167.62735 -13.218258 32.784916
15360000000 -22.264996 104.11718 -47.143223 179.42276 -48.24173 170.58861 -13.038399 30.169277
15370000000 -23.41967 103.36796 -46.280376 150.92549 -47.901871 149.21309 -12.882959 27.711054
15380000000 -23.642616 100.0723 -47.484524 117.2499 -48.025757 118.79685 -12.717247 24.575132
15390000000 -24.55994 103.11311 -49.600666 94.748894 -50.136131 90.842766 -12.528629 21.409555
15400000000 -24.318687 103.35303 -49.438366 77.969612 -51.058067 77.861832 -12.359977 18.795027
15410000000 -24.357771 103.38681 -48.865837 55.747562 -50.435143 56.820244 -12.250414 17.45899
15420000000 -24.28459 100.48885 -48.766399 21.616556 -50.502026 27.803778 -12.199146 16.265545
15430000000 -24.375202 98.856194 -49.723515 -12.601119 -51.406731 -1.0537329 -12.329812 13.743272
15440000000 -24.774567 94.962914 -51.450874 -38.254211 -51.832802 -23.531879 -12.706964 10.08757
15450000000 -25.108551 96.011024 -53.48859 -66.244324 -53.796646 -53.22197 -12.948636 5.7349796
15460000000 -25.138662 89.558754 -53.758793 -81.100655 -53.485542 -72.462143 -12.970488 0.19899812
15470000000 -25.933716 89.539108 -53.233559 -111.16119 -53.11372 -97.837341 -12.990926 -4.8837771
15480000000 -26.348717 81.416229 -52.761597 -139.90292 -52.637394 -127.30967 -12.960085 -8.0802603
15490000000 -28.070768 80.243469 -52.620518 173.28325 -53.248322 -168.58444 -12.963529 -11.13614
15500000000 -29.005102 78.603203 -52.492565 143.54814 -53.739796 164.68582 -13.160155 -14.653728
15510000000 -30.621157 85.82029 -53.438057 96.980362 -53.366001 127.45168 -13.489584 -17.895491
15520000000 -30.660179 93.266869 -53.650272 67.696243 -53.202202 87.448372 -13.817342 -21.313738
15530000000 -29.13233 94.831322 -54.706928 37.675781 -54.457207 57.75177 -14.187313 -24.954645
15540000000 -29.403839 82.839348 -52.311234 7.0505538 -52.757088 24.800106 -14.698524 -29.268969
15550000000 -29.766605 78.210289 -52.432312 -24.001619 -52.332924 -8.0779343 -15.384591 -34.082848
15560000000 -31.426477 57.96505 -51.622784 -55.78587 -51.885361 -43.432392 -15.984269 -40.096664
15570000000 -36.14143 47.28717 -52.247532 -84.350449 -51.931751 -67.553413 -16.608511 -47.412594
15580000000 -42.353367 15.641016 -51.029964 -107.21726 -50.784195 -98.054939 -17.104164 -55.05809
15590000000 -44.859844 168.80104 -50.176655 -142.51013 -50.361313 -133.23552 -17.445934 -62.180595
15600000000 -43.548065 157.02805 -50.184338 -167.37674 -50.241467 -156.48239 -17.738007 -69.028511
15610000000 -38.735062 158.06277 -49.918816 168.38887 -49.945251 177.97038 -18.208076 -75.21508
15620000000 -40.812119 130.67194 -49.059284 146.56816 -48.439678 152.62706 -18.812696 -80.539978
15630000000 -46.616829 132.05676 -48.228642 117.19454 -48.551682 118.47914 -19.560022 -86.303917
15640000000 -46.815708 -69.377335 -48.134533 88.823059 -48.564693 96.330307 -20.515738 -94.260529
15650000000 -37.574387 -115.23842 -48.354259 62.140278 -48.154278 72.221931 -21.577379 -105.42539
15660000000 -34.488632 -115.56774 -48.461941 37.549129 -47.959885 44.671196 -22.194563 -119.63202
15670000000 -31.449356 -136.89821 -48.899372 11.394742 -48.444435 19.801107 -21.958666 -134.68791
15680000000 -31.141029 -140.78596 -49.131638 -5.0108919 -47.929081 1.9977529 -21.361773 -146.47623
15690000000 -30.030107 -146.6003 -47.580528 -26.648552 -46.719524 -22.635126 -20.844547 -155.19815
15700000000 -29.751379 -146.13074 -47.797085 -55.922928 -46.765564 -50.002991 -20.506561 -162.59895
15710000000 -29.377485 -149.80492 -48.062763 -78.774467 -46.573822 -74.153763 -20.162933 -170.53905
15720000000 -28.776104 -143.93977 -47.514484 -99.406868 -46.128201 -99.594849 -19.763651 -179.07132
15730000000 -28.262968 -143.11957 -47.450668 -126.41756 -46.278133 -127.89896 -19.309343 173.9072
15740000000 -27.072485 -141.31401 -47.803516 -154.94574 -46.699444 -154.04784 -18.86577 167.67381
15750000000 -26.844412 -144.44374 -48.465183 -171.72331 -47.028698 -174.89398 -18.612976 161.64584
15760000000 -25.841402 -142.95828 -48.456612 165.55585 -47.589756 162.62505 -18.278862 154.70862
15770000000 -25.183723 -147.54622 -48.376823 148.54915 -47.486427 144.46036 -17.72765 147.2863
15780000000 -24.899624 -149.27774 -47.7313 124.81416 -47.081806 122.15951 -16.871145 141.14325
15790000000 -24.445021 -151.70464 -48.020706 102.75266 -47.089592 97.716492 -16.001764 137.15034
15800000000 -24.165892 -152.86806 -47.375252 79.297981 -46.633896 74.168655 -15.338183 135.15802
15810000000 -23.953039 -154.67596 -48.440571 56.024689 -47.70657 48.285915 -14.967467 134.03915
15820000000 -23.757664 -152.65373 -48.128677 41.242313 -47.882122 31.465542 -14.765437 132.16548
15830000000 -23.167576 -151.70044 -47.261993 16.288591 -47.137299 8.5462999 -14.659986 129.10783
15840000000 -22.855371 -151.1145 -47.872223 -7.7999701 -47.679104 -13.18169 -14.539581 125.28062
15850000000 -22.540804 -153.4276 -47.931633 -25.776815 -47.852154 -34.902134 -14.341715 121.36198
15860000000 -22.315119 -151.03911 -47.395111 -46.935658 -47.524044 -57.336651 -14.034177 117.73826
15870000000 -21.778179 -154.60829 -47.104607 -66.295029 -47.814407 -76.600685 -13.701569 114.1824
15880000000 -21.968084 -155.06461 -46.18063 -92.039497 -47.151051 -99.244164 -13.358492 110.72372
15890000000 -21.75548 -155.41539 -46.379211 -116.37287 -47.545456 -123.98584 -12.992743 107.39089
15900000000 -21.63842 -155.82239 -46.05368 -143.13449 -47.526306 -147.68559 -12.652839 104.82613
15910000000 -21.365242 -156.77071 -47.152992 -165.71556 -48.586533 -167.90437 -12.316529 102.85729
15920000000 -21.059919 -155.93271 -47.335751 174.78203 -48.527538 174.18367 -12.048925 101.42987
15930000000 -20.646944 -155.74924 -47.157944 155.25833 -49.041252 157.57832 -11.860273 100.03666
15940000000 -20.301704 -156.29506 -46.666004 132.06615 -47.781605 139.68092 -11.751078 98.367752
15950000000 -20.024076 -156.49467 -46.341995 110.26734 -47.269283 116.40926 -11.703569 96.168488
15960000000 -19.763861 -156.34641 -46.3013 84.668846 -46.600246 91.978699 -11.711945 93.615143
15970000000 -19.518452 -156.41862 -46.413601 57.98061 -46.646923 63.29446 -11.680161 90.932526
15980000000 -19.598976 -155.83694 -47.470005 36.718361 -47.614697 43.509724 -11.582687 87.594025
15990000000 -19.164581 -153.74034 -47.139828 15.656609 -47.351902 24.65943 -11.411261 84.428368
16000000000 -18.908522 -155.18448 -47.538898 -5.606092 -46.675358 3.5924597 -11.159057 81.668289
16010000000 -18.655579 -155.02284 -47.892826 -26.962645 -46.875458 -21.847429 -10.886224 79.559906
16020000000 -18.377382 -156.13432 -47.311623 -48.202457 -46.671017 -43.227753 -10.698892 77.816017
16030000000 -18.070194 -156.19325 -47.683006 -68.040764 -46.720699 -65.925529 -10.638547 76.472023
16040000000 -17.86655 -157.3596 -47.613556 -93.540894 -46.498505 -92.719467 -10.638722 74.997444
16050000000 -17.593966 -157.39223 -48.597843 -117.28967 -47.475723 -113.92694 -10.65149 72.717056
16060000000 -17.27033 -156.70851 -48.699085 -130.11035 -47.252331 -132.7738 -10.696043 69.769806
16070000000 -16.818207 -156.4868 -48.218613 -153.65945 -47.034939 -157.51418 -10.742784 67.031822
16080000000 -16.421734 -156.4798 -48.171272 -176.70087 -47.101814 176.26445 -10.779194 64.544411
16090000000 -16.022526 -157.46678 -48.519901 162.67461 -47.884739 155.5661 -10.822418 61.892246
16100000000 -15.890808 -158.76039 -49.114811 142.14308 -48.545238 133.98735 -10.867888 58.810982
16110000000 -15.74023 -159.27393 -48.761326 122.50958 -48.716675 118.14449 -10.86201 55.22179
16120000000 -15.532828 -158.78337 -48.751343 101.11255 -47.935917 93.879349 -10.789731 51.768093
16130000000 -15.228939 -159.4437 -49.020355 85.096947 -48.899612 72.02536 -10.66912 49.340996
16140000000 -14.972865 -159.19362 -48.038757 63.890282 -48.791588 54.837631 -10.60003 47.970787
16150000000 -14.52189 -160.42181 -47.021236 37.753536 -47.943432 32.293461 -10.702653 46.810753
16160000000 -14.13038 -161.39722 -48.157578 8.2098885 -48.758289 4.2449384 -10.95863 45.374859
16170000000 -13.693044 -163.69539 -48.449745 -11.687889 -48.873333 -17.077305 -11.318881 42.595779
16180000000 -13.58372 -164.57216 -49.666752 -30.723932 -50.464211 -37.680336 -11.667171 38.573444
16190000000 -13.31325 -165.83832 -48.704693 -48.823174 -50.736729 -50.941685 -11.947353 33.814125
16200000000 -13.261869 -165.55884 -48.434444 -69.754692 -49.504379 -62.475193 -12.220194 29.630665
16210000000 -12.941578 -165.79622 -47.758694 -92.13913 -48.082787 -90.165932 -12.511187 25.937351
16220000000 -12.748528 -165.34315 -47.753166 -121.75082 -47.855923 -120.81713 -12.826761 22.596951
16230000000 -12.273091 -166.65535 -48.217079 -142.89406 -48.440647 -146.76067 -13.054648 18.89402
16240000000 -12.107528 -167.42879 -48.763603 -169.71895 -49.93071 -171.12088 -13.311323 15.227574
16250000000 -11.772613 -169.85945 -49.782711 169.43298 -50.948532 171.82527 -13.571486 12.541425
16260000000 -11.61579 -171.69925 -50.91143 153.27362 -50.893448 162.06291 -14.030966 10.892451
16270000000 -11.483636 -173.74228 -49.735889 138.21675 -49.347412 140.79372 -14.716144 9.359973
16280000000 -11.388294 -174.55229 -49.826981 114.49897 -49.828102 114.68864 -15.797177 6.9527001
16290000000 -11.115175 -175.36227 -49.807289 90.197929 -50.060467 92.019119 -16.984728 2.8621407
16300000000 -10.93944 -175.74272 -50.186138 68.206528 -50.254635 70.40271 -18.248207 -3.8107846
16310000000 -10.586358 -176.45174 -51.07692 51.589058 -51.231606 53.728695 -19.317112 -11.02488
16320000000 -10.354179 -177.02783 -49.983784 30.499653 -49.451115 33.437717 -20.347565 -18.447485
16330000000 -10.026373 -178.40169 -50.988472 7.4244394 -50.498951 5.2438245 -21.612452 -24.820789
16340000000 -9.8872108 -179.94385 -50.903255 -9.9036083 -50.970894 -12.683964 -22.989515 -32.18058
16350000000 -9.7677069 178.66304 -50.602474 -28.409185 -51.078568 -27.488684 -24.877722 -40.200768
16360000000 -9.6802197 177.30527 -50.529255 -49.581066 -50.564125 -43.825867 -27.089497 -48.752449
16370000000 -9.5844784 176.03271 -50.100601 -72.40947 -49.694748 -68.25386 -31.054951 -59.223198
16380000000 -9.4729643 174.76503 -49.836002 -87.274818 -49.20583 -90.651573 -37.851768 -100.11145
16390000000 -9.3057699 173.9868 -49.668652 -115.5193 -49.612473 -118.51157 -33.694447 179.85396
16400000000 -9.0952139 172.89984 -48.701904 -130.89838 -49.17168 -133.69719 -27.682796 167.67023
16410000000 -8.8773365 171.72729 -48.766731 -166.70285 -49.007973 -162.38481 -24.527935 163.96678
16420000000 -8.6812563 170.80673 -49.120548 173.40884 -48.989365 176.85477 -22.717323 162.54686
16430000000 -8.4126978 169.77679 -50.235519 146.90674 -49.665993 148.67229 -21.287046 158.79617
16440000000 -8.248909 168.48334 -50.404987 136.33002 -49.361748 135.89388 -20.266853 152.59624
16450000000 -8.1360273 167.18925 -49.560444 116.87206 -49.121593 112.70174 -19.275944 147.06779
16460000000 -8.0600634 166.30917 -48.295727 89.012856 -48.509502 88.097626 -18.496265 143.01884
16470000000 -7.9565587 165.30013 -48.496677 60.862473 -48.338097 63.870056 -17.744219 139.74132
16480000000 -7.9301291 164.12846 -49.407288 36.189701 -48.201172 36.119835 -17.03821 135.17685
16490000000 -7.8383613 163.62799 -49.559311 13.40932 -48.850807 8.9403152 -16.343519 130.0042
16500000000 -7.6871281 163.1725 -49.563309 -3.0528789 -49.125488 -11.901887 -15.500536 125.45968
16510000000 -7.396605 161.7962 -48.396736 -31.6064 -49.201939 -38.32198 -14.633819 123.07496
16520000000 -7.2345719 160.61565 -49.764088 -60.542522 -49.832806 -59.743118 -13.91086 121.8768
16530000000 -6.9684987 159.08151 -51.113457 -82.75547 -50.276512 -86.24968 -13.490994 121.22261
16540000000 -6.8809252 157.40741 -51.812771 -97.997086 -51.209702 -110.38764 -13.307028 119.62762
16550000000 -6.7929764 156.21826 -49.903099 -112.2954 -51.495705 -125.30813 -13.222883 116.90341
16560000000 -6.8040705 155.80902 -49.26326 -143.71063 -50.856174 -149.20622 -13.039594 113.2357
16570000000 -6.6653728 155.40834 -49.435902 -173.64262 -50.920494 -173.61743 -12.775401 109.71948
16580000000 -6.5697989 155.3053 -50.217953 157.88741 -50.992737 156.91592 -12.430482 106.94083
16590000000 -6.2837582 154.08669 -51.356495 140.80768 -52.644802 132.87852 -12.125244 104.40151
16600000000 -6.1467609 153.03159 -51.654282 118.99138 -53.264965 117.97073 -11.857249 101.80089
16610000000 -5.9573298 151.4071 -51.918533 99.511627 -53.113785 101.27619 -11.566878 98.942184
16620000000 -5.8934731 149.95764 -52.468796 78.193016 -52.90604 79.132256 -11.239266 96.383003
16630000000 -5.7293353 148.85385 -51.9128 58.375374 -52.566368 54.784237 -10.914835 94.823936
16640000000 -5.6033826 147.72581 -51.103977 31.871716 -52.222881 29.221148 -10.655505 94.138962
16650000000 -5.4363155 146.63086 -50.818573 0.52105147 -52.117229 2.0378418 -10.542362 93.334534
16660000000 -5.3258843 145.91666 -51.958996 -34.34536 -53.175968 -30.358429 -10.565114 91.899254
16670000000 -5.1212478 145.29628 -53.238346 -59.20023 -53.727077 -50.530609 -10.639935 89.304291
16680000000 -4.9418349 144.35649 -53.901306 -81.91626 -54.510372 -76.811584 -10.67543 85.808723
16690000000 -4.7581754 143.32039 -54.045399 -107.77731 -54.776192 -100.05698 -10.577211 82.326675
16700000000 -4.6099248 142.17566 -56.029655 -137.32982 -57.007118 -122.96853 -10.401965 79.213531
16710000000 -4.4357281 140.6841 -56.177139 -156.49036 -56.236053 -139.10803 -10.188772 76.895187
16720000000 -4.3565965 139.08112 -56.818272 178.46231 -55.273968 -166.51677 -9.9915705 75.065208
16730000000 -4.2436428 137.79434 -57.752556 158.75493 -55.519741 165.68666 -9.8312254 73.457062
16740000000 -4.1408653 136.67993 -56.770638 124.84124 -55.940315 128.51558 -9.7001152 71.803101
16750000000 -3.9791317 135.51759 -58.562622 89.74691 -57.245392 102.80467 -9.6507492 70.299316
16760000000 -3.8256562 134.51956 -59.927738 52.101162 -58.451839 71.621971 -9.648324 68.985092
16770000000 -3.6076164 133.17564 -63.46534 34.107403 -58.976871 50.164021 -9.6875229 67.348015
16780000000 -3.4547045 131.82864 -63.225567 -2.3948185 -60.38987 13.546962 -9.7487783 65.155312
16790000000 -3.3075235 130.34303 -68.257324 -1.1844897 -61.959278 -5.7565742 -9.8315868 62.392441
16800000000 -3.2043767 128.95168 -68.056572 -50.804886 -63.337299 -45.670414 -9.8875217 59.070324
16810000000 -3.0940554 127.56589 -72.684341 -50.116463 -65.181023 -55.404465 -9.9054651 55.750233
16820000000 -3.0143499 126.18871 -66.880348 -88.05899 -62.662636 -89.450073 -9.8353405 52.409508
16830000000 -2.8916693 124.81142 -73.415619 -109.01707 -65.303497 -118.99242 -9.7085266 49.281067
16840000000 -2.7645309 123.41833 -67.941391 -125.77608 -62.201542 -142.80736 -9.5517931 46.640705
16850000000 -2.625716 121.76072 -66.910896 179.31955 -61.758469 167.81055 -9.4216433 44.673126
16860000000 -2.5018651 120.23698 -70.741699 154.57838 -64.758018 127.19808 -9.3310633 43.389168
16870000000 -2.3702786 118.68546 -68.56926 100.13619 -64.570023 94.211632 -9.3641195 42.036285
16880000000 -2.2647655 117.25155 -81.565994 5.3329492 -67.395088 50.51421 -9.5252056 40.46312
16890000000 -2.1400099 115.85517 -69.975548 155.79239 -69.583557 54.67131 -9.7333651 37.826645
16900000000 -2.0393341 114.5401 -67.994728 100.89438 -67.804108 42.225143 -9.9193888 34.550579
16910000000 -1.9374889 113.10667 -63.438526 42.156048 -65.095207 18.907022 -10.01194 30.30122
16920000000 -1.8620957 111.70129 -62.854248 10.808098 -63.301678 -9.4089012 -10.024322 26.008497
16930000000 -1.771096 110.14534 -63.404652 -39.881531 -62.148964 -58.243584 -9.9910316 21.904596
16940000000 -1.7082855 108.62103 -67.909706 -85.316376 -64.7658 -107.09949 -9.9710007 18.309223
16950000000 -1.614413 107.02917 -67.057343 -61.194061 -69.502045 -105.09422 -9.948781 14.997133
16960000000 -1.5262337 105.39143 -64.884636 -83.754807 -69.094009 -107.47321 -9.9703522 11.960168
16970000000 -1.4254695 103.7015 -62.460667 -117.98634 -65.507965 -121.16904 -10.005037 9.0633659
16980000000 -1.3417003 102.09105 -63.279961 -154.15038 -63.613636 -154.89867 -10.140677 6.1751361
16990000000 -1.2428927 100.4461 -62.291481 -170.56683 -63.918598 -175.21094 -10.324635 3.1776242
17000000000 -1.1756991 98.894806 -61.722801 167.33183 -64.808067 163.91837 -10.575228 -0.59996849
