!Keysight Technologies,P9374A,MY57211807,A.19.30.04
!Date: Friday, May 08, 2026 15:11:44
!Correction: S11(C  2-Port  ) 
!S21(C  2-Port  ) 
!S12(C  2-Port  ) 
!S22(C  2-Port  ) 
!S2P File: Measurements: S11, S21, S12, S22:
# Hz S  dB   R 50
13000000000 -18.728603 57.47628 -40.151119 97.849892 -40.803036 101.77576 -12.577288 -82.216393
13010000000 -19.09618 57.796501 -39.635418 74.131866 -40.076637 78.631065 -12.961727 -85.724442
13020000000 -19.435131 58.869961 -39.854073 50.165867 -39.935139 54.456551 -13.364468 -89.142967
13030000000 -19.64649 62.053364 -39.8591 26.512997 -40.124603 30.562538 -13.82297 -92.448586
13040000000 -19.92359 63.191101 -40.230553 4.4190397 -40.220711 10.312131 -14.334489 -95.746544
13050000000 -19.655319 66.102867 -40.766121 -17.478533 -40.154495 -11.046726 -14.879418 -99.609024
13060000000 -19.535007 63.930737 -40.567688 -37.848389 -39.677002 -34.127159 -15.430307 -104.68482
13070000000 -19.479744 62.848286 -40.652412 -57.224201 -39.75753 -57.170967 -15.928225 -110.82806
13080000000 -19.641499 60.678764 -40.127979 -82.221405 -39.474899 -81.829025 -16.343681 -116.57167
13090000000 -19.450655 59.611904 -40.730675 -106.49254 -39.857014 -106.36014 -16.742847 -121.88462
13100000000 -19.882994 57.702156 -41.229523 -125.2792 -40.275482 -128.92725 -17.239866 -126.67732
13110000000 -19.830242 60.950657 -40.975597 -145.02666 -40.4963 -148.94781 -17.810255 -132.6142
13120000000 -19.91396 61.365814 -40.95536 -168.17917 -40.257404 -171.72383 -18.375742 -139.95856
13130000000 -19.481777 62.620506 -40.778553 170.73708 -40.392048 165.2701 -18.703278 -148.59898
13140000000 -19.46143 63.574883 -40.789288 146.06795 -40.641571 139.83385 -18.947271 -157.41396
13150000000 -19.024694 61.798016 -41.358891 123.06285 -41.548981 119.30247 -19.187986 -165.68456
13160000000 -19.380781 61.498444 -41.677666 103.1199 -41.86536 100.60435 -19.49334 -174.11047
13170000000 -19.036015 60.175926 -41.66827 84.858765 -41.640625 84.136078 -19.700096 175.51012
13180000000 -19.474661 57.05711 -41.07724 65.685242 -40.926151 63.498837 -19.523676 164.03647
13190000000 -19.325344 56.967014 -40.455719 39.743145 -40.344559 38.163586 -18.930357 153.42227
13200000000 -19.517181 54.427582 -40.507679 12.744909 -40.287605 10.4901 -18.19701 144.79085
13210000000 -19.567451 54.963116 -41.322792 -11.417857 -40.971718 -14.657532 -17.59803 138.1684
13220000000 -19.444721 53.724533 -41.479919 -31.603531 -41.254799 -34.814457 -17.178667 131.40802
13230000000 -19.430061 53.70652 -41.776268 -54.438076 -41.390823 -60.71666 -16.748535 123.74026
13240000000 -19.402254 54.365757 -41.726757 -74.577324 -41.828125 -78.788422 -16.199432 115.31815
13250000000 -18.960634 53.350594 -41.933937 -98.567413 -41.968483 -104.39857 -15.445913 107.765
13260000000 -19.110456 51.622292 -41.769451 -120.70966 -42.254047 -126.81649 -14.597619 102.01625
13270000000 -18.963991 49.405823 -42.420345 -145.41216 -42.718948 -149.97745 -13.879335 97.318062
13280000000 -19.23345 46.883667 -42.473789 -165.73448 -43.18869 -171.79248 -13.320111 93.012924
13290000000 -19.448383 44.821365 -42.490253 168.7641 -43.509068 163.48991 -12.875172 88.330185
13300000000 -19.813696 42.951904 -43.049976 146.71323 -44.68787 144.05327 -12.456139 83.046043
13310000000 -20.15122 42.574879 -43.5672 125.23814 -44.785717 129.29059 -11.95698 77.719101
13320000000 -20.087879 42.516289 -44.018768 103.28773 -44.71785 105.97127 -11.399277 73.094139
13330000000 -20.140371 41.615578 -43.974991 80.842087 -44.774456 84.969093 -10.849907 68.930649
13340000000 -19.807264 42.27224 -44.865772 53.752201 -45.755936 61.319508 -10.40197 65.070984
13350000000 -19.616194 38.645988 -46.139782 38.836052 -46.063133 49.436024 -10.066939 61.010052
13360000000 -19.655685 37.50251 -45.508007 23.137791 -44.835869 29.660227 -9.7941513 56.424732
13370000000 -19.77146 33.406422 -45.786831 -3.2914762 -44.623531 2.6943302 -9.4472361 51.533066
13380000000 -20.098 31.119183 -45.886032 -24.341455 -45.053894 -22.520695 -9.0272074 46.679741
13390000000 -20.960688 30.02878 -47.264565 -48.726658 -45.986427 -44.927998 -8.6006937 42.382832
13400000000 -21.0124 31.375776 -48.161148 -64.833992 -46.697227 -68.223106 -8.2066698 38.799129
13410000000 -21.481281 28.665409 -48.134628 -78.986366 -47.219879 -82.963539 -7.9324012 35.2841
13420000000 -21.55283 31.623087 -47.925758 -96.991898 -46.73856 -105.76972 -7.7650967 31.429813
13430000000 -21.352634 27.842283 -47.828529 -115.38883 -47.538658 -128.32629 -7.6328945 27.158092
13440000000 -21.38863 26.044468 -47.404213 -141.34731 -48.146702 -149.53554 -7.4975605 22.601099
13450000000 -21.421595 23.431908 -48.735039 -163.07988 -49.09576 -167.6461 -7.289115 18.02758
13460000000 -21.564743 20.550793 -48.800976 175.91975 -49.08287 172.40976 -7.0439758 13.964647
13470000000 -22.141926 17.875267 -50.092907 160.9751 -50.663372 154.59152 -6.8363485 10.081098
13480000000 -22.325918 18.588455 -49.766869 146.6501 -50.750217 141.66527 -6.7079945 6.2178464
13490000000 -23.114603 15.79122 -49.330044 129.57663 -50.179165 132.06764 -6.6715937 2.3489881
13500000000 -23.262339 17.481712 -48.7183 107.19572 -49.259895 110.1132 -6.6804905 -1.4802165
13510000000 -24.02471 18.26878 -49.247795 84.037689 -49.311954 89.684898 -6.6519604 -5.2821331
13520000000 -23.83279 18.764778 -49.64069 64.61956 -49.022778 67.487648 -6.6200118 -9.192893
13530000000 -24.315722 16.624054 -50.149532 52.542225 -49.798096 48.899147 -6.6178308 -13.100288
13540000000 -23.923683 16.00392 -49.391899 36.200146 -49.618244 35.086544 -6.6645179 -17.126451
13550000000 -24.241217 11.729749 -48.293095 14.171956 -48.003536 17.602257 -6.7613263 -20.967678
13560000000 -24.172079 7.9256959 -48.188461 -8.701828 -47.558022 -9.8052139 -6.8547239 -24.889399
13570000000 -25.698795 7.8423352 -48.876072 -33.066441 -48.196877 -33.377552 -6.9136238 -28.622183
13580000000 -25.439993 7.8188772 -48.958103 -50.558216 -48.674702 -56.383926 -6.9506464 -32.215099
13590000000 -27.254889 11.264491 -49.739498 -60.845814 -49.378517 -64.649452 -7.0119796 -35.69466
13600000000 -26.556492 15.214614 -48.18494 -79.818733 -48.153576 -85.005989 -7.1256437 -38.937145
13610000000 -26.993412 24.100485 -46.949772 -103.01632 -47.334206 -104.18295 -7.2982283 -42.071232
13620000000 -25.993967 18.582485 -47.230042 -131.73389 -47.196571 -132.47342 -7.5021839 -45.334854
13630000000 -26.834442 17.48597 -46.830685 -150.56134 -46.924561 -152.15654 -7.6963997 -48.682331
13640000000 -26.455437 9.8568335 -47.849026 -172.53915 -47.8092 -175.90817 -7.8723693 -52.174961
13650000000 -28.476957 6.4264064 -46.722397 171.36069 -47.784054 169.86127 -8.0171728 -55.67107
13660000000 -28.687307 9.4992952 -46.678989 150.07578 -46.557373 153.90555 -8.1512852 -59.033283
13670000000 -29.689861 12.944732 -46.09293 128.38078 -46.012295 129.48315 -8.2992601 -62.067207
13680000000 -29.458651 20.724962 -46.043694 107.2473 -45.971737 105.06252 -8.4660826 -64.759842
13690000000 -28.480312 27.394552 -45.349873 83.992828 -45.607559 84.289368 -8.6494026 -67.440605
13700000000 -27.513788 23.234425 -45.165665 60.661255 -45.096432 62.305225 -8.8853598 -70.33741
13710000000 -27.138216 26.105021 -45.274715 37.201515 -45.152786 38.738056 -9.1205425 -73.442856
13720000000 -27.031055 16.063538 -45.198051 15.67595 -44.482109 16.022186 -9.3487654 -76.610664
13730000000 -28.627953 19.011339 -45.66547 -8.2692394 -45.056686 -11.060584 -9.5505781 -79.675438
13740000000 -28.28623 18.953373 -45.126087 -28.982597 -44.957748 -31.525135 -9.7443943 -82.492218
13750000000 -29.989288 19.473272 -44.920589 -48.514366 -44.925529 -51.150196 -9.9709902 -85.196793
13760000000 -29.545073 23.419308 -44.619862 -73.329628 -44.282707 -75.077156 -10.237334 -88.19677
13770000000 -29.757835 23.306387 -44.365566 -98.317825 -44.303402 -101.44155 -10.510343 -91.569168
13780000000 -29.259857 25.535824 -44.887943 -123.36371 -44.584579 -125.34445 -10.733284 -95.280037
13790000000 -27.791754 23.350866 -45.094261 -143.26143 -44.939415 -148.22231 -10.883649 -98.706627
13800000000 -28.04948 14.409138 -44.971622 -163.96268 -44.961346 -167.66551 -10.983794 -101.40639
13810000000 -27.311171 16.278429 -44.645885 171.5079 -45.070286 166.45016 -11.124834 -103.60918
13820000000 -26.988159 4.1383715 -45.304256 148.04611 -45.895744 145.93962 -11.369547 -105.83556
13830000000 -27.929636 6.0393553 -45.429821 128.16187 -46.01099 128.55219 -11.684361 -108.63383
13840000000 -27.774681 -3.3339448 -45.415768 105.03727 -45.614784 107.30762 -12.020111 -112.13261
13850000000 -30.170101 1.9377326 -45.439075 85.919044 -45.399223 85.312614 -12.280723 -116.00966
13860000000 -29.55875 7.6998243 -45.18507 59.893944 -45.654148 61.657799 -12.430429 -119.63834
13870000000 -29.240595 9.8186512 -45.979111 38.617649 -45.385281 41.058743 -12.5585 -122.92873
13880000000 -28.484591 7.321537 -45.795635 18.25774 -45.421215 15.490294 -12.74257 -125.93288
13890000000 -27.378901 3.2285538 -45.708267 -3.3898261 -46.138416 -4.6551929 -12.982877 -129.17949
13900000000 -26.907381 -11.855481 -46.075081 -27.093214 -45.984924 -25.245813 -13.209163 -132.85492
13910000000 -27.502871 -15.7667 -46.194691 -42.04546 -45.435604 -41.156086 -13.377645 -136.79701
13920000000 -27.595669 -27.374815 -45.429794 -67.094681 -44.596344 -70.618584 -13.47089 -140.53149
13930000000 -29.805267 -32.468788 -45.53503 -90.308342 -45.249084 -95.076134 -13.581544 -143.71498
13940000000 -30.630548 -28.12891 -45.471241 -115.6409 -45.284145 -120.26591 -13.771832 -146.70445
13950000000 -31.286989 -26.412449 -46.167564 -140.12706 -46.009872 -141.63628 -14.03635 -149.98532
13960000000 -31.328199 -25.346392 -46.50629 -157.86282 -45.895882 -160.13757 -14.299818 -154.05919
13970000000 -30.049538 -25.930929 -46.042606 -177.39085 -45.547882 174.97986 -14.48612 -159.20535
13980000000 -29.502924 -37.762554 -45.922516 158.10985 -45.85339 150.16055 -14.554117 -164.54317
13990000000 -28.674812 -48.217384 -45.948868 136.1069 -46.414612 127.43285 -14.550261 -169.72903
14000000000 -28.805553 -61.469326 -45.340137 110.07827 -45.354767 107.47556 -14.571562 -173.67691
14010000000 -28.406237 -66.922661 -46.22197 82.411179 -46.218826 79.44854 -14.492145 -178.00951
14020000000 -28.373373 -72.352829 -46.44165 62.448196 -46.551804 60.272549 -14.454081 177.8373
14030000000 -28.797413 -80.359413 -47.329453 39.275883 -47.209896 36.181042 -14.420277 173.74425
14040000000 -30.248484 -82.596321 -47.146427 18.216412 -47.189159 15.456729 -14.391759 169.53056
14050000000 -30.629126 -78.985916 -47.3102 0.40941378 -47.381866 -3.3710637 -14.327945 165.19025
14060000000 -31.429823 -79.928741 -46.641644 -26.733946 -46.830948 -30.29413 -14.217229 160.73538
14070000000 -31.306778 -76.405586 -47.422058 -55.775436 -47.574528 -56.968628 -14.099524 156.16071
14080000000 -30.92387 -85.367462 -47.673332 -74.539017 -47.669838 -76.657104 -13.982731 151.93347
14090000000 -30.321878 -85.333282 -47.91748 -100.3628 -48.194973 -102.17351 -13.923475 147.89427
14100000000 -28.51368 -103.40418 -48.897133 -125.93827 -49.244198 -129.2588 -13.82662 143.71713
14110000000 -28.295511 -116.01092 -50.198139 -148.65878 -50.71257 -150.65117 -13.7023 139.00957
14120000000 -28.008675 -129.81885 -50.278542 -162.08543 -50.764862 -163.02647 -13.521716 134.16592
14130000000 -28.870052 -136.90195 -50.583454 177.12852 -51.410595 177.07977 -13.221329 129.43843
14140000000 -29.343657 -142.04584 -50.408028 152.97824 -50.959969 154.41792 -12.946398 125.20377
14150000000 -30.734133 -136.01176 -51.514687 128.91721 -51.776226 130.47958 -12.750924 121.35987
14160000000 -29.575209 -132.58813 -51.762207 106.16101 -52.198402 108.62545 -12.596028 117.58707
14170000000 -30.077307 -130.57066 -52.500408 84.202637 -52.644287 87.811043 -12.412288 113.39888
14180000000 -28.745331 -132.84317 -54.830372 65.405052 -54.452538 73.413849 -12.155472 108.70789
14190000000 -27.753267 -141.35201 -54.174549 51.804695 -53.521446 53.267525 -11.833256 104.15581
14200000000 -27.119669 -151.71423 -55.071243 34.368233 -54.821095 36.826637 -11.501326 99.983521
14210000000 -27.620438 -160.24976 -55.057167 17.827507 -54.556164 18.22583 -11.244458 96.371605
14220000000 -27.620964 -163.2289 -55.106758 6.5144811 -54.302746 4.2531796 -11.022246 92.991882
14230000000 -27.707724 -168.9456 -53.201763 -16.991766 -52.381699 -18.05625 -10.812657 89.415657
14240000000 -27.994572 -168.18417 -52.734619 -42.602722 -52.26202 -44.44334 -10.554311 85.268105
14250000000 -27.741764 -169.2025 -54.228237 -75.680038 -53.857296 -76.655197 -10.321934 80.875954
14260000000 -28.677748 -169.82712 -54.870338 -95.939194 -54.550995 -94.966331 -10.103464 76.854309
14270000000 -28.182358 -163.1937 -56.549389 -101.70074 -55.964417 -101.43793 -9.9122105 73.083916
14280000000 -27.849014 -168.05008 -54.306091 -114.0083 -53.484367 -117.19139 -9.7242737 69.432175
14290000000 -27.320858 -168.59285 -53.916275 -140.43263 -53.106098 -148.71425 -9.5299625 65.287262
14300000000 -27.361856 -174.68846 -53.187057 -162.57289 -53.233223 -170.15276 -9.3340816 60.697105
14310000000 -27.034395 -176.88802 -53.517818 164.63277 -53.462318 160.06198 -9.1494169 55.987743
14320000000 -26.907267 172.27971 -54.189461 148.77763 -54.605225 144.47713 -8.9532347 51.640499
14330000000 -27.256926 169.68562 -53.60619 126.87168 -53.583019 119.91879 -8.7530584 47.693634
14340000000 -28.774345 163.59514 -53.318043 98.341682 -53.542011 92.194679 -8.5826473 43.952408
14350000000 -29.165979 178.06648 -55.310947 59.462029 -55.682777 51.130833 -8.4318142 39.96373
14360000000 -29.002033 -179.27286 -57.118172 64.676231 -58.861679 65.990929 -8.375145 35.550262
14370000000 -27.481535 -173.77122 -55.821018 57.985001 -55.928703 60.409458 -8.3617144 30.91119
14380000000 -27.041855 176.89264 -51.83659 27.001125 -51.570953 25.833666 -8.3402567 26.152431
14390000000 -26.898184 176.789 -51.596008 -17.660069 -51.69138 -22.413614 -8.2808895 21.555998
14400000000 -26.898933 167.39055 -53.682823 -55.360645 -54.378555 -60.547634 -8.1925554 16.743221
14410000000 -28.074974 161.84047 -58.482746 -69.624016 -58.994213 -64.546745 -8.1316795 12.156944
14420000000 -29.184826 162.71312 -57.494034 -57.417324 -57.331406 -59.224052 -8.1310549 7.6080275
14430000000 -29.642433 169.08926 -52.182838 -90.647072 -52.528687 -94.347313 -8.1866417 3.1000385
14440000000 -29.186914 178.29301 -52.149651 -133.22362 -52.56953 -139.68481 -8.2858582 -1.4425175
14450000000 -27.219801 -179.71385 -55.68251 -171.66943 -57.085716 -175.66293 -8.3998575 -6.0315852
14460000000 -26.778166 174.6976 -60.571037 171.92087 -61.691872 -174.35333 -8.507906 -10.845675
14470000000 -26.750391 172.86623 -54.809334 -169.05772 -54.716549 -165.10875 -8.6646614 -15.729974
14480000000 -26.751909 174.16087 -52.125221 140.15968 -52.267731 141.23953 -8.8871956 -20.511343
14490000000 -26.990273 170.90222 -53.249023 103.15675 -53.458111 101.60255 -9.1393452 -25.567719
14500000000 -27.300631 175.16585 -54.649677 62.772457 -55.89706 63.395058 -9.4355173 -31.135773
14510000000 -27.550257 173.08282 -58.882442 42.943897 -59.346779 54.732475 -9.6905785 -36.749641
14520000000 -27.729771 -176.80762 -58.766438 41.65794 -57.51738 45.703026 -9.8880787 -42.241711
14530000000 -26.622929 177.31981 -56.95755 32.453106 -56.429443 35.330982 -10.066944 -47.12421
14540000000 -26.746758 -178.24754 -56.187679 0.084448516 -55.903534 1.9084624 -10.322634 -51.605335
14550000000 -25.742022 177.66199 -54.957062 -22.356817 -54.582649 -19.784355 -10.697834 -56.090569
14560000000 -25.470287 -178.69165 -53.271309 -53.141666 -52.492146 -49.57114 -11.193601 -61.078476
14570000000 -24.168989 174.5433 -52.053249 -93.496841 -51.202587 -94.66851 -11.698019 -66.796219
14580000000 -24.212879 172.30711 -54.671906 -138.42763 -54.215897 -138.86456 -12.158766 -72.95575
14590000000 -24.644045 166.05225 -58.05135 -166.95923 -58.024704 -167.6179 -12.55085 -79.104782
14600000000 -25.245079 173.95155 -62.402454 -144.00871 -60.995941 -134.48926 -12.93382 -85.192459
14610000000 -24.826492 172.9335 -54.377506 -159.22519 -53.415394 -157.79659 -13.416282 -91.644455
14620000000 -24.769558 -178.62631 -51.377666 155.94676 -50.322453 152.75494 -13.968724 -98.041527
14630000000 -23.512403 179.12955 -52.385307 105.41925 -52.219238 104.42222 -14.371319 -104.89028
14640000000 -22.733479 178.22041 -55.415009 77.114136 -54.691536 79.614456 -14.676367 -111.86237
14650000000 -21.905327 171.03384 -56.612892 76.171265 -55.599941 77.750237 -14.910498 -118.61898
14660000000 -21.701036 163.88615 -52.677116 57.192402 -51.695801 57.004009 -15.281455 -125.54156
14670000000 -22.678623 158.00879 -52.11116 26.926226 -51.095314 22.343386 -15.889646 -132.39107
14680000000 -23.004852 161.67383 -50.680679 -11.224792 -50.112427 -17.309992 -16.474461 -139.34152
14690000000 -23.264561 164.53232 -53.936501 -45.90966 -53.880199 -48.268509 -16.897058 -148.1339
14700000000 -22.406723 169.47028 -55.422714 -53.588741 -54.804184 -52.203331 -17.102758 -157.82724
14710000000 -21.672375 168.60912 -51.319542 -62.092739 -51.023026 -66.311722 -17.023897 -167.09885
14720000000 -20.906298 165.8727 -50.403866 -94.966324 -49.646107 -98.788132 -16.87324 -176.76048
14730000000 -20.647631 160.32394 -48.927376 -132.3783 -48.951221 -137.36595 -16.781557 175.19389
14740000000 -20.473627 154.37503 -49.789806 -162.89648 -49.526173 -167.53004 -16.650469 168.52324
14750000000 -21.162735 148.98521 -50.377995 169.49355 -50.217808 166.33298 -16.521175 162.02028
14760000000 -21.412874 150.2812 -52.132332 151.79527 -51.8134 147.67896 -16.466648 155.77667
14770000000 -21.639126 149.65793 -52.144341 140.27078 -51.884941 135.45398 -16.394711 148.85936
14780000000 -20.995306 151.33658 -49.222382 120.70206 -49.104313 116.33652 -16.219864 140.81549
14790000000 -20.842585 148.10019 -48.746464 89.834152 -48.952972 87.106117 -15.990565 132.88374
14800000000 -20.439152 148.97098 -48.073524 59.743549 -48.012115 58.172176 -15.711657 126.33858
14810000000 -20.290051 146.94281 -48.824295 26.558395 -49.080215 24.139231 -15.438441 121.21806
14820000000 -19.87993 145.56786 -50.000942 14.796064 -49.909084 11.8936 -15.055156 117.12035
14830000000 -20.035847 140.96861 -48.631805 -7.8165464 -48.781101 -11.320775 -14.659161 111.67652
14840000000 -20.105974 139.14783 -48.362911 -31.048569 -48.537449 -33.776482 -14.474739 105.81297
14850000000 -20.500074 135.72902 -48.009884 -59.591373 -48.165222 -60.118362 -14.342571 101.08419
14860000000 -20.598112 134.31728 -48.620358 -84.779831 -48.85321 -87.681343 -14.206509 97.117683
14870000000 -21.268282 130.23595 -49.098423 -99.058441 -49.444515 -99.714211 -14.081842 94.306717
14880000000 -21.572727 132.03223 -47.712261 -116.91753 -47.94632 -118.43221 -13.901979 90.483025
14890000000 -21.419201 133.28479 -46.769428 -150.15326 -47.320713 -150.78059 -13.836802 84.756462
14900000000 -20.674576 133.11987 -46.829464 -174.05118 -47.040234 -174.34746 -13.834697 78.717278
14910000000 -20.060913 130.5018 -47.65205 157.32278 -48.210884 157.75534 -13.726118 73.678673
14920000000 -19.858192 123.03178 -48.684856 138.19788 -48.982944 141.92523 -13.528819 70.320084
14930000000 -20.3892 119.93774 -48.329659 131.1944 -48.325714 131.63469 -13.286649 68.51757
14940000000 -20.766214 116.79614 -46.902695 107.05576 -46.738411 106.8681 -13.088346 65.835083
14950000000 -21.714296 117.83483 -46.249584 76.32885 -46.515488 76.99054 -13.194279 61.817966
14960000000 -22.464142 118.91768 -46.528435 53.431023 -46.564583 54.996906 -13.503438 57.676216
14970000000 -22.54006 127.30437 -47.171177 34.186329 -46.868 35.262062 -13.816635 54.388592
14980000000 -21.96377 125.12917 -46.117249 13.816951 -45.679092 14.019097 -13.876597 52.243782
14990000000 -21.416775 124.3136 -45.636745 -13.999409 -45.516247 -15.552878 -13.807568 49.569492
15000000000 -21.320736 114.17821 -46.026821 -37.781963 -45.899948 -36.947151 -13.934235 45.389664
15010000000 -22.347826 110.7641 -46.495304 -55.650543 -46.285748 -55.811821 -14.416512 40.72958
15020000000 -23.085041 107.88055 -45.783459 -72.781258 -45.410995 -73.273827 -14.8769 37.407818
15030000000 -23.687368 113.31237 -44.374157 -95.815712 -44.209167 -98.331451 -15.054195 34.982582
15040000000 -23.717903 112.52158 -44.503181 -123.72726 -44.409908 -126.01358 -14.897557 33.991272
15050000000 -23.891365 117.85994 -44.416649 -148.76588 -44.281532 -149.60416 -14.787956 32.122688
15060000000 -23.640175 119.19196 -44.05452 -170.05559 -43.829861 -171.71616 -15.248908 30.478483
15070000000 -23.19866 119.65144 -44.170998 162.57068 -43.899078 160.48843 -16.176662 30.059916
15080000000 -23.574659 115.98824 -44.41087 136.8788 -44.240425 134.38864 -17.147856 31.789675
15090000000 -24.016985 117.3718 -45.174778 118.79433 -45.277191 114.2104 -17.481396 32.417904
15100000000 -24.652119 119.41082 -44.596485 103.54561 -44.841522 101.15012 -17.621969 28.964203
15110000000 -24.306383 121.83376 -43.952465 78.156601 -44.107433 77.351929 -18.195919 25.487394
15120000000 -24.577389 119.30306 -43.328548 52.444191 -43.295475 50.895969 -19.052172 26.505877
15130000000 -24.716679 116.78415 -43.501053 29.544786 -43.453022 28.082911 -19.648317 32.305065
15140000000 -25.801207 121.18115 -43.454693 3.9675915 -43.423649 1.1050562 -19.466509 37.337746
15150000000 -24.942972 127.58733 -43.35236 -19.707575 -43.726334 -21.918306 -19.046467 37.163506
15160000000 -24.566011 128.63678 -43.807045 -41.520039 -43.8367 -41.89468 -19.295362 36.30415
15170000000 -23.742355 128.50587 -43.757778 -65.177444 -43.777119 -65.999161 -19.763836 42.319263
15180000000 -23.445591 127.82736 -44.062897 -85.761314 -44.024105 -87.291183 -19.361122 51.507744
15190000000 -22.647402 124.64434 -43.844036 -106.39885 -43.841747 -107.68467 -18.560024 55.92733
15200000000 -23.408657 118.41248 -43.735893 -129.63103 -43.8997 -130.66037 -18.201887 55.703758
15210000000 -24.130733 118.47726 -43.202282 -151.76921 -43.282013 -152.20998 -18.485353 55.035046
15220000000 -25.418501 127.26688 -43.030441 -175.67865 -42.929852 -176.60556 -18.645693 57.508247
15230000000 -23.951096 133.30287 -42.916458 158.81258 -42.856163 155.98938 -18.072901 59.861092
15240000000 -23.455492 133.12442 -43.021694 131.11549 -43.253643 129.14542 -17.209959 59.008572
15250000000 -22.359259 129.29761 -44.197639 108.04329 -44.580605 106.25731 -16.554998 55.831642
15260000000 -22.454611 122.65661 -44.835724 93.427971 -44.991844 93.565674 -16.24436 52.828903
15270000000 -22.351807 120.19034 -44.14365 78.287262 -44.129173 77.651688 -16.010994 52.43018
15280000000 -22.568741 114.38924 -42.93026 53.385204 -42.901508 52.509674 -15.41756 53.364433
15290000000 -23.405434 113.33358 -42.63269 24.358908 -42.654156 23.057226 -14.758233 52.843819
15300000000 -23.681974 117.03329 -43.117203 -4.4228382 -43.452942 -4.8045487 -14.35813 51.347939
15310000000 -23.332273 121.48979 -44.257793 -23.669893 -44.122818 -23.916981 -14.266271 49.023315
15320000000 -22.461094 118.81828 -44.165447 -44.230316 -44.051773 -45.193214 -14.359453 46.88327
15330000000 -22.526997 115.5856 -44.397396 -62.811802 -44.177059 -65.543602 -14.332761 45.01181
15340000000 -22.734203 111.59379 -43.622219 -85.579437 -43.654716 -87.541664 -14.021362 42.219643
15350000000 -23.044004 114.375 -43.581074 -108.8556 -43.526688 -110.17302 -13.692865 38.592136
15360000000 -22.661606 109.54331 -43.569817 -134.05867 -43.481846 -135.78197 -13.516197 35.055038
15370000000 -23.218374 109.08018 -43.842449 -157.03123 -43.858112 -159.16527 -13.5002 31.751637
15380000000 -22.818439 102.66484 -43.853626 -178.05034 -43.88192 178.7523 -13.475814 29.01268
15390000000 -23.961128 101.22143 -43.479446 158.0322 -43.764118 156.04686 -13.268146 25.920675
15400000000 -23.786957 98.203537 -43.739632 132.56755 -44.013348 132.06506 -13.029091 22.575489
15410000000 -24.766663 96.857002 -44.057404 106.84633 -43.896233 107.14568 -12.856022 19.905783
15420000000 -25.46554 98.450478 -44.663441 85.184998 -44.563046 83.016792 -12.938369 17.427256
15430000000 -25.310562 105.99451 -44.869408 64.165848 -44.788483 62.158234 -13.19283 15.314447
15440000000 -24.280876 102.92673 -45.174942 43.120342 -45.228191 41.472782 -13.446988 11.727336
15450000000 -24.097672 96.665138 -45.289085 22.47024 -45.489197 21.800434 -13.643643 6.1075315
15460000000 -24.461943 87.001282 -44.717842 -0.60425013 -44.650639 -3.2663815 -13.760862 -0.11610483
15470000000 -26.006269 82.399734 -44.363773 -29.376907 -44.502048 -32.316082 -13.795494 -5.4236712
15480000000 -27.024475 78.477715 -45.477947 -58.827614 -45.632023 -59.902481 -13.89162 -9.4519882
15490000000 -29.19162 80.87719 -46.677029 -79.004379 -46.956734 -81.545723 -14.022041 -12.38653
15500000000 -29.623783 88.151146 -47.81395 -96.883316 -48.003944 -97.842903 -14.198649 -16.201958
15510000000 -29.316521 93.1856 -47.051853 -112.70213 -47.366756 -114.0567 -14.506967 -20.975586
15520000000 -29.230902 90.27536 -46.874432 -138.61006 -47.083366 -139.3475 -14.90333 -26.209415
15530000000 -28.438553 86.332802 -47.301903 -159.42264 -47.679913 -162.27013 -15.429842 -31.284624
15540000000 -30.038895 69.056274 -47.68475 175.65042 -48.024498 175.46767 -16.072552 -36.092793
15550000000 -32.467918 74.13446 -49.063305 154.22522 -49.059601 153.2413 -16.68099 -41.664009
15560000000 -34.544834 67.252449 -48.726349 138.93681 -48.644196 140.30365 -17.226725 -49.416695
15570000000 -36.689766 88.607025 -48.109638 113.67694 -48.342388 111.57676 -17.765459 -59.33968
15580000000 -37.679657 68.873512 -49.129192 83.856842 -49.202885 84.309586 -18.243193 -69.31839
15590000000 -41.280048 87.716255 -50.618568 66.152031 -50.706608 67.085587 -18.665733 -78.319969
15600000000 -47.041004 53.662991 -50.624805 57.126785 -50.588108 56.221474 -18.932108 -85.88044
15610000000 -47.336071 -170.13965 -49.391232 36.201168 -49.342731 35.91275 -19.113405 -93.967964
15620000000 -44.733852 -142.12926 -49.125286 3.5201931 -49.023357 3.1076143 -19.437967 -103.13345
15630000000 -38.577103 -166.19193 -50.037132 -21.787767 -49.752914 -22.575228 -19.919653 -112.50163
15640000000 -41.749531 -160.28964 -51.668327 -45.853527 -51.289845 -48.420822 -20.420853 -123.57135
15650000000 -38.402939 -166.56769 -52.222382 -57.708603 -52.638794 -61.982117 -20.692417 -136.50063
15660000000 -43.136646 -119.74741 -51.530914 -75.920425 -51.801506 -75.960014 -20.337976 -149.22368
15670000000 -34.624725 -119.37313 -51.848644 -103.6946 -51.931686 -104.17778 -19.503952 -160.14061
15680000000 -31.161249 -118.22624 -52.19175 -126.18866 -52.166862 -129.00301 -18.67161 -168.65622
15690000000 -28.427187 -136.76538 -53.870918 -152.53494 -54.037605 -153.75993 -18.167963 -175.51807
15700000000 -28.076609 -146.00566 -55.56102 -171.13129 -56.442272 -172.59422 -17.820017 178.31325
15710000000 -28.137732 -154.62198 -54.122356 -176.05708 -54.188286 -176.94447 -17.451982 172.10385
15720000000 -28.561777 -153.44453 -54.539715 153.88617 -54.470814 151.72617 -16.937656 165.8022
15730000000 -29.231367 -150.4969 -55.278271 127.50793 -55.59864 121.23698 -16.429955 160.31467
15740000000 -28.348463 -139.1965 -55.763996 99.426018 -56.725567 98.384956 -16.01255 155.31178
15750000000 -27.094509 -136.64603 -61.492382 91.355949 -64.00808 97.839668 -15.742736 150.27336
15760000000 -25.200853 -139.32286 -59.811337 79.527855 -60.154129 87.66539 -15.471937 144.81787
15770000000 -24.703854 -147.66197 -59.931049 80.662666 -59.323296 79.863823 -15.025416 139.24174
15780000000 -24.641621 -151.97252 -56.832619 54.926914 -56.904572 56.911167 -14.396777 134.60957
15790000000 -24.918425 -152.64561 -59.776585 5.6347103 -60.327068 6.3750658 -13.748523 131.31454
15800000000 -24.208536 -151.99486 -66.17025 39.545586 -64.246719 47.652855 -13.268682 129.22382
15810000000 -24.100206 -152.70651 -62.308281 43.822472 -61.109016 42.71785 -13.045202 127.41119
15820000000 -23.255342 -151.71736 -56.435066 15.769686 -55.810322 16.671221 -12.948131 125.29432
15830000000 -23.070023 -153.98965 -56.910484 -17.774216 -56.252636 -22.774054 -12.86352 122.20876
15840000000 -22.707291 -153.35582 -57.719803 -45.937386 -57.031063 -46.725536 -12.746386 118.59938
15850000000 -22.907661 -155.70192 -57.826267 -53.220631 -57.493603 -57.925694 -12.539356 115.15128
15860000000 -22.758783 -150.90654 -57.012791 -74.957954 -56.520298 -75.915405 -12.28791 111.64146
15870000000 -22.249762 -151.18507 -55.217857 -87.935257 -55.09771 -94.848282 -12.048688 108.37672
15880000000 -21.562984 -150.04451 -54.48283 -109.42536 -54.529587 -116.21193 -11.82816 105.11825
15890000000 -21.054558 -154.8759 -54.317905 -142.7466 -54.399925 -148.17001 -11.582845 102.46801
15900000000 -21.120436 -158.87114 -54.759514 -157.41225 -55.128933 -160.93184 -11.291669 100.08816
15910000000 -21.408953 -160.50519 -54.038841 177.39503 -54.334801 170.479 -11.037463 98.097198
15920000000 -21.400795 -159.00455 -53.791759 152.61908 -54.14817 149.22263 -10.838653 96.280716
15930000000 -21.28623 -156.64798 -54.426094 125.90032 -54.781631 121.37772 -10.75963 94.527031
15940000000 -20.726892 -152.9962 -55.947598 112.32806 -57.611969 115.55083 -10.706253 92.749809
15950000000 -19.936779 -153.15352 -55.384506 92.995491 -55.179756 96.395233 -10.691442 90.532349
15960000000 -19.327721 -154.43781 -54.870255 74.570793 -54.313446 79.082649 -10.671264 87.935028
15970000000 -19.043913 -157.71487 -53.641548 54.730423 -53.555557 53.972549 -10.657375 85.050507
15980000000 -19.376722 -158.26265 -54.410816 30.324343 -54.532631 29.142649 -10.593112 81.981392
15990000000 -19.334589 -156.20517 -53.944016 8.6258516 -53.549644 7.7485237 -10.479228 79.091057
16000000000 -19.339142 -155.42442 -55.032887 -11.544939 -54.789017 -13.347794 -10.296475 76.649467
16010000000 -18.79957 -153.35785 -54.865261 -24.439583 -55.053543 -28.237749 -10.100038 74.666267
16020000000 -18.397661 -155.11723 -53.539356 -45.645004 -54.365776 -46.615555 -9.978178 72.946075
16030000000 -18.005293 -155.14294 -52.780647 -68.313118 -53.089664 -66.697624 -9.9734364 71.311836
16040000000 -17.720043 -157.22386 -53.459862 -89.944733 -53.574776 -88.912537 -10.037316 69.513046
16050000000 -17.514408 -157.67445 -53.283409 -108.87485 -52.758904 -110.20125 -10.09236 67.114296
16060000000 -17.312359 -157.35474 -52.308472 -135.40103 -52.424225 -137.18097 -10.164954 64.367531
16070000000 -16.842213 -156.033 -52.87738 -159.93314 -53.528805 -161.27072 -10.180136 61.673557
16080000000 -16.352604 -156.60388 -53.293999 179.1113 -52.930576 -179.65347 -10.218537 59.111721
16090000000 -15.934708 -157.69316 -52.619457 166.15631 -52.344677 165.22296 -10.29403 56.425461
16100000000 -15.885851 -159.50627 -52.265499 134.57047 -52.181366 133.9935 -10.382805 53.580803
16110000000 -15.846833 -159.42731 -53.589035 109.46298 -53.221825 108.44678 -10.398159 50.384071
16120000000 -15.683179 -158.6963 -54.47477 95.606384 -54.229683 93.44841 -10.352617 47.201977
16130000000 -15.291889 -158.02493 -53.779308 83.406044 -53.879921 80.1213 -10.282108 44.951973
16140000000 -14.851379 -158.02417 -52.595535 60.278027 -52.530632 61.477619 -10.278283 43.547207
16150000000 -14.332781 -160.71489 -51.427338 29.039392 -51.42881 26.229088 -10.422864 42.318798
16160000000 -14.038834 -162.05142 -53.400108 3.2028601 -53.69672 0.61129856 -10.722122 40.512959
16170000000 -13.67884 -164.68591 -53.606365 -17.671732 -53.895741 -19.471849 -11.109656 37.611767
16180000000 -13.673897 -165.55621 -55.847931 -33.243065 -55.81609 -32.329334 -11.446415 33.656273
16190000000 -13.508741 -165.99112 -54.455738 -45.666161 -54.184937 -47.351093 -11.702748 29.452841
16200000000 -13.382663 -164.2914 -54.286617 -66.257629 -53.52927 -67.504814 -11.897781 25.515755
16210000000 -12.83741 -164.67165 -53.382549 -90.834991 -53.164211 -92.857964 -12.169221 22.033852
16220000000 -12.574779 -165.06296 -54.106915 -113.92381 -54.32925 -117.50561 -12.49305 18.748203
16230000000 -12.18751 -167.4547 -54.226189 -129.25212 -53.753918 -132.6866 -12.815887 15.358123
16240000000 -12.1086 -167.85628 -55.052982 -158.61681 -55.867611 -158.74174 -13.105601 12.127507
16250000000 -11.820584 -170.47626 -54.733101 -178.10667 -55.076027 176.36317 -13.416837 9.3624554
16260000000 -11.757442 -171.50285 -56.522118 169.85475 -56.566559 171.75925 -13.930895 7.6812
16270000000 -11.499048 -173.2711 -55.59866 158.36588 -55.314995 159.1082 -14.653146 5.9491396
16280000000 -11.381121 -174.15498 -53.854752 135.957 -53.776337 134.55959 -15.674658 3.7190089
16290000000 -11.030703 -175.25679 -54.276794 112.77573 -54.219326 109.49388 -16.786444 -0.78467476
16300000000 -10.899562 -176.20863 -54.554077 85.371689 -54.914711 85.30957 -17.947716 -7.2614484
16310000000 -10.605773 -177.07108 -55.464539 78.133125 -55.997761 79.723267 -19.019093 -14.182757
16320000000 -10.491665 -177.03105 -53.575073 55.725422 -53.570923 57.946224 -20.1446 -19.838223
16330000000 -10.040375 -177.68544 -53.900066 36.386333 -53.838398 33.644768 -21.369308 -24.904119
16340000000 -9.8341932 -179.31859 -54.167328 8.4207096 -53.997646 10.56699 -22.948502 -31.288437
16350000000 -9.6478863 178.51218 -56.07021 -4.4686217 -55.241722 -4.7262707 -24.929607 -38.258125
16360000000 -9.6514034 177.00993 -54.310829 -10.807727 -54.370754 -11.798798 -27.580153 -47.116531
16370000000 -9.5442152 175.29977 -52.989613 -28.759481 -52.748154 -29.593523 -32.246475 -56.378365
16380000000 -9.5823717 174.18959 -50.892002 -58.342056 -50.765179 -60.577366 -41.925003 -113.16402
16390000000 -9.4458761 173.90482 -51.72681 -90.712723 -51.492832 -92.029022 -33.337471 161.68831
16400000000 -9.2164192 173.89771 -52.287907 -109.92358 -52.48774 -113.20916 -27.730215 157.00427
16410000000 -8.8146601 172.77943 -52.779083 -127.81499 -52.653824 -129.11421 -24.515268 156.4173
16420000000 -8.5034866 171.34019 -51.444679 -143.05028 -51.489845 -143.35954 -22.659853 153.63161
16430000000 -8.2606792 169.07443 -51.534931 -167.97749 -51.335121 -170.52429 -21.421783 148.85672
16440000000 -8.2285643 167.65182 -50.700695 172.76004 -50.923592 171.69238 -20.357178 143.14577
16450000000 -8.1809444 166.39986 -50.172325 148.32382 -50.186199 148.97411 -19.249538 138.58687
16460000000 -8.187129 165.96919 -50.084976 122.77797 -49.987968 120.23517 -18.231182 134.99774
16470000000 -8.1341295 165.68375 -49.999577 101.86845 -49.970909 98.348358 -17.423889 131.1899
16480000000 -7.9779339 165.53465 -50.169292 79.212608 -50.317474 77.721245 -16.763941 127.01888
16490000000 -7.7253466 164.45082 -49.88158 55.208672 -49.854485 53.912716 -16.001076 122.08427
16500000000 -7.5234909 163.22273 -50.090954 39.128174 -49.851322 36.303314 -15.257355 118.2205
16510000000 -7.322226 161.15134 -49.872028 13.073977 -49.713104 11.22056 -14.400724 116.30316
16520000000 -7.201767 159.93456 -49.85173 -4.5668683 -49.970085 -5.6827254 -13.765141 115.23831
16530000000 -7.0478697 158.13799 -48.942078 -33.076786 -49.140144 -34.983505 -13.361248 114.36382
16540000000 -7.0032744 157.48636 -49.990685 -56.519054 -50.039139 -58.041386 -13.197042 112.28449
16550000000 -6.8755651 156.59491 -49.866238 -76.666626 -50.044434 -76.170998 -13.061522 109.15404
16560000000 -6.7972007 156.60368 -49.511501 -96.713524 -49.523823 -98.372162 -12.858793 105.37039
16570000000 -6.6037865 155.82642 -49.584076 -118.71454 -49.581898 -120.59258 -12.515351 102.11214
16580000000 -6.4645705 155.46889 -49.59864 -141.75868 -49.69976 -142.35326 -12.163445 99.595192
16590000000 -6.247633 154.21773 -50.151917 -162.06575 -50.069958 -161.77315 -11.864012 97.256966
16600000000 -6.1189837 152.98929 -49.439598 176.65433 -49.475235 176.96631 -11.648592 94.860046
16610000000 -5.9553075 151.22964 -49.508411 151.25838 -49.290821 150.5625 -11.382636 92.216454
16620000000 -5.8732309 149.87459 -49.393612 133.91142 -49.365379 133.96158 -11.088095 89.840675
16630000000 -5.7432952 148.37769 -48.872665 110.58028 -48.929691 109.69159 -10.741117 88.244286
16640000000 -5.6724539 147.67128 -49.277916 85.253281 -49.271927 84.771149 -10.507653 87.142723
16650000000 -5.4815259 146.88811 -49.267864 64.494873 -49.305443 62.69273 -10.411822 86.156242
16660000000 -5.3190436 146.35828 -49.496918 43.025665 -49.595646 42.073883 -10.438149 84.549561
16670000000 -5.0766478 145.45813 -48.79599 21.248232 -49.054478 19.789665 -10.494879 81.881432
16680000000 -4.9026222 144.43652 -48.945412 -3.0483255 -49.12545 -4.6179872 -10.468982 78.500587
16690000000 -4.7095165 143.17374 -49.354675 -26.37291 -49.506752 -27.447651 -10.319946 75.215004
16700000000 -4.6105924 141.78645 -49.348839 -44.958786 -49.421741 -47.202629 -10.122256 72.224632
16710000000 -4.4870749 140.46709 -48.592373 -73.798286 -48.717133 -74.602608 -9.9332991 70.059601
16720000000 -4.4081397 139.21454 -49.883018 -97.94397 -49.927853 -98.804558 -9.7819548 68.383682
16730000000 -4.2672725 138.05305 -50.260468 -118.39993 -50.218685 -120.53063 -9.6628027 66.803551
16740000000 -4.1324992 136.89647 -51.006493 -134.49612 -50.735607 -135.50615 -9.5549726 65.085312
16750000000 -3.9550099 135.68419 -49.389221 -153.20372 -49.399086 -154.83344 -9.5132837 63.460915
16760000000 -3.7828639 134.41945 -49.128548 177.87816 -49.330845 176.24318 -9.4747648 61.802959
16770000000 -3.6041267 133.00563 -49.788452 147.37491 -49.852638 146.08934 -9.5276489 59.881008
16780000000 -3.4571109 131.72295 -51.056309 128.12578 -51.148403 126.07917 -9.5753078 57.673618
16790000000 -3.3222108 130.33908 -52.013096 110.913 -52.135437 110.18531 -9.6343441 54.840019
16800000000 -3.2144783 129.00948 -51.60442 94.500275 -52.119835 91.351715 -9.631793 51.667397
16810000000 -3.1084468 127.69663 -50.975815 75.62571 -51.096855 73.229156 -9.619626 48.26049
16820000000 -3.001116 126.29006 -51.045353 48.063488 -51.15836 46.6311 -9.5744648 45.19986
16830000000 -2.8847034 124.78233 -51.419903 30.31534 -51.080956 29.211267 -9.4746389 42.487499
16840000000 -2.7671123 123.40408 -51.130192 -0.54071248 -51.058086 -1.227191 -9.3409882 40.127533
16850000000 -2.6286066 121.79267 -52.382828 -19.682354 -52.388851 -19.187925 -9.2281199 38.187843
16860000000 -2.4977694 120.27123 -52.096905 -40.1063 -52.139473 -40.726055 -9.1617823 36.699131
16870000000 -2.3657591 118.65009 -52.579285 -55.844322 -52.515499 -57.50526 -9.208415 35.065155
16880000000 -2.2556343 117.21873 -51.444649 -78.323715 -51.686752 -78.317787 -9.3630857 33.373665
16890000000 -2.141664 115.79529 -51.170006 -101.23442 -51.450958 -102.35979 -9.5517311 30.667068
16900000000 -2.0462644 114.55945 -51.810097 -129.87471 -51.818329 -130.30759 -9.7050343 27.449602
16910000000 -1.9424089 113.1347 -51.708874 -149.39789 -51.80127 -150.65538 -9.7555265 23.361341
16920000000 -1.8668712 111.74351 -51.824757 -174.28978 -51.846188 -176.54886 -9.7372456 19.401918
16930000000 -1.7736391 110.25413 -51.950661 160.26758 -52.078358 159.24907 -9.6931906 15.56601
16940000000 -1.6950587 108.69834 -52.352524 136.26189 -52.296215 136.25079 -9.6824179 12.410676
16950000000 -1.6016945 106.97012 -53.51202 112.539 -53.232876 110.31796 -9.6887445 9.3008585
16960000000 -1.5279465 105.31868 -54.05611 93.611023 -53.566792 93.128143 -9.7382736 6.5299387
16970000000 -1.4321787 103.67126 -54.319351 71.639229 -54.093681 69.147919 -9.7830982 3.6126513
16980000000 -1.3485818 102.07232 -53.917038 49.055309 -53.974785 48.477089 -9.8964787 0.65868264
16990000000 -1.2511826 100.48279 -54.183887 22.513729 -54.168606 19.511709 -10.075586 -2.5497026
17000000000 -1.1766511 98.979813 -54.315926 -2.5631487 -54.471382 -5.0045958 -10.296261 -6.1963286
