!Keysight Technologies,P9374A,MY57211807,A.19.30.04
!Date: Friday, May 08, 2026 15:07:08
!Correction: S11(C  2-Port  ) 
!S21(C  2-Port  ) 
!S12(C  2-Port  ) 
!S22(C  2-Port  ) 
!S2P File: Measurements: S11, S21, S12, S22:
# Hz S  dB   R 50
13000000000 -19.344614 55.425167 -46.803581 125.00768 -47.852543 129.9789 -11.49431 -89.566734
13010000000 -19.694761 59.997921 -46.621922 100.64756 -46.800426 105.93016 -11.872194 -93.06913
13020000000 -19.514868 63.26133 -46.486549 77.433876 -46.615799 78.59922 -12.272753 -96.519707
13030000000 -19.223953 64.497002 -46.618973 52.866779 -47.003754 55.365585 -12.720248 -100.07597
13040000000 -19.277218 62.68359 -48.028744 31.797995 -48.289936 35.202785 -13.216549 -103.78609
13050000000 -19.36721 62.81583 -48.217285 19.017359 -48.21973 24.423733 -13.746067 -108.12472
13060000000 -19.716482 60.609749 -47.718269 4.103621 -47.170383 8.0080032 -14.275196 -113.62026
13070000000 -19.900406 61.847965 -46.63073 -15.550466 -46.1492 -13.497143 -14.734454 -119.64472
13080000000 -19.964409 61.911533 -46.872509 -40.148014 -46.236412 -40.485283 -15.081245 -125.07858
13090000000 -19.582972 61.897041 -46.956524 -61.814831 -46.550995 -58.706413 -15.432755 -130.09088
13100000000 -19.671284 60.103077 -47.090069 -79.096626 -46.298904 -79.318916 -15.858741 -134.81818
13110000000 -19.513535 60.592098 -46.296146 -94.151772 -45.83604 -95.56945 -16.366861 -140.44641
13120000000 -19.846342 59.546032 -45.893436 -122.69499 -45.341507 -123.75719 -16.89344 -147.73727
13130000000 -19.605915 62.308441 -46.168957 -140.30179 -45.780441 -143.42043 -17.253912 -155.75235
13140000000 -19.468393 64.054947 -46.240673 -162.991 -46.066647 -167.1259 -17.47456 -163.52725
13150000000 -19.049833 62.312248 -46.410931 177.86037 -46.366108 174.54573 -17.686878 -171.04402
13160000000 -19.161522 61.737843 -46.764614 164.2254 -46.434601 163.46292 -17.943249 -179.03735
13170000000 -18.930969 57.678894 -45.448486 146.9875 -45.206589 144.15085 -18.151083 171.66971
13180000000 -19.723038 55.98151 -44.364292 124.47417 -44.21172 119.33652 -18.041544 161.24536
13190000000 -19.56912 57.088745 -44.026588 97.69104 -44.219849 93.963249 -17.584768 151.46843
13200000000 -19.908272 55.825443 -43.911861 72.710098 -44.129166 71.251274 -17.001896 143.61528
13210000000 -19.424208 58.973621 -45.066704 48.686974 -44.887882 47.946472 -16.502745 137.22221
13220000000 -18.983461 55.16058 -45.089748 32.62978 -44.956501 29.563459 -16.194599 130.75032
13230000000 -18.853802 52.748287 -45.170536 18.745228 -45.361256 14.540462 -15.91412 123.43727
13240000000 -19.06212 50.171967 -43.95726 -2.5907283 -44.48542 -4.7759533 -15.485879 115.31366
13250000000 -19.303427 48.239864 -43.776226 -25.825928 -44.134285 -23.287224 -14.798728 107.89892
13260000000 -19.911781 50.837334 -43.613182 -48.55965 -43.347725 -48.250896 -14.010474 101.94158
13270000000 -19.562574 51.66819 -43.718414 -68.262451 -43.621193 -71.716545 -13.357135 97.281769
13280000000 -19.427759 52.498489 -43.229465 -88.155319 -43.559299 -90.476105 -12.860639 93.18013
13290000000 -18.949793 48.381344 -43.095036 -111.69984 -43.335464 -112.05992 -12.449686 88.692825
13300000000 -19.123768 43.820686 -42.722885 -131.33368 -42.711075 -130.41223 -12.056168 83.47171
13310000000 -19.469685 39.278393 -42.723301 -152.68948 -42.422985 -152.92426 -11.584691 78.16568
13320000000 -20.072769 37.067894 -42.790508 -177.62379 -42.563976 -178.07574 -11.082907 73.444229
13330000000 -20.681253 38.243557 -42.787674 167.31029 -42.621441 164.25883 -10.596783 69.467125
13340000000 -20.373653 42.484467 -42.125149 145.91072 -42.298595 143.11914 -10.202353 65.768326
13350000000 -20.095749 40.920273 -41.782829 123.27784 -42.084984 122.94957 -9.8797531 61.847069
13360000000 -19.62472 41.094074 -41.478832 102.02724 -41.475857 102.31764 -9.6011782 57.128395
13370000000 -19.478863 34.957458 -41.261673 79.944122 -40.82996 78.919197 -9.2682381 52.12418
13380000000 -19.825783 31.471855 -41.052441 57.229519 -41.015873 54.051586 -8.8513947 47.343674
13390000000 -20.625937 28.305178 -41.144028 36.546146 -41.197464 34.010895 -8.4160929 43.154472
13400000000 -21.098776 29.655579 -40.884853 17.234045 -41.033058 14.089732 -8.0247154 39.680664
13410000000 -21.475132 27.874971 -40.174942 -4.6932645 -40.496769 -5.3951979 -7.7469163 36.353821
13420000000 -21.591427 31.211304 -39.720043 -28.77767 -39.793484 -29.757639 -7.5828547 32.602306
13430000000 -21.33674 26.040182 -39.669598 -52.064114 -39.904743 -53.74897 -7.451755 28.50078
13440000000 -21.625765 24.520456 -39.421082 -74.175728 -39.550289 -75.144508 -7.3103561 24.072678
13450000000 -21.876156 22.030928 -39.510628 -95.646049 -39.501812 -97.597801 -7.1003704 19.615711
13460000000 -22.033461 23.07032 -38.914825 -118.86395 -39.18631 -121.21897 -6.8640656 15.420619
13470000000 -22.233788 21.473385 -38.934795 -141.66422 -39.373688 -141.95499 -6.6865425 11.611924
13480000000 -22.02335 23.111927 -38.859085 -164.86331 -39.037941 -163.27307 -6.5547938 7.9308238
13490000000 -22.249289 16.465565 -38.613934 175.31627 -38.551781 175.35056 -6.4944735 4.215405
13500000000 -22.566456 14.143448 -38.2332 152.38266 -38.41906 151.93057 -6.4824867 0.43067056
13510000000 -23.685104 10.934168 -37.826458 127.22511 -37.904858 128.69003 -6.4666567 -3.2960658
13520000000 -24.792664 11.182093 -37.913483 102.66351 -37.862934 103.72903 -6.4543238 -7.0087781
13530000000 -25.598427 15.807437 -37.996986 79.707588 -37.85088 80.727776 -6.4698725 -10.678452
13540000000 -24.982924 21.734165 -37.895191 58.117008 -37.652077 58.411579 -6.5146475 -14.561057
13550000000 -24.324837 19.320438 -37.674492 33.397976 -37.520107 33.270943 -6.6328154 -18.363264
13560000000 -23.571711 14.747796 -37.898136 10.382422 -37.646046 11.357933 -6.7558908 -22.155746
13570000000 -24.255016 8.4336538 -38.067276 -12.964812 -37.627754 -13.089522 -6.8227673 -25.716148
13580000000 -24.795319 2.7993085 -37.960255 -34.836468 -37.73735 -35.062172 -6.8736544 -29.160786
13590000000 -26.855816 1.6525815 -38.128193 -56.518188 -37.614155 -56.632988 -6.9261417 -32.446384
13600000000 -27.51687 10.936612 -37.846401 -79.316429 -37.30014 -81.040337 -7.0386562 -35.516769
13610000000 -28.199778 22.642727 -37.684673 -102.8058 -37.260883 -104.56638 -7.2182016 -38.26355
13620000000 -26.925182 23.863993 -37.970108 -127.94026 -37.566124 -130.2684 -7.4125028 -41.134392
13630000000 -26.696712 22.248011 -37.882076 -150.14064 -37.593365 -152.77948 -7.6107717 -44.195702
13640000000 -26.567324 13.493277 -38.289917 -174.06908 -37.9697 -176.68933 -7.809833 -47.49279
13650000000 -27.722462 11.725863 -38.373993 164.50359 -37.899395 161.21838 -7.9894652 -50.744312
13660000000 -27.809616 11.115988 -38.65239 141.7475 -38.484554 136.60814 -8.1404743 -53.783012
13670000000 -28.911976 8.9463739 -38.649063 121.03624 -38.744183 117.09246 -8.3062544 -56.500721
13680000000 -28.889917 16.690645 -38.830563 99.734428 -38.831066 96.23082 -8.470397 -58.87764
13690000000 -28.707968 15.682281 -38.659863 78.358528 -38.626354 74.831161 -8.6372995 -61.269169
13700000000 -29.025866 20.987429 -38.273773 54.077847 -38.65731 49.603458 -8.845809 -63.984741
13710000000 -28.314619 27.101196 -38.681656 27.776802 -39.148701 25.830635 -9.079874 -66.747475
13720000000 -28.223316 24.077105 -39.329693 6.8448071 -39.679806 4.8721571 -9.2963705 -69.531242
13730000000 -28.371017 30.771601 -39.596386 -14.092554 -40.170506 -15.059521 -9.510355 -72.134399
13740000000 -26.971273 25.890711 -39.616844 -31.668859 -39.932102 -31.715765 -9.7119312 -74.377617
13750000000 -27.984573 18.602659 -39.407139 -55.069801 -39.640594 -54.669529 -9.9280939 -76.766769
13760000000 -28.128702 13.705065 -39.190266 -77.885124 -39.613827 -77.208656 -10.216012 -79.461449
13770000000 -29.979549 6.0051503 -39.425991 -101.42105 -39.597557 -100.22684 -10.515871 -82.507469
13780000000 -31.348423 18.962011 -39.796642 -124.98163 -40.010658 -123.43592 -10.764446 -85.964485
13790000000 -30.202812 24.483238 -40.010166 -143.46964 -40.036049 -140.39105 -10.944 -89.26722
13800000000 -29.212971 29.795528 -40.067924 -165.66667 -39.685287 -163.12325 -11.044036 -91.855415
13810000000 -26.780045 25.937613 -40.006756 174.05318 -39.663876 174.54086 -11.149837 -93.959007
13820000000 -26.190989 11.367387 -40.029621 150.26756 -39.796913 151.66779 -11.35662 -95.905632
13830000000 -26.348003 7.643249 -40.286762 128.19917 -39.7995 130.1125 -11.657657 -98.120232
13840000000 -26.508059 -6.8627057 -40.537434 109.00587 -39.835506 108.41853 -11.990437 -101.10301
13850000000 -29.538383 -10.629784 -40.392181 88.453072 -39.812027 86.882683 -12.286533 -104.3756
13860000000 -30.56673 -1.9769301 -40.267357 66.764748 -39.715599 64.600334 -12.478981 -107.73965
13870000000 -31.001835 10.05499 -40.18327 44.218025 -39.745728 41.941803 -12.641492 -110.82697
13880000000 -29.450563 13.1508 -40.098866 20.5411 -39.653976 18.919029 -12.838901 -113.74522
13890000000 -27.431986 8.3111382 -40.208927 -1.1988837 -39.808941 -4.8473229 -13.114469 -116.93759
13900000000 -27.318041 -7.0045209 -40.530468 -24.18173 -40.224556 -28.284809 -13.39903 -120.54899
13910000000 -26.830288 -9.2561426 -40.634415 -42.640884 -40.517292 -47.571911 -13.604002 -124.55662
13920000000 -26.93741 -25.779476 -40.385899 -65.725487 -40.23296 -70.724014 -13.701449 -128.36447
13930000000 -29.116091 -30.71701 -40.214817 -87.866707 -40.340385 -92.490311 -13.784205 -131.67401
13940000000 -29.515739 -31.984949 -40.497608 -110.77003 -40.532135 -114.00183 -13.949792 -134.63609
13950000000 -31.178122 -34.565578 -40.342155 -133.40314 -40.544952 -137.26608 -14.238554 -137.67708
13960000000 -31.667997 -32.746254 -40.497288 -155.7076 -40.822296 -158.53581 -14.574598 -141.42113
13970000000 -31.28549 -31.433781 -40.870041 -176.77467 -41.138187 -179.95642 -14.878979 -146.33487
13980000000 -31.239872 -36.388702 -40.653286 159.69139 -40.993111 156.42889 -15.081055 -151.95467
13990000000 -29.599098 -40.6017 -41.042477 138.12149 -41.533764 136.18599 -15.129335 -157.50307
14000000000 -28.927013 -52.57674 -41.100117 118.213 -41.438438 115.90772 -15.072865 -163.00809
14010000000 -27.970213 -59.713696 -41.075935 96.119911 -41.466919 94.707367 -15.013853 -167.97308
14020000000 -27.491123 -69.375565 -40.836632 74.041389 -41.253117 73.019402 -14.971989 -172.86949
14030000000 -27.810568 -80.086288 -41.120895 50.264652 -41.512917 49.372753 -14.96644 -177.47621
14040000000 -29.046167 -88.718498 -41.201664 29.762939 -41.675472 29.540993 -14.904284 177.78041
14050000000 -30.651548 -88.72699 -41.279968 8.3820801 -41.591476 9.3059082 -14.824126 172.86507
14060000000 -32.498238 -87.65583 -41.106026 -14.938592 -41.093739 -14.020848 -14.729 168.0414
14070000000 -32.615841 -75.256523 -41.258484 -35.749523 -41.536793 -36.127132 -14.610551 163.32988
14080000000 -32.164173 -80.329391 -41.142803 -58.955502 -41.23233 -59.149166 -14.484123 158.63124
14090000000 -30.281221 -79.009766 -41.426044 -79.868431 -41.584015 -80.970139 -14.387665 153.92876
14100000000 -28.321552 -100.06993 -41.475246 -102.60244 -41.653049 -102.37659 -14.271142 148.95747
14110000000 -28.280592 -112.49696 -41.197792 -123.93928 -41.421772 -124.22169 -14.149763 143.64182
14120000000 -27.781292 -127.70483 -41.444717 -144.87546 -41.638554 -145.42764 -13.922168 138.353
14130000000 -28.343174 -135.76089 -41.220505 -168.13484 -41.398903 -167.90456 -13.57711 133.20685
14140000000 -28.940004 -142.60663 -41.392063 167.72095 -41.332127 167.97551 -13.241897 128.5563
14150000000 -30.079136 -139.96609 -41.322041 147.02753 -41.436127 146.4716 -12.981368 124.51178
14160000000 -30.12875 -138.584 -41.270874 123.07957 -41.385456 123.9156 -12.751014 120.45585
14170000000 -30.29981 -131.4612 -41.382587 100.45526 -41.411228 100.15425 -12.532028 115.80385
14180000000 -29.247192 -137.00183 -41.32048 79.150528 -41.573833 78.936028 -12.279834 110.88825
14190000000 -28.731804 -139.46587 -41.213421 53.643227 -41.264927 55.607643 -11.933901 106.24406
14200000000 -27.752258 -147.24799 -41.657238 31.500607 -41.687977 32.251198 -11.552675 101.99029
14210000000 -27.808123 -154.40215 -41.704418 8.5649414 -41.607307 10.160056 -11.211989 98.120155
14220000000 -27.053183 -158.77119 -41.770042 -13.133364 -41.74614 -10.969459 -10.946868 94.398933
14230000000 -26.967422 -167.52454 -41.649162 -35.556423 -41.412998 -34.298286 -10.732108 90.505753
14240000000 -27.304558 -172.56064 -41.679508 -59.395332 -41.404819 -59.291889 -10.489112 86.431511
14250000000 -27.670425 -173.22292 -41.838131 -84.002533 -41.67625 -82.936646 -10.203496 82.28257
14260000000 -28.893625 -176.7009 -42.253773 -106.99154 -41.841797 -106.43867 -9.9133854 78.144173
14270000000 -29.0749 -165.32306 -42.367413 -127.48797 -42.090618 -127.22563 -9.6923018 74.170715
14280000000 -28.941351 -167.17293 -42.437332 -150.71397 -41.844769 -149.03259 -9.5086241 70.438438
14290000000 -27.614023 -160.22301 -42.602818 -171.73468 -41.78907 -172.24281 -9.3201466 66.352753
14300000000 -26.909496 -170.02208 -42.609676 166.01379 -41.943447 164.03526 -9.1247072 61.845779
14310000000 -26.338411 -175.49471 -42.512783 142.29816 -41.760563 140.63164 -8.9125891 57.276237
14320000000 -26.57482 170.78885 -42.242607 120.43668 -41.723919 116.9355 -8.6819391 53.035366
14330000000 -26.982422 167.26337 -42.425697 94.753525 -41.939053 93.461143 -8.4561129 49.12067
14340000000 -29.061628 161.02551 -42.546703 71.972206 -41.846127 69.176491 -8.2833052 45.288731
14350000000 -29.32629 175.21246 -42.715111 49.16655 -42.214863 46.043423 -8.1650267 41.379696
14360000000 -29.662106 179.55016 -42.756195 24.298828 -42.105408 21.581787 -8.118351 37.2458
14370000000 -27.688997 -171.06296 -42.737064 5.7511616 -42.190891 0.94588464 -8.0881815 32.923603
14380000000 -27.035418 179.42538 -42.450226 -19.093761 -41.714954 -23.75247 -8.0259237 28.390017
14390000000 -26.589413 177.56306 -42.227615 -45.536034 -41.844067 -50.921661 -7.9615068 23.543888
14400000000 -27.040241 166.43373 -42.436264 -69.803711 -42.122231 -75.314125 -7.9104171 18.815157
14410000000 -27.875023 164.01772 -42.837986 -96.654884 -42.488605 -99.780785 -7.9003291 14.402989
14420000000 -29.22578 162.74089 -42.941517 -116.45628 -42.561848 -121.29939 -7.893218 10.361422
14430000000 -29.280787 171.31787 -42.864792 -142.19695 -42.639698 -146.97653 -7.9121904 6.1014872
14440000000 -28.866524 175.21156 -42.68037 -165.71466 -42.567669 -170.07944 -7.9967823 1.6797512
14450000000 -27.268095 177.2439 -43.208138 167.24675 -43.142143 164.63705 -8.1330833 -2.8647547
14460000000 -27.412334 173.16165 -43.171867 146.97449 -42.943756 143.59296 -8.2915945 -7.2962856
14470000000 -26.906435 175.12726 -43.057938 119.66981 -42.902695 117.07641 -8.4446297 -11.734598
14480000000 -27.124695 173.53378 -43.447346 95.347023 -43.285503 91.856163 -8.6657295 -16.384933
14490000000 -27.129679 174.4201 -43.60873 70.268082 -43.587032 66.44632 -8.9647322 -21.182856
14500000000 -27.144907 178.31912 -43.630077 44.962303 -43.830017 44.9426 -9.2856731 -26.299513
14510000000 -26.509737 175.33195 -44.068653 17.744642 -43.800236 16.520241 -9.5503922 -31.652288
14520000000 -27.304773 177.43158 -44.398159 -0.68480062 -44.120132 -2.3459749 -9.7739639 -37.094261
14530000000 -26.823053 171.81873 -44.539726 -24.448391 -44.469021 -28.569553 -9.9995403 -42.007893
14540000000 -27.416487 -179.0511 -43.88451 -46.9697 -43.970142 -49.942551 -10.329483 -46.151306
14550000000 -26.197865 178.68187 -43.780712 -73.404793 -43.687157 -76.911125 -10.750875 -49.914967
14560000000 -25.763842 -176.95729 -43.897797 -103.70781 -44.321793 -108.45113 -11.250567 -54.333397
14570000000 -24.336306 177.4395 -44.622967 -126.33928 -44.941299 -129.4996 -11.798043 -60.026585
14580000000 -24.129055 174.58115 -44.868454 -147.46198 -45.07531 -151.91975 -12.399101 -66.339981
14590000000 -24.15995 167.96799 -43.83353 -173.41638 -44.213726 -178.11505 -12.965659 -72.284927
14600000000 -24.779924 171.40187 -44.420883 156.39632 -44.986549 152.03668 -13.488507 -77.99157
14610000000 -24.915661 170.41199 -44.891113 133.99733 -45.806877 128.00125 -14.037966 -83.994194
14620000000 -24.884811 179.62027 -44.809639 114.99365 -45.818413 111.3323 -14.674294 -91.245857
14630000000 -23.824692 178.73021 -44.035053 87.946198 -44.868874 86.275063 -15.346105 -98.682762
14640000000 -22.970766 178.03127 -44.170307 59.899433 -45.004711 58.226276 -15.827151 -106.0301
14650000000 -22.370394 169.02548 -44.42593 32.958607 -45.672165 30.921106 -16.220587 -113.47437
14660000000 -22.466076 166.25211 -44.531147 8.1040573 -45.66399 8.5942202 -16.752329 -120.62817
14670000000 -22.906958 163.7514 -44.603825 -18.973253 -45.600201 -15.659881 -17.531706 -128.06137
14680000000 -22.406219 165.83328 -44.984154 -45.501713 -45.500557 -42.852722 -18.363796 -136.79875
14690000000 -22.52648 164.32056 -46.074444 -67.223381 -46.531956 -66.279205 -18.979868 -148.06729
14700000000 -21.780657 166.3893 -45.271183 -87.799698 -45.949276 -85.923637 -19.236969 -160.90704
14710000000 -21.770018 162.80881 -44.774071 -107.79153 -45.66943 -105.82232 -19.102854 -173.67099
14720000000 -21.600801 162.39874 -43.917908 -142.7274 -44.581913 -136.77524 -18.844025 175.16837
14730000000 -21.501026 161.1684 -44.786911 -166.89571 -44.867371 -162.44751 -18.41432 166.42181
14740000000 -21.021156 158.33029 -44.860756 166.27013 -45.027218 168.99152 -17.986429 158.32343
14750000000 -21.081497 156.04073 -45.318626 145.98837 -45.577499 149.11261 -17.654751 150.96233
14760000000 -20.542601 153.19325 -44.806644 117.57078 -45.136066 121.54604 -17.425367 143.87723
14770000000 -20.786552 148.43398 -45.05666 92.351616 -45.307941 98.242889 -17.236691 136.33521
14780000000 -20.62784 145.55753 -45.691868 69.224266 -45.603809 75.239883 -16.908941 128.51344
14790000000 -21.287451 144.07713 -45.282978 49.99881 -45.088505 54.539791 -16.409908 120.89046
14800000000 -21.027948 147.49638 -45.162468 25.4956 -44.494236 30.650297 -15.903355 114.55203
14810000000 -20.973909 148.62488 -44.576599 -1.5322984 -44.20179 2.3904228 -15.378564 109.51879
14820000000 -20.012474 149.31061 -44.554764 -27.999523 -44.320549 -24.560505 -14.943718 104.85611
14830000000 -19.797777 144.78339 -45.092663 -54.659187 -44.641415 -48.866219 -14.55295 100.37788
14840000000 -19.522678 139.52197 -45.2383 -77.646957 -44.470203 -73.005775 -14.207546 95.816315
14850000000 -20.108147 133.99753 -45.926353 -104.65082 -45.176456 -100.53795 -13.885496 91.932007
14860000000 -20.525084 130.86482 -46.413544 -121.6681 -45.456753 -118.08945 -13.601748 88.45594
14870000000 -21.662247 128.748 -46.16687 -141.81114 -45.023479 -140.06972 -13.451653 85.292366
14880000000 -21.855616 132.5712 -45.239193 -164.99648 -44.268147 -162.37222 -13.380964 81.688507
14890000000 -21.541182 135.19521 -44.692028 169.1351 -43.711395 169.47571 -13.313221 77.109779
14900000000 -20.561289 133.95097 -45.062054 143.7832 -44.054375 143.61546 -13.158175 72.077026
14910000000 -20.065117 129.99698 -45.680901 117.2298 -44.401066 117.62142 -12.861595 67.657257
14920000000 -19.841734 123.67323 -45.717777 97.382088 -44.716831 95.60524 -12.523338 64.218742
14930000000 -20.346067 119.80752 -45.873405 76.368195 -44.631798 72.101456 -12.291689 61.856647
14940000000 -20.856495 116.38526 -45.375149 54.511822 -44.47443 49.982346 -12.250411 59.842491
14950000000 -21.832594 119.05431 -45.657341 29.963112 -44.799141 25.339678 -12.318792 57.492039
14960000000 -22.168978 120.29515 -45.29855 8.703949 -44.673885 2.5619743 -12.432817 54.425446
14970000000 -22.281952 126.42449 -45.060482 -11.560496 -44.595703 -17.001207 -12.488155 51.282764
14980000000 -21.852903 122.84895 -44.605362 -34.443745 -43.800804 -39.505367 -12.551013 48.144371
14990000000 -21.737274 122.2882 -43.969517 -63.359772 -43.083111 -70.24939 -12.689148 45.560387
15000000000 -21.836349 114.99487 -44.348499 -89.609726 -43.817131 -99.18576 -12.892376 42.891525
15010000000 -22.427906 113.85911 -45.00322 -117.72984 -44.550663 -126.58551 -13.152286 39.934532
15020000000 -22.976818 109.72942 -46.22784 -135.39178 -46.083935 -145.92224 -13.286166 36.262569
15030000000 -23.425499 113.5274 -45.910049 -149.01183 -46.236362 -158.42839 -13.34958 32.918098
15040000000 -23.549393 112.43596 -44.288666 -169.99336 -44.681499 -176.58224 -13.337476 31.087059
15050000000 -23.621468 116.62363 -43.634747 165.0083 -43.966335 157.32451 -13.404652 30.556522
15060000000 -23.602011 116.53438 -43.225437 135.54091 -43.593288 128.01361 -13.689732 30.825232
15070000000 -23.70051 118.55998 -43.391998 107.002 -43.948349 98.602364 -14.179861 30.9806
15080000000 -23.867929 117.98705 -43.88752 78.856956 -44.80135 72.488449 -14.748811 30.37421
15090000000 -24.024408 120.15974 -45.010117 58.541428 -45.839684 52.534641 -15.31604 28.927862
15100000000 -24.253859 119.73109 -44.442394 42.05793 -45.567764 36.154953 -15.768826 27.646137
15110000000 -24.276936 120.59456 -44.697433 18.000223 -45.77142 13.71786 -16.082329 27.371452
15120000000 -24.729202 119.73685 -43.52956 -2.9046903 -44.62962 -6.2376838 -16.335152 27.835192
15130000000 -24.693577 118.56639 -43.353878 -31.693283 -44.719242 -33.36108 -16.621119 29.073383
15140000000 -25.356094 120.1049 -43.346336 -55.199085 -44.722897 -54.960545 -16.771635 30.438261
15150000000 -25.027981 125.05869 -43.141369 -82.516937 -44.599754 -82.909157 -16.832241 32.042889
15160000000 -24.780806 128.22453 -43.727329 -109.04687 -44.889992 -106.1584 -16.711346 34.39275
15170000000 -23.775927 129.19838 -43.787949 -131.83649 -44.666626 -129.56509 -16.587078 37.54805
15180000000 -23.387348 126.98676 -43.87682 -160.46637 -45.047501 -158.54535 -16.419725 41.159149
15190000000 -22.98275 124.08 -44.846245 175.21146 -45.816242 179.98439 -16.360025 44.316319
15200000000 -23.595579 121.52946 -45.359676 155.15697 -46.061996 161.04536 -16.351917 46.758064
15210000000 -23.853596 121.44165 -45.764042 132.8239 -46.645802 139.62367 -16.30162 47.764206
15220000000 -24.612467 126.38805 -45.112621 112.93777 -45.761887 122.17589 -16.194414 47.993729
15230000000 -24.048923 129.58493 -44.695232 86.892143 -44.70573 96.124184 -15.927475 47.424164
15240000000 -23.673676 132.40872 -44.907738 59.047691 -44.70084 66.287254 -15.616673 46.82843
15250000000 -22.638769 128.81952 -44.876751 31.468676 -44.882099 37.673611 -15.201043 46.209286
15260000000 -22.523094 124.067 -47.435459 0.99098969 -47.201244 11.531324 -14.764 45.371632
15270000000 -22.480392 119.95857 -47.997761 -9.1073694 -47.345173 0.45403826 -14.266663 44.59906
15280000000 -22.600998 115.90829 -48.302254 -28.823675 -46.839668 -21.588232 -13.829851 44.06805
15290000000 -23.191221 114.55639 -47.081944 -43.646431 -46.013535 -40.865154 -13.518993 44.062519
15300000000 -23.372654 116.92892 -46.829979 -72.092972 -45.983837 -69.320396 -13.284858 44.308853
15310000000 -23.348875 119.09316 -47.474697 -98.669495 -46.197975 -95.730194 -13.136435 43.385643
15320000000 -22.771061 119.18166 -47.634903 -119.80693 -46.304886 -120.23277 -13.092031 41.539524
15330000000 -22.480896 117.48957 -48.054688 -145.23245 -47.206409 -146.22679 -13.030214 38.940342
15340000000 -22.354076 112.12023 -48.446774 -164.66238 -47.245728 -167.60976 -12.922663 36.167938
15350000000 -22.841026 111.53491 -48.920479 177.99617 -47.954639 173.61618 -12.7163 33.807568
15360000000 -23.005692 107.20685 -47.6231 157.20616 -47.305344 153.23207 -12.522433 31.456041
15370000000 -23.659042 108.51932 -47.250477 132.85468 -46.796112 128.41423 -12.377038 28.950792
15380000000 -23.178707 105.19145 -47.49044 100.8073 -46.856876 98.225754 -12.245877 26.045893
15390000000 -23.893621 103.70483 -48.532143 79.484741 -48.118614 74.459595 -12.088886 23.283596
15400000000 -23.644737 101.63677 -49.200314 61.513702 -48.590584 53.44672 -11.899617 20.80385
15410000000 -24.09277 98.958817 -47.547966 44.947704 -47.870247 37.285263 -11.784888 19.182196
15420000000 -24.598734 95.372482 -46.711559 8.5652895 -47.026917 5.4112682 -11.792586 17.778883
15430000000 -25.155525 98.539658 -48.404819 -14.305407 -48.19326 -19.314575 -11.961401 15.955145
15440000000 -25.124989 97.518013 -48.559292 -41.777378 -48.702553 -47.726444 -12.210376 12.415845
15450000000 -25.213205 98.788757 -49.303326 -57.184235 -49.779293 -64.185997 -12.479097 7.5750871
15460000000 -24.950356 92.3834 -48.882553 -83.337532 -49.406441 -88.488312 -12.594047 2.3922827
15470000000 -25.785545 89.796303 -48.986057 -108.65704 -49.414326 -108.38994 -12.603215 -2.307802
15480000000 -26.078979 82.523026 -49.268822 -131.8168 -49.16214 -135.56409 -12.575413 -5.6858625
15490000000 -27.790695 79.317421 -49.67783 -162.28552 -49.914177 -164.18423 -12.660737 -8.7280521
15500000000 -28.933224 79.719437 -50.153301 179.25777 -50.435745 175.02972 -12.861826 -11.57993
15510000000 -30.028389 84.071884 -51.023777 148.86217 -51.154018 149.50726 -13.159659 -14.640357
15520000000 -30.448946 87.327995 -51.703526 130.08023 -51.34943 125.94795 -13.492907 -18.055809
15530000000 -29.755033 90.704643 -52.108028 110.18737 -52.674187 102.28343 -13.897181 -21.701117
15540000000 -30.260637 80.304825 -53.349545 83.111069 -53.888084 77.90242 -14.48786 -25.700802
15550000000 -31.169874 80.829079 -54.620747 66.916092 -53.994968 72.922203 -15.212203 -30.27286
15560000000 -32.719395 66.641418 -55.83255 58.086838 -53.744125 51.184765 -15.950586 -35.412136
15570000000 -36.503502 71.062645 -53.581284 32.146767 -53.315479 21.11758 -16.563416 -42.115417
15580000000 -39.541908 60.492855 -54.20739 22.945478 -55.549652 15.633469 -17.086372 -50.092098
15590000000 -43.262653 98.75293 -52.735168 -7.9940858 -53.146667 -6.4645438 -17.640627 -57.823406
15600000000 -48.350456 94.539185 -52.812786 -30.287205 -52.388527 -34.712032 -18.132399 -64.183716
15610000000 -45.425533 160.88654 -54.157261 -59.789207 -54.348186 -69.62973 -18.588764 -69.824837
15620000000 -50.671623 -170.99065 -54.525364 -71.930824 -54.237167 -82.564438 -19.248293 -75.707382
15630000000 -42.41819 -160.10048 -53.909653 -87.533783 -55.908909 -99.189392 -20.230433 -81.575043
15640000000 -42.010067 -128.64282 -52.889462 -109.99195 -54.057556 -116.40652 -21.52408 -88.819969
15650000000 -37.044449 -145.61607 -53.193378 -130.18619 -55.38121 -135.1498 -22.93115 -99.636414
15660000000 -36.798313 -133.59262 -52.308361 -146.22888 -53.987347 -145.1409 -23.765646 -116.49397
15670000000 -34.054836 -142.24393 -50.956169 -175.2886 -52.513103 -168.91548 -23.629168 -135.27405
15680000000 -32.860451 -132.93234 -50.379467 157.05212 -50.65559 159.17644 -22.796938 -149.58574
15690000000 -30.948711 -137.43436 -50.165581 127.80874 -51.092972 128.91609 -22.197018 -160.11926
15700000000 -29.227509 -137.35852 -51.321621 94.345108 -52.438885 99.00116 -21.729881 -168.08446
15710000000 -28.54344 -143.66989 -52.770771 87.550919 -53.272598 93.522606 -21.144497 -176.34517
15720000000 -27.509871 -144.12498 -51.605675 70.690727 -52.302456 73.821655 -20.527887 174.84767
15730000000 -27.681707 -148.2309 -49.989601 45.493088 -50.619389 51.77647 -19.98748 167.43517
15740000000 -27.024826 -145.57346 -49.854969 20.057903 -49.705074 26.198715 -19.555115 161.50484
15750000000 -27.032295 -148.24431 -49.138535 -6.8317814 -49.047684 -2.9184413 -19.15708 155.74968
15760000000 -26.489964 -145.463 -49.290455 -33.596176 -49.021385 -30.98571 -18.642563 148.16225
15770000000 -25.979376 -145.70612 -48.124931 -59.679966 -48.542828 -60.080986 -17.936344 140.18164
15780000000 -25.191341 -146.26239 -48.711601 -88.221817 -49.205093 -83.631119 -17.052149 134.34081
15790000000 -24.609888 -146.85707 -49.654377 -117.10373 -49.900505 -110.16206 -16.137852 131.40828
15800000000 -23.762188 -150.48128 -50.07589 -131.90727 -49.983147 -124.44968 -15.373317 130.03404
15810000000 -23.56472 -152.68735 -49.24818 -153.56943 -48.458878 -149.96364 -14.966296 128.90524
15820000000 -23.0033 -153.97203 -49.105171 179.4369 -48.550316 -176.45218 -14.78152 127.26252
15830000000 -23.009094 -155.6754 -49.28083 158.57784 -48.650639 160.16231 -14.686255 124.63729
15840000000 -22.998175 -155.32228 -48.416756 132.35562 -47.951775 130.67081 -14.537048 121.22884
15850000000 -23.100609 -154.76811 -48.941273 107.1433 -49.116596 106.02509 -14.272722 117.42288
15860000000 -22.802059 -151.20804 -48.551949 78.522308 -48.451607 85.041962 -13.958215 113.39404
15870000000 -22.278082 -150.84955 -49.539803 57.36652 -48.406982 55.896778 -13.664458 109.81872
15880000000 -21.810902 -150.644 -49.140724 31.006071 -49.015167 28.011082 -13.311405 106.68526
15890000000 -21.300861 -152.86635 -50.118629 9.3349485 -50.4459 8.683754 -12.912529 103.75603
15900000000 -21.127827 -156.39583 -51.010647 -12.904999 -50.140915 -8.3509779 -12.480457 101.41364
15910000000 -20.988379 -158.37578 -50.839386 -23.37406 -49.846493 -28.648941 -12.120616 99.528244
15920000000 -20.917202 -160.18533 -50.068684 -46.925694 -49.537029 -57.008205 -11.856883 98.3339
15930000000 -21.121714 -158.8764 -49.122803 -70.284653 -49.660252 -75.752823 -11.664249 97.149231
15940000000 -20.831186 -155.77435 -49.145737 -95.613647 -49.612106 -96.620247 -11.576449 95.601135
15950000000 -20.275654 -154.33948 -48.983292 -122.97596 -48.891071 -123.23321 -11.56908 93.679176
15960000000 -19.802662 -154.37105 -49.232819 -150.29187 -49.122555 -152.53432 -11.566075 91.334236
15970000000 -19.305771 -154.21278 -50.811356 -166.36406 -50.931297 -171.00287 -11.538226 88.567696
15980000000 -19.208187 -155.66895 -50.357342 178.34138 -50.972721 176.45941 -11.409894 85.129517
15990000000 -18.976622 -155.34322 -50.397392 159.31897 -50.177349 158.74829 -11.234282 81.925972
16000000000 -18.97204 -156.63014 -49.032726 136.72182 -49.180962 135.96371 -10.95976 79.357903
16010000000 -18.781816 -155.23532 -48.355232 111.28511 -48.192924 111.20285 -10.667361 77.472588
16020000000 -18.460155 -156.47661 -48.64603 83.172905 -48.295742 82.001289 -10.458308 76.119926
16030000000 -18.200613 -155.58862 -49.020676 60.691307 -48.927132 58.754734 -10.36933 74.820679
16040000000 -17.827564 -156.8562 -49.872669 42.077168 -49.592636 39.620213 -10.392987 73.392929
16050000000 -17.606613 -157.51569 -49.001846 24.406906 -48.958107 24.877872 -10.440657 71.442139
16060000000 -17.35964 -156.45634 -48.135639 3.4314861 -47.728203 1.5167358 -10.482685 68.833069
16070000000 -16.830036 -155.64085 -47.908646 -24.247149 -47.574627 -27.503948 -10.51116 66.1436
16080000000 -16.377089 -156.03838 -48.018749 -46.1325 -47.73349 -50.165085 -10.551891 63.554905
16090000000 -15.874522 -156.63783 -47.35659 -69.220764 -47.430359 -72.67865 -10.609195 60.731285
16100000000 -15.714637 -158.86656 -47.715828 -90.601791 -47.019344 -93.343872 -10.665855 57.713467
16110000000 -15.567863 -160.2211 -47.053307 -114.94482 -46.692284 -118.22145 -10.622591 54.461926
16120000000 -15.612387 -160.88655 -46.951694 -137.5112 -46.531044 -142.19698 -10.50152 51.196384
16130000000 -15.50532 -159.96892 -46.603901 -162.4581 -46.158222 -164.62486 -10.350878 48.983841
16140000000 -15.222595 -158.491 -46.969921 171.01199 -46.030724 166.41635 -10.274467 47.69318
16150000000 -14.629695 -158.84392 -48.322834 151.19185 -47.600796 140.32953 -10.364106 46.759151
16160000000 -14.06259 -159.82712 -47.083366 138.19463 -47.262508 128.86909 -10.63562 45.390499
16170000000 -13.476965 -162.79968 -46.482567 110.13267 -46.92469 107.01473 -11.006482 42.809776
16180000000 -13.338759 -164.97916 -46.087109 87.307114 -45.672764 85.179367 -11.386235 39.015995
16190000000 -13.18566 -167.03691 -46.133583 64.391533 -45.841686 57.260689 -11.649398 34.653336
16200000000 -13.309848 -167.03552 -45.202827 39.256943 -45.450523 32.413597 -11.859928 30.384087
16210000000 -13.110347 -166.2901 -44.923668 13.217232 -45.109665 6.1467414 -12.08522 26.363008
16220000000 -12.904312 -165.07114 -45.679089 -17.685951 -46.499592 -21.912802 -12.392019 22.788334
16230000000 -12.377638 -165.76373 -46.58197 -34.295853 -46.670185 -35.071312 -12.684904 19.661997
16240000000 -12.101387 -166.47836 -46.399723 -52.996506 -46.509872 -58.210186 -12.88296 16.843746
16250000000 -11.715112 -169.10693 -45.908566 -74.586098 -46.397369 -78.060684 -13.067194 14.412241
16260000000 -11.524144 -171.31543 -45.573978 -94.7873 -45.477348 -99.262802 -13.471056 12.481119
16270000000 -11.350235 -173.87042 -44.774582 -123.60751 -45.665096 -129.39598 -14.199577 10.782607
16280000000 -11.309169 -175.26126 -44.834358 -148.80936 -45.713547 -149.11493 -15.251735 9.2512321
16290000000 -11.115068 -176.04738 -45.040203 -173.9294 -45.479076 -173.43474 -16.418728 5.447134
16300000000 -11.012215 -176.55034 -45.194805 160.5708 -45.415379 161.78459 -17.620335 -0.26476309
16310000000 -10.746501 -176.64992 -45.525204 140.03076 -45.392574 136.77773 -18.628191 -7.4425893
16320000000 -10.489005 -176.62784 -45.475677 112.6391 -46.112682 109.33726 -19.639666 -14.169615
16330000000 -10.081272 -177.23682 -45.67292 92.605759 -46.717812 92.803772 -20.772125 -19.802963
16340000000 -9.8363361 -178.87065 -45.672283 68.095383 -46.11586 73.179573 -22.136917 -25.664408
16350000000 -9.5976734 179.25914 -46.162476 44.408939 -45.79948 48.158264 -23.979542 -30.803406
16360000000 -9.5168085 176.84605 -45.95726 22.618992 -45.842316 25.57406 -26.378691 -34.629875
16370000000 -9.5107784 175.05653 -46.474812 0.099830031 -46.193382 1.1785327 -30.057972 -35.985764
16380000000 -9.5217123 173.74274 -46.137894 -21.648172 -45.955772 -20.1054 -39.314575 -41.565166
16390000000 -9.4492712 173.36186 -46.859177 -45.206223 -46.32774 -43.395725 -38.138836 155.18665
16400000000 -9.298152 173.24948 -46.180878 -67.916061 -45.778732 -69.071266 -29.432268 154.58733
16410000000 -8.958581 172.94212 -47.185146 -93.913177 -46.516911 -92.103409 -25.714634 155.51244
16420000000 -8.591424 171.92487 -47.243996 -116.04475 -46.579384 -116.90745 -23.656502 155.91873
16430000000 -8.2640905 170.10564 -48.465954 -135.70956 -47.703026 -137.39674 -22.228569 153.30011
16440000000 -8.1262627 168.21814 -48.248703 -155.26529 -47.635681 -158.9993 -20.970045 148.41121
16450000000 -8.0627546 166.48886 -47.98344 -173.36435 -47.47168 -178.9507 -19.876337 142.32651
16460000000 -8.1060162 165.36853 -47.390678 162.77815 -47.503597 155.42737 -18.992956 137.99971
16470000000 -8.1103373 165.04489 -47.696323 138.98425 -48.090984 134.06287 -18.248537 134.28981
16480000000 -8.0287428 164.75824 -47.817307 114.34344 -48.168198 113.23878 -17.574671 130.35558
16490000000 -7.8524489 164.23961 -47.936653 95.600838 -48.102432 91.016571 -16.735229 125.83407
16500000000 -7.6527944 163.64355 -48.256805 68.561142 -48.554279 65.329964 -15.806493 121.78882
16510000000 -7.3338723 162.07835 -49.085976 47.922131 -49.316689 44.956295 -14.87801 119.4865
16520000000 -7.1572948 160.48528 -49.259781 34.709991 -50.218155 29.021576 -14.172873 118.66608
16530000000 -6.9516087 158.57326 -48.539795 15.30404 -49.657753 16.177505 -13.785087 118.0147
16540000000 -6.9048328 157.21986 -48.011753 -7.4625835 -49.047955 -3.5797703 -13.673921 116.67731
16550000000 -6.8354793 156.209 -47.312149 -34.379852 -47.877647 -31.664043 -13.619049 114.24143
16560000000 -6.8171062 155.93031 -47.983986 -61.4744 -48.151901 -58.784904 -13.442738 110.82697
16570000000 -6.6723485 155.62833 -48.709782 -84.413376 -49.16153 -83.259949 -13.123317 107.32704
16580000000 -6.5500894 155.39357 -48.991245 -104.96815 -49.651585 -101.57712 -12.743335 104.35856
16590000000 -6.3125997 154.73894 -49.768284 -126.1328 -50.609165 -119.22404 -12.461411 101.72186
16600000000 -6.1127901 153.38808 -49.771442 -142.13153 -49.644466 -135.46936 -12.211598 99.309517
16610000000 -5.9058394 151.75127 -49.219776 -163.02853 -49.173748 -157.8597 -11.924603 96.905632
16620000000 -5.8094716 149.86766 -48.845383 177.06953 -48.598213 -178.7829 -11.561636 94.713745
16630000000 -5.6910357 148.34978 -48.410355 148.4893 -48.313328 154.35605 -11.208329 93.299461
16640000000 -5.6446481 147.24484 -48.871887 126.50706 -48.651695 131.53314 -10.950412 92.65593
16650000000 -5.5007782 146.61212 -49.004227 101.30466 -48.652115 104.45329 -10.861232 92.057449
16660000000 -5.3676939 146.11365 -49.843739 74.263023 -49.213852 80.149994 -10.892593 90.993835
16670000000 -5.1344614 145.61479 -51.242336 54.109623 -50.140854 58.413368 -10.98442 88.444145
16680000000 -4.9379458 144.68176 -51.514164 40.550404 -50.956875 41.986343 -11.024529 85.034645
16690000000 -4.7113476 143.5515 -51.61467 23.918043 -50.626286 27.479494 -10.927467 81.458534
16700000000 -4.580368 142.04724 -51.353653 10.394756 -49.149391 6.9454989 -10.728457 78.35836
16710000000 -4.4344401 140.56149 -50.129581 -17.790607 -48.879364 -24.011749 -10.511768 76.058693
16720000000 -4.3615527 139.07851 -51.062302 -42.412807 -49.792988 -48.168407 -10.312497 74.58593
16730000000 -4.2421422 137.77956 -51.032043 -61.800858 -50.13163 -70.373062 -10.120065 73.09613
16740000000 -4.147368 136.57243 -51.13625 -81.392975 -50.43504 -90.222885 -9.9866705 71.447975
16750000000 -4.0023813 135.54842 -51.760925 -102.56085 -50.938457 -115.46274 -9.9285679 70.006165
16760000000 -3.8410563 134.5871 -51.920963 -115.38679 -51.82309 -133.32594 -9.9219856 68.678917
16770000000 -3.6243329 133.30038 -50.909485 -133.87515 -51.72121 -149.51321 -9.9764538 67.177284
16780000000 -3.4576495 132.06175 -49.923 -156.71097 -50.886616 -168.29878 -10.051746 65.332001
16790000000 -3.279839 130.56064 -49.834171 179.2343 -50.99482 168.29974 -10.130744 62.782124
16800000000 -3.1693406 128.96895 -49.248611 154.69431 -50.627052 145.27435 -10.176594 59.396881
16810000000 -3.0737069 127.4335 -49.465168 130.01184 -51.216991 125.39722 -10.19171 55.756306
16820000000 -3.0145397 125.9809 -48.989906 108.04192 -50.45472 100.32796 -10.13485 52.26265
16830000000 -2.9192758 124.65894 -49.010681 80.497543 -50.918182 76.660408 -10.014986 49.175793
16840000000 -2.8069525 123.47441 -49.272285 54.981895 -51.569813 54.664261 -9.8495369 46.7425
16850000000 -2.6446874 122.03133 -49.965065 38.562138 -52.051399 42.624836 -9.6902981 44.873093
16860000000 -2.4932315 120.48145 -49.04705 17.310715 -50.678478 24.127626 -9.5951242 43.53577
16870000000 -2.3438811 118.80444 -48.127342 -6.9048424 -49.072849 -1.4774349 -9.6100798 42.304985
16880000000 -2.2289562 117.22853 -47.961269 -41.964161 -48.790211 -34.737717 -9.7691813 40.753975
16890000000 -2.1290755 115.6914 -48.866291 -69.517303 -49.537144 -62.046844 -9.9932394 38.588814
16900000000 -2.0508854 114.4203 -49.943844 -94.021896 -50.939209 -87.491035 -10.168428 35.388981
16910000000 -1.9580512 113.09502 -51.030758 -115.71357 -51.574051 -105.40431 -10.274223 31.07303
16920000000 -1.8798819 111.77632 -51.428162 -133.2404 -51.638779 -124.81058 -10.325586 26.48299
16930000000 -1.778358 110.33527 -51.395107 -156.91167 -50.656879 -144.7464 -10.304996 22.432402
16940000000 -1.6978981 108.75642 -50.73793 -177.84415 -49.967922 -171.42049 -10.256995 18.684935
16950000000 -1.6039824 107.05255 -51.308487 153.50928 -50.260265 156.36076 -10.214722 15.376283
16960000000 -1.5238329 105.37506 -51.481045 130.77303 -50.790176 132.84621 -10.198771 12.195064
16970000000 -1.4274148 103.70574 -52.591545 103.24193 -51.435425 107.53825 -10.237195 9.4689674
16980000000 -1.3426316 102.08759 -53.395012 78.426033 -52.12928 83.194061 -10.350157 6.5898342
16990000000 -1.248124 100.48193 -54.121063 56.911152 -52.629837 56.794598 -10.524965 3.7719438
17000000000 -1.1726305 98.965218 -55.046638 32.433102 -53.37862 27.996597 -10.763657 0.15078971
