!Keysight Technologies,P9374A,MY57211807,A.19.30.04
!Date: Friday, May 08, 2026 15:12:39
!Correction: S11(C  2-Port  ) 
!S21(C  2-Port  ) 
!S12(C  2-Port  ) 
!S22(C  2-Port  ) 
!S2P File: Measurements: S11, S21, S12, S22:
# Hz S  dB   R 50
13000000000 -18.454088 57.340675 -40.622391 82.652527 -40.502979 75.119179 -12.810937 -82.239212
13010000000 -18.982014 56.232803 -39.946915 58.887672 -39.924213 52.940647 -13.175634 -85.573212
13020000000 -19.446976 57.53944 -39.83202 34.733028 -39.853561 27.892199 -13.565762 -88.927338
13030000000 -19.888952 60.741577 -39.903008 9.1896 -40.04425 2.2121818 -14.017073 -92.079102
13040000000 -20.147762 63.763184 -40.468517 -13.806241 -40.757107 -20.45978 -14.528704 -95.461624
13050000000 -19.793791 67.155289 -40.710514 -33.127487 -41.383186 -39.492554 -15.096524 -99.410255
13060000000 -19.466516 65.670288 -40.5397 -53.164608 -41.128185 -57.957661 -15.686949 -104.366
13070000000 -19.195549 63.374443 -40.326992 -74.317116 -40.926765 -79.685036 -16.172888 -110.43436
13080000000 -19.433964 59.478477 -40.013012 -97.958382 -40.839787 -102.99854 -16.573748 -116.06393
13090000000 -19.551813 58.170624 -39.87904 -123.07333 -40.914398 -127.15157 -16.925331 -121.2486
13100000000 -20.032007 57.952091 -40.426487 -146.70087 -41.503181 -149.88808 -17.377178 -126.15413
13110000000 -19.887447 61.331711 -40.48616 -166.26675 -41.633614 -166.84785 -17.950562 -131.95027
13120000000 -19.911947 61.550632 -40.348507 171.13884 -41.448265 170.25844 -18.501282 -139.13655
13130000000 -19.474808 63.169319 -40.15522 149.12996 -41.40839 150.16806 -18.867434 -147.80508
13140000000 -19.337538 63.242302 -40.207359 123.17607 -41.247932 124.79758 -19.125309 -156.54683
13150000000 -19.079565 61.193584 -40.567444 99.718338 -41.570797 102.30087 -19.382231 -164.62445
13160000000 -19.415905 61.381763 -40.960487 78.80629 -42.019279 82.284584 -19.646685 -172.94835
13170000000 -19.170107 60.29657 -40.868507 57.102798 -41.920521 63.520569 -19.837454 176.67084
13180000000 -19.477312 58.282703 -40.985809 34.394184 -41.482861 41.45829 -19.629642 165.24179
13190000000 -19.18482 57.673306 -40.876381 12.838321 -41.334885 19.661837 -19.012861 154.60704
13200000000 -19.366388 54.108639 -40.695351 -12.028517 -40.854866 -4.0038385 -18.277079 146.16666
13210000000 -19.569693 54.212055 -41.026855 -37.962349 -41.223869 -30.268616 -17.693983 139.29146
13220000000 -19.470587 53.024403 -41.634285 -62.35891 -41.681416 -53.035187 -17.325777 132.63565
13230000000 -19.556524 53.386784 -42.46706 -85.055519 -41.993279 -75.330574 -16.934181 124.76461
13240000000 -19.422441 54.242123 -42.729485 -99.994682 -41.89621 -91.776573 -16.412304 116.39745
13250000000 -19.157309 53.975098 -42.667137 -122.89481 -41.830463 -117.77604 -15.636822 108.90449
13260000000 -19.000456 52.395214 -42.561378 -146.12831 -41.841637 -139.52171 -14.756022 103.10623
13270000000 -18.902678 49.906704 -42.94249 -172.96623 -41.842842 -166.47137 -14.01644 98.274132
13280000000 -19.077219 46.651855 -44.09557 165.42522 -42.522038 172.86069 -13.449409 94.054359
13290000000 -19.478275 44.37748 -44.508991 147.93573 -42.502808 150.4982 -12.982677 89.261391
13300000000 -19.723042 42.576862 -44.670265 129.89615 -42.817196 129.56451 -12.559802 83.887161
13310000000 -20.285816 41.633701 -44.475979 107.01115 -42.668312 106.45021 -12.078602 78.445946
13320000000 -20.098198 42.926746 -45.088219 84.524597 -43.116009 80.945473 -11.528501 73.752899
13330000000 -20.188051 41.582531 -45.145176 65.832794 -43.60054 58.530964 -10.960596 69.658264
13340000000 -19.782413 42.212116 -45.677803 42.294716 -44.041035 36.068245 -10.48433 65.657364
13350000000 -19.769358 38.716469 -45.960686 23.963282 -44.579376 14.284424 -10.132911 61.440823
13360000000 -19.640892 37.652325 -46.188744 5.5373545 -44.918545 -3.3199959 -9.8654757 56.738121
13370000000 -19.887266 34.558224 -45.908478 -14.456891 -44.942234 -25.397751 -9.5196905 51.879795
13380000000 -19.952444 32.503391 -46.09005 -39.294544 -45.161724 -51.367622 -9.0928087 47.011787
13390000000 -20.694811 30.086529 -46.598236 -58.767242 -46.301476 -75.003326 -8.6601496 42.694561
13400000000 -20.763533 29.580412 -47.237103 -79.223366 -47.405502 -92.332428 -8.2553167 38.934959
13410000000 -21.577768 26.521242 -47.42831 -94.866592 -47.555946 -108.37768 -7.9985394 35.303944
13420000000 -21.820482 30.124393 -46.868675 -116.93083 -47.117096 -130.45956 -7.8469553 31.411367
13430000000 -21.847578 27.896893 -47.315018 -137.4529 -48.223343 -153.28249 -7.7109652 27.13435
13440000000 -21.69595 29.083981 -47.132057 -160.86462 -48.68272 -175.55858 -7.5549393 22.457859
13450000000 -21.272903 26.97168 -48.183475 177.81662 -50.315819 163.9496 -7.3263726 17.757153
13460000000 -21.013382 21.700994 -48.099831 162.30237 -50.553158 154.13956 -7.0777521 13.549808
13470000000 -21.646858 16.447611 -48.420063 142.13092 -51.068295 138.08549 -6.8819814 9.6170902
13480000000 -22.153273 14.773375 -48.183868 126.84827 -50.978634 125.7388 -6.7638664 5.780345
13490000000 -23.553486 12.400686 -47.952492 102.83276 -50.775715 106.11106 -6.7273641 1.9339815
13500000000 -23.81068 17.919714 -48.053066 83.207169 -50.416435 88.96003 -6.7287378 -1.9682467
13510000000 -24.387499 21.134272 -48.789341 58.58131 -51.028927 70.149178 -6.69802 -5.9083056
13520000000 -23.77075 22.437244 -49.161293 43.084763 -50.292198 58.775372 -6.6643658 -9.9252377
13530000000 -23.796703 18.521238 -49.180939 25.609961 -50.004757 37.08474 -6.6562982 -13.964332
13540000000 -23.412374 13.805435 -48.98243 10.85951 -49.897327 26.521446 -6.7006016 -18.057377
13550000000 -24.224581 8.2997561 -48.501152 -8.3682756 -48.186069 8.1789217 -6.7892246 -22.017073
13560000000 -24.591768 6.8595624 -48.291767 -29.49354 -47.182186 -15.518149 -6.8787565 -25.925272
13570000000 -26.108639 8.7957468 -47.940472 -48.061703 -46.820503 -39.461639 -6.922502 -29.675314
13580000000 -25.44521 10.027958 -47.813213 -71.359169 -46.96788 -62.940201 -6.9610729 -33.319023
13590000000 -26.760271 12.941388 -47.982231 -89.998856 -46.744274 -80.618752 -7.0342536 -36.876694
13600000000 -26.1063 13.888875 -48.17017 -110.87348 -46.535603 -102.49818 -7.1568179 -40.22086
13610000000 -27.243204 19.099854 -47.777233 -125.52423 -45.714767 -121.69419 -7.3291688 -43.438015
13620000000 -26.546936 17.502216 -47.345203 -147.90788 -45.434803 -144.95067 -7.5222673 -46.873447
13630000000 -27.345308 19.294094 -46.124317 -167.28525 -44.550278 -168.84698 -7.7051477 -50.410671
13640000000 -26.743252 13.871681 -46.261299 167.16919 -44.697495 167.1817 -7.8825831 -54.133694
13650000000 -27.951952 12.401746 -46.48864 147.10899 -44.593018 144.0294 -8.0262184 -57.706638
13660000000 -27.736113 10.244632 -46.548809 129.35263 -44.854092 123.93092 -8.1421585 -61.051113
13670000000 -28.955111 6.7074842 -45.68264 108.81659 -44.243107 100.93899 -8.2785597 -64.091858
13680000000 -29.847168 14.134878 -45.513283 87.277466 -44.373665 78.46138 -8.4507179 -66.832954
13690000000 -29.449572 24.897303 -44.890285 63.956581 -44.095081 55.842182 -8.646534 -69.539825
13700000000 -28.412424 28.145514 -44.671757 41.669899 -43.76054 34.139408 -8.8912163 -72.593834
13710000000 -27.301706 30.470779 -44.874474 18.8958 -44.109245 8.6339417 -9.1392441 -75.935036
13720000000 -26.548311 21.745117 -44.463028 -0.8608126 -44.034191 -12.36735 -9.3788242 -79.333061
13730000000 -27.573414 18.164343 -44.450867 -26.718931 -44.44014 -37.98666 -9.5714674 -82.460907
13740000000 -27.918678 14.860096 -44.083965 -46.973686 -44.208473 -55.351574 -9.7540207 -85.333908
13750000000 -29.967388 13.334785 -44.103626 -66.864922 -44.205978 -76.232666 -9.9490671 -88.139626
13760000000 -30.440876 22.025713 -43.706757 -90.084175 -44.225746 -100.10887 -10.209384 -91.312653
13770000000 -30.279568 25.495535 -43.273174 -112.24245 -43.728954 -122.93674 -10.481821 -94.709969
13780000000 -29.246477 29.756468 -43.36319 -138.92183 -44.200382 -147.81616 -10.702765 -98.304886
13790000000 -27.525673 23.831297 -43.305248 -158.60648 -44.194828 -166.12314 -10.843266 -101.65586
13800000000 -27.623125 15.132921 -43.247124 179.76125 -44.307346 172.68474 -10.948468 -104.38707
13810000000 -27.419106 12.788632 -42.629673 155.46248 -43.851761 149.4384 -11.112881 -106.78086
13820000000 -27.295362 4.4986463 -42.941044 129.60028 -44.655594 126.02349 -11.378055 -109.1315
13830000000 -28.234392 7.7213564 -43.079605 107.26882 -44.691872 106.64678 -11.716412 -112.05394
13840000000 -27.618402 1.9272785 -43.290813 84.562355 -44.670284 86.047493 -12.017397 -115.6913
13850000000 -29.217035 2.0247886 -43.280792 63.867439 -44.578922 65.393288 -12.228489 -119.64645
13860000000 -28.892193 3.6536291 -43.203869 40.949142 -44.506805 43.395123 -12.347734 -123.27291
13870000000 -29.485306 2.6111758 -43.043713 16.04826 -44.231918 21.955896 -12.462917 -126.49166
13880000000 -29.318895 3.3742096 -43.118496 -8.2315874 -44.127529 -1.6891594 -12.65087 -129.34526
13890000000 -28.376429 4.6360159 -43.826355 -31.228514 -44.42107 -23.306469 -12.903768 -132.43925
13900000000 -27.540731 -5.569241 -44.255203 -54.013218 -44.401928 -45.664902 -13.129736 -136.03033
13910000000 -27.281 -8.6849661 -44.602287 -71.057907 -44.635841 -64.352325 -13.284961 -139.914
13920000000 -26.553427 -22.122654 -44.181293 -93.759407 -44.212994 -86.25396 -13.3734 -143.48952
13930000000 -28.384827 -34.833439 -44.434856 -116.8513 -44.197292 -108.42819 -13.471627 -146.74931
13940000000 -29.858892 -35.311218 -44.867004 -137.93976 -44.132652 -131.24846 -13.646542 -149.88365
13950000000 -31.932354 -39.25869 -44.835155 -156.98833 -44.061844 -151.41518 -13.908025 -153.40002
13960000000 -32.848309 -25.958441 -44.862701 -178.64783 -43.840115 -173.30598 -14.152681 -157.3506
13970000000 -31.296289 -20.265348 -44.763233 160.21829 -43.488018 163.52077 -14.298946 -161.87537
13980000000 -29.53129 -31.410135 -45.173939 138.35406 -43.679832 140.01743 -14.331584 -166.86954
13990000000 -28.516485 -43.38876 -44.977001 119.8484 -43.456707 118.22977 -14.301067 -171.65244
14000000000 -27.920155 -57.099461 -44.549427 98.779015 -43.281227 95.379929 -14.26423 -176.11702
14010000000 -27.711138 -70.411469 -44.457169 75.894173 -43.62991 71.523338 -14.233918 179.88054
14020000000 -28.302149 -76.515404 -44.127087 55.196308 -43.385521 50.7584 -14.195688 176.03476
14030000000 -29.484697 -83.746338 -44.2267 31.482357 -43.504841 25.874319 -14.151788 172.05688
14040000000 -30.534698 -78.79335 -43.70969 10.303401 -43.361813 4.0666108 -14.101003 167.83725
14050000000 -30.398678 -76.935188 -43.647705 -12.436573 -43.414925 -18.37155 -14.038559 163.62738
14060000000 -30.763727 -79.520432 -42.939953 -36.921211 -42.886234 -41.895195 -13.941688 159.39697
14070000000 -30.979197 -80.226074 -43.324272 -65.237991 -43.080875 -69.711685 -13.824466 155.32045
14080000000 -30.831209 -89.652245 -43.386089 -89.326729 -43.317318 -94.513786 -13.687757 151.45049
14090000000 -31.410095 -89.304382 -43.84174 -113.08592 -44.155937 -119.34816 -13.609326 147.6602
14100000000 -29.164898 -101.55058 -43.781727 -134.2977 -44.420876 -139.87958 -13.519491 143.62924
14110000000 -29.298239 -112.57754 -43.793976 -159.7814 -44.448429 -161.28198 -13.421466 139.04666
14120000000 -28.00754 -121.24036 -44.122688 175.98027 -44.473335 173.7932 -13.263363 134.27806
14130000000 -28.033424 -132.38515 -44.478062 150.16032 -44.896343 149.08022 -13.002758 129.62126
14140000000 -28.04143 -140.27496 -44.915222 125.26676 -45.271244 125.50098 -12.743686 125.62106
14150000000 -29.78578 -147.06316 -45.787155 102.17559 -46.121433 102.04418 -12.537927 121.95304
14160000000 -30.259581 -140.61995 -46.032829 81.801773 -46.427097 82.154984 -12.372637 118.15988
14170000000 -31.405621 -134.6539 -46.357384 57.84473 -46.605824 57.807636 -12.207333 113.87416
14180000000 -29.372557 -129.16797 -47.015648 32.299892 -47.36911 35.042366 -11.989091 109.35062
14190000000 -28.355415 -136.8194 -47.682632 12.910698 -47.617844 15.698449 -11.685246 104.97043
14200000000 -27.025568 -144.15823 -48.807816 -11.88289 -48.434078 -9.4750414 -11.374779 100.92589
14210000000 -26.803263 -157.44087 -49.736603 -27.774176 -49.554379 -25.008354 -11.116201 97.357582
14220000000 -26.714165 -163.19972 -50.063274 -44.477932 -49.101849 -41.79911 -10.899121 93.873268
14230000000 -27.281702 -174.03773 -50.027096 -64.978523 -49.028973 -64.602371 -10.711354 90.046257
14240000000 -28.178446 -172.28421 -50.580929 -83.611664 -49.252884 -86.640999 -10.516628 85.826363
14250000000 -28.533583 -171.56967 -50.471771 -106.33656 -49.365929 -112.562 -10.303955 81.619347
14260000000 -28.951872 -166.64653 -50.716255 -124.06906 -50.527962 -130.23851 -10.064981 77.662933
14270000000 -28.305725 -162.33807 -51.592533 -145.74341 -50.546207 -146.63065 -9.853241 73.813744
14280000000 -27.541164 -166.17979 -51.348591 -162.75992 -50.459522 -171.60321 -9.6878309 69.951569
14290000000 -27.321959 -168.13344 -51.909763 -175.69073 -51.425526 172.07787 -9.5399485 65.753136
14300000000 -26.963167 -174.6869 -51.025856 164.95381 -50.689556 150.52956 -9.380126 61.225845
14310000000 -27.054771 -179.94606 -50.088699 140.83575 -50.468639 129.16449 -9.1998749 56.565216
14320000000 -27.126444 171.875 -50.101036 116.5594 -50.671227 104.27939 -8.9950476 52.113533
14330000000 -27.687378 172.38564 -50.19556 93.016136 -51.750069 80.569893 -8.8000879 48.003639
14340000000 -28.288624 166.23607 -50.880589 69.197685 -52.534447 58.192024 -8.6309519 44.061596
14350000000 -28.914047 176.28444 -50.637783 51.390888 -52.667267 42.110062 -8.5203819 39.944923
14360000000 -28.68688 176.49361 -50.77589 29.4487 -52.680862 26.68515 -8.4766922 35.594658
14370000000 -28.027191 -176.09254 -50.164146 5.3684955 -52.284065 2.957546 -8.4573727 30.970913
14380000000 -27.468143 176.79529 -50.58374 -20.601768 -52.767689 -22.054325 -8.4304619 26.1756
14390000000 -27.140636 179.18861 -50.790787 -47.236092 -52.742371 -48.161232 -8.3686647 21.323284
14400000000 -26.939953 169.59631 -51.959026 -64.67321 -54.419029 -60.167118 -8.3124399 16.358242
14410000000 -27.84721 165.85419 -51.886986 -83.327026 -54.610886 -77.908325 -8.2902174 11.737831
14420000000 -28.377047 163.96016 -51.416252 -106.31439 -54.219486 -91.390968 -8.2877522 7.2506881
14430000000 -28.837288 166.44424 -51.528637 -136.27748 -53.207764 -119.51065 -8.330986 2.6198001
14440000000 -29.364408 170.49104 -52.990559 -161.0882 -54.12479 -145.6767 -8.415019 -2.0568469
14450000000 -28.017336 179.6788 -55.49902 -174.63025 -56.990543 -160.03273 -8.5273104 -6.9326544
14460000000 -27.459713 176.79129 -54.65704 -179.48734 -54.864193 -157.32506 -8.6558704 -11.921671
14470000000 -26.6915 177.31354 -51.764042 156.88562 -52.120823 175.07666 -8.8248472 -16.72278
14480000000 -26.496809 175.82802 -52.361881 111.20026 -52.275524 134.91243 -9.0461445 -21.53038
14490000000 -26.5086 170.44514 -55.089111 87.029007 -53.297386 117.74215 -9.3002396 -26.688141
14500000000 -27.217962 173.56125 -57.075581 77.807961 -53.754829 102.17155 -9.5867882 -32.312279
14510000000 -27.280994 170.5654 -56.763 67.133026 -53.17614 81.702362 -9.8193207 -38.233849
14520000000 -28.231417 -178.30751 -55.412945 42.757065 -52.917519 57.767307 -9.9986649 -43.968052
14530000000 -26.878426 178.48679 -56.437431 23.390093 -51.93026 37.7892 -10.1861 -49.056767
14540000000 -26.755329 -175.23419 -58.11491 4.2279644 -52.31192 9.3743057 -10.448622 -53.523582
14550000000 -25.23225 177.91853 -56.947357 5.9275885 -52.222763 -7.1444464 -10.812349 -58.234459
14560000000 -25.392374 178.49821 -54.255852 -26.436085 -51.210564 -35.876099 -11.279258 -63.422672
14570000000 -24.375645 172.44899 -54.698914 -69.282112 -51.255726 -67.198616 -11.762851 -69.355148
14580000000 -24.691936 172.76709 -56.865879 -92.425819 -51.83593 -92.681755 -12.184692 -75.773827
14590000000 -24.753504 167.72408 -58.67049 -85.111824 -53.013737 -113.58934 -12.574453 -82.153046
14600000000 -25.183794 177.38536 -55.987408 -107.21743 -52.297276 -135.56955 -12.951092 -88.355003
14610000000 -24.297462 173.58942 -55.003288 -134.85883 -53.280537 -162.72981 -13.387472 -95.016411
14620000000 -24.467508 179.70128 -53.590931 -172.1684 -51.939598 169.60968 -13.886221 -101.79752
14630000000 -23.826735 174.69414 -55.523518 156.06151 -54.104839 136.93008 -14.270157 -108.51812
14640000000 -23.38286 176.69411 -54.469643 140.96233 -54.069458 113.13559 -14.485639 -115.56265
14650000000 -22.571215 172.9106 -54.324863 111.0405 -53.969498 86.278069 -14.684952 -122.51161
14660000000 -21.97212 168.94987 -53.923882 73.462425 -54.157238 42.462513 -15.058751 -129.23853
14670000000 -22.167549 162.50081 -56.709137 50.863304 -58.426575 13.189934 -15.561808 -135.81685
14680000000 -22.342016 161.34436 -57.028164 20.202253 -58.938641 -5.0054922 -16.052597 -143.33771
14690000000 -22.8127 160.91672 -59.202278 6.5432053 -62.001385 -28.848745 -16.408138 -151.76346
14700000000 -22.578812 165.94621 -59.757961 -15.423954 -62.957657 -60.355522 -16.495504 -161.08649
14710000000 -22.140623 167.11314 -57.553139 -50.468525 -61.974293 -81.239342 -16.44301 -170.40891
14720000000 -21.295654 167.12851 -62.326382 -80.296883 -68.481758 -171.88112 -16.346029 -178.83347
14730000000 -20.731133 162.31088 -59.750462 -106.1422 -71.167374 -143.74863 -16.186466 173.72795
14740000000 -20.363577 156.29332 -62.498329 -163.38364 -68.181686 154.74765 -16.083086 167.29236
14750000000 -20.797276 149.84859 -67.536781 152.21239 -65.351944 95.484383 -15.97259 161.2886
14760000000 -21.215326 148.70296 -64.388 102.09812 -61.604935 36.349331 -15.900261 155.12363
14770000000 -21.657316 147.15466 -66.315063 2.6179452 -60.334343 -23.865429 -15.884974 148.22156
14780000000 -21.409737 150.97307 -64.794472 -49.969444 -59.161846 -65.207474 -15.769916 140.91512
14790000000 -21.05242 150.45308 -66.140137 -82.978828 -61.694977 -112.59763 -15.531053 133.39331
14800000000 -20.26755 150.86542 -68.213684 -88.423683 -65.817635 -107.54327 -15.247215 127.07169
14810000000 -19.951675 146.90216 -63.024921 -104.92564 -60.784801 -126.42567 -14.960298 121.91352
14820000000 -19.636978 143.88028 -60.946865 -159.97163 -58.923546 -171.81522 -14.685878 117.16949
14830000000 -20.066858 138.51248 -63.576862 178.69801 -61.138371 158.20021 -14.486816 112.44462
14840000000 -20.431797 137.57626 -61.209789 170.21529 -60.615116 142.11224 -14.282448 107.65168
14850000000 -20.931757 136.46481 -57.547935 132.71661 -58.8922 121.3136 -14.046671 102.69624
14860000000 -20.883841 137.18893 -58.994858 92.220932 -58.875858 87.137695 -13.905372 98.286995
14870000000 -21.024282 134.12291 -58.602005 63.798798 -61.139893 60.559551 -13.830591 94.525223
14880000000 -21.024712 132.99132 -60.682045 12.11758 -60.997795 38.162479 -13.846245 90.490326
14890000000 -20.846922 131.85806 -61.979073 26.839872 -60.378887 24.2027 -13.857907 85.898026
14900000000 -20.521069 128.14003 -60.785576 -16.88752 -59.905773 -15.785971 -13.767817 80.55397
14910000000 -20.627226 127.34586 -61.414711 -50.873039 -63.238178 -41.209076 -13.548635 75.500343
14920000000 -20.378212 123.61417 -63.694134 -100.72266 -66.22776 -68.4505 -13.308064 71.22644
14930000000 -20.749441 122.59686 -66.952545 -84.239746 -63.535805 -52.368225 -13.18378 68.407394
14940000000 -20.787554 120.34803 -64.546539 -101.47209 -61.409061 -82.875366 -13.208364 66.028351
14950000000 -21.225513 120.56485 -63.338505 -139.06468 -60.495293 -126.7449 -13.416094 63.216633
14960000000 -21.752859 118.16327 -64.159775 -178.37654 -63.418781 -161.69669 -13.554637 59.797924
14970000000 -22.304794 123.25404 -62.764065 117.91064 -64.692383 159.31187 -13.681321 55.473682
14980000000 -22.183531 120.70716 -66.052742 23.035942 -76.48114 99.015259 -13.821651 51.590458
14990000000 -22.156534 123.68024 -61.898598 -76.869766 -62.972687 -133.24361 -13.975063 48.544861
15000000000 -21.808058 117.09534 -61.204124 -172.82005 -58.616589 149.15178 -14.24798 45.659851
15010000000 -22.251619 115.57388 -66.181168 125.95184 -62.493595 96.664665 -14.619533 42.402905
15020000000 -22.427849 109.52979 -64.213928 94.665543 -62.301899 83.4851 -14.862416 39.067566
15030000000 -23.292969 109.94184 -67.463005 -8.103796 -64.523621 28.303074 -14.967236 34.893894
15040000000 -23.863003 109.52291 -67.743378 175.42902 -65.435898 28.176876 -15.080654 32.406479
15050000000 -24.180527 117.36681 -65.0448 133.18478 -73.336189 -63.643593 -15.310847 31.722111
15060000000 -23.985001 119.35727 -61.968697 78.077042 -71.691246 -27.248236 -15.729581 31.967003
15070000000 -23.417746 122.94634 -63.456955 23.874062 -70.847572 -54.224369 -16.420631 32.16922
15080000000 -23.190449 118.61906 -65.089287 23.087435 -78.269127 -39.997074 -17.185856 31.779457
15090000000 -23.429461 117.5504 -60.220875 7.9967027 -73.702919 -71.514908 -17.841948 29.447668
15100000000 -24.166357 114.2998 -60.337273 -40.89909 -71.365242 -175.00024 -18.524549 27.557013
15110000000 -24.922213 116.79606 -61.068939 -88.382095 -77.251175 -178.20871 -18.956032 27.752464
15120000000 -25.472691 119.8417 -65.670517 -127.35347 -70.953255 118.0684 -19.344683 29.475798
15130000000 -25.18129 122.27298 -67.884659 -139.46661 -66.835274 59.697296 -19.733486 33.200855
15140000000 -25.37641 126.00069 -61.574322 -121.19785 -62.894005 -20.163622 -19.885061 36.398777
15150000000 -24.204737 127.88332 -62.703106 -177.80528 -63.58675 -64.493126 -20.065172 38.583675
15160000000 -24.153114 125.4341 -60.893597 162.87604 -63.077061 -123.28309 -20.100645 42.487694
15170000000 -23.572325 126.22636 -63.691765 124.69994 -67.162903 -117.73723 -19.804108 47.060631
15180000000 -23.67655 122.46181 -60.82436 101.53131 -62.903866 176.20265 -19.50613 52.135197
15190000000 -23.47253 124.45098 -61.533634 60.259735 -65.605965 161.18127 -19.127388 56.853764
15200000000 -23.90867 122.71883 -60.626701 22.451538 -64.656723 125.17377 -18.867357 59.06284
15210000000 -23.842333 123.73393 -62.50222 -18.796154 -68.863258 92.076584 -18.734079 60.429424
15220000000 -24.621885 127.23176 -64.135513 -49.944809 -64.238434 93.756554 -18.453108 60.963524
15230000000 -23.609144 130.81474 -65.954521 -63.421093 -63.225876 60.072929 -17.972748 60.196732
15240000000 -23.564444 129.73102 -66.04277 -74.487656 -59.084724 34.17276 -17.443268 59.406799
15250000000 -22.685696 128.33047 -58.90881 -96.582703 -57.120731 -27.283333 -16.852633 58.320663
15260000000 -22.728128 123.50837 -58.431721 -146.40971 -59.394356 -73.943024 -16.326542 56.490322
15270000000 -22.43014 121.60545 -58.61282 168.07687 -61.176357 -91.990379 -15.848505 54.932575
15280000000 -22.548315 115.64635 -58.990063 131.41771 -61.450626 -122.14615 -15.374799 53.927109
15290000000 -23.068373 114.77345 -61.277695 115.32377 -58.796997 -150.89581 -14.924263 53.087212
15300000000 -23.300909 114.82052 -63.92659 83.383003 -58.564156 -174.28235 -14.600016 52.345299
15310000000 -23.596272 117.6428 -59.11665 81.383118 -55.342464 149.27151 -14.406342 50.617363
15320000000 -23.06031 119.38863 -59.359146 26.78335 -56.147839 102.15903 -14.330849 48.00198
15330000000 -22.693516 119.18601 -59.549587 15.135989 -56.042957 70.420456 -14.27357 44.805546
15340000000 -22.453753 114.88274 -59.881248 -10.063519 -55.836445 48.17033 -14.096498 41.491993
15350000000 -22.411505 113.99088 -58.524857 -29.453657 -53.529163 21.235918 -13.854769 38.53677
15360000000 -22.358793 106.32046 -56.343548 -64.141762 -52.52964 -19.688208 -13.650393 35.920109
15370000000 -23.386433 105.61788 -58.23827 -86.416054 -52.957207 -52.996765 -13.50017 32.724403
15380000000 -23.146418 100.88816 -57.434753 -105.50411 -52.869301 -78.80793 -13.477141 28.835144
15390000000 -24.568291 100.44418 -56.559212 -126.45486 -52.458466 -108.02876 -13.416709 25.301722
15400000000 -24.462383 102.90911 -54.760296 -161.69052 -51.75621 -136.6357 -13.233749 22.034704
15410000000 -24.417141 103.28096 -55.406876 163.51869 -51.271843 -168.02989 -13.094467 19.503405
15420000000 -24.478056 100.28283 -55.744537 143.17021 -51.859028 161.66508 -13.085035 17.388573
15430000000 -24.568003 101.76072 -58.463608 127.39491 -52.231232 141.0649 -13.21694 14.567024
15440000000 -24.26466 96.798286 -56.138367 107.44792 -51.305981 115.18778 -13.536001 9.9750795
15450000000 -24.793577 93.11972 -56.684414 83.67054 -51.16943 84.75045 -13.859765 4.7749715
15460000000 -25.247412 88.129929 -55.027275 69.132767 -51.104053 62.289776 -13.94921 -0.79158705
15470000000 -26.323971 86.526283 -52.67215 27.995996 -49.690353 28.657698 -13.936478 -5.9805131
15480000000 -26.931641 83.017197 -53.14283 -6.5777063 -50.344357 -6.0311522 -13.98107 -9.9390993
15490000000 -28.309834 84.604736 -55.30307 -41.214462 -51.344372 -35.883564 -14.138625 -13.663318
15500000000 -28.837536 83.88208 -58.266594 -47.049393 -53.803825 -52.567921 -14.436816 -18.048216
15510000000 -29.404022 87.971519 -56.661934 -60.504829 -52.323204 -70.936539 -14.800449 -22.770069
15520000000 -29.98432 87.68689 -55.01664 -75.158836 -52.004311 -95.319778 -15.155447 -27.817154
15530000000 -29.087305 89.285866 -53.536446 -108.44553 -50.958714 -129.4675 -15.578077 -32.909531
15540000000 -30.096067 74.982155 -53.139473 -142.18434 -52.261578 -162.18237 -16.092846 -38.065792
15550000000 -31.476624 77.309868 -55.094563 -169.31401 -54.0452 -177.77686 -16.705965 -44.699276
15560000000 -33.149937 63.318306 -55.60244 179.4214 -53.663219 166.56453 -17.422546 -52.791943
15570000000 -37.020802 72.320457 -54.707985 147.23155 -52.493858 134.33075 -18.024647 -61.543556
15580000000 -40.809582 54.848404 -55.133423 122.93584 -52.725643 100.3564 -18.350328 -70.697517
15590000000 -43.775715 113.64975 -57.189335 100.19363 -55.7136 71.863106 -18.562611 -80.323692
15600000000 -47.27087 115.8555 -56.617043 84.840088 -56.900635 56.908783 -18.805059 -89.266647
15610000000 -42.536346 152.29794 -56.346985 72.700592 -56.823013 50.985729 -19.071871 -98.081596
15620000000 -50.887821 163.48965 -56.252682 38.43642 -55.065037 21.808464 -19.411385 -106.99297
15630000000 -42.494141 -176.49397 -54.899395 20.00853 -54.417152 -8.8544216 -19.851967 -115.84165
15640000000 -45.645226 -116.68093 -54.822704 -12.928896 -55.113461 -46.873066 -20.191494 -125.92796
15650000000 -37.535038 -136.06729 -55.225563 -38.226509 -58.063354 -72.50029 -20.310173 -137.99022
15660000000 -36.819508 -127.70726 -57.199745 -69.429901 -59.86903 -94.723846 -19.889397 -150.49239
15670000000 -33.484978 -137.99089 -59.555191 -86.97126 -61.3419 -115.63952 -19.108841 -161.42686
15680000000 -32.17638 -127.28103 -59.86607 -96.247421 -63.678226 -140.43094 -18.406017 -169.64854
15690000000 -29.556194 -140.28477 -58.049244 -114.82369 -66.705353 -143.02417 -17.91172 -176.14561
15700000000 -28.991743 -143.91377 -59.00634 -146.60538 -67.420891 -146.12804 -17.563732 177.91718
15710000000 -28.835676 -149.71693 -58.642815 -164.87241 -64.057465 -160.97169 -17.180382 171.68086
15720000000 -28.303112 -146.17497 -60.116905 172.925 -66.418083 -173.18486 -16.633345 165.36281
15730000000 -28.30084 -148.69977 -59.34848 140.80637 -68.659355 132.5448 -16.119612 159.66156
15740000000 -27.697971 -141.46974 -62.279621 102.83343 -81.842644 119.20186 -15.791502 154.89754
15750000000 -26.966494 -142.84406 -69.291924 95.639725 -66.026176 -137.95503 -15.550981 150.37798
15760000000 -25.863297 -141.27652 -68.804588 142.73624 -62.852051 -176.4474 -15.268042 144.98441
15770000000 -25.136196 -146.12572 -60.63242 120.5494 -58.665134 154.47282 -14.827375 139.08072
15780000000 -24.566782 -148.99007 -58.461899 74.383194 -57.68195 107.66626 -14.237988 134.21378
15790000000 -24.642996 -152.81583 -60.437767 33.985806 -59.50745 75.339142 -13.639557 131.01985
15800000000 -24.207113 -152.3849 -66.335907 18.106348 -58.10701 72.403091 -13.175333 129.05635
15810000000 -23.988613 -152.51656 -65.651535 7.8796153 -58.220684 34.358086 -12.937699 127.41715
15820000000 -23.18734 -152.679 -65.635963 33.233513 -57.83659 27.930656 -12.837888 125.0868
15830000000 -23.234375 -155.65271 -61.75478 16.376814 -56.855362 4.0167918 -12.762517 121.7979
15840000000 -23.112804 -151.86485 -59.0849 -17.580616 -55.179825 -21.354717 -12.64564 118.14526
15850000000 -22.824871 -152.8168 -59.839859 -52.251194 -53.483932 -53.002506 -12.441799 114.53371
15860000000 -22.264242 -149.70192 -59.168407 -75.64817 -53.947186 -91.523476 -12.205179 111.14665
15870000000 -21.757565 -153.65807 -58.727234 -81.172562 -54.884655 -114.37167 -11.983738 107.83101
15880000000 -21.707346 -154.65512 -55.930958 -111.16651 -55.036488 -134.66702 -11.778138 104.69521
15890000000 -21.783651 -156.5117 -56.079418 -144.8307 -54.330093 -162.66032 -11.517943 101.97946
15900000000 -21.646612 -155.90237 -56.781982 -177.13747 -55.698071 166.31934 -11.224872 99.439148
15910000000 -21.34198 -156.00365 -58.635822 153.52621 -55.881691 150.83679 -10.988617 97.378662
15920000000 -20.816156 -156.5462 -60.067337 135.85269 -56.321384 120.43375 -10.827111 95.622307
15930000000 -20.708849 -158.98619 -60.125122 127.0368 -56.722111 97.516228 -10.750822 93.860641
15940000000 -20.696365 -156.61143 -62.146515 107.5209 -59.341564 68.636848 -10.71366 91.972221
15950000000 -20.314104 -155.78291 -62.685455 85.327911 -59.510456 56.963783 -10.693765 89.737396
15960000000 -19.889688 -153.49573 -65.868416 86.052773 -59.598049 26.969387 -10.658871 87.167213
15970000000 -19.126091 -154.21384 -61.76046 93.013199 -60.276863 12.178073 -10.617983 84.213715
15980000000 -19.077024 -156.85454 -58.776493 79.325645 -62.151596 -19.270714 -10.554907 81.055168
15990000000 -19.053215 -157.07974 -55.373276 46.249477 -62.929443 -25.489449 -10.44201 78.151054
16000000000 -19.313168 -156.4962 -54.084316 23.406828 -63.920269 -55.508629 -10.267626 75.649979
16010000000 -18.740778 -154.09752 -52.292995 -4.6091571 -71.746254 -76.379913 -10.069711 73.581116
16020000000 -18.49568 -155.62843 -51.401249 -40.206268 -66.341286 -19.439636 -9.9803495 71.906944
16030000000 -18.086189 -156.0482 -51.355579 -76.966042 -66.930931 -60.814838 -9.9797869 70.380287
16040000000 -18.04838 -156.68791 -52.335941 -105.20073 -66.61393 -47.126099 -10.056935 68.5467
16050000000 -17.487627 -155.52386 -52.36985 -134.95026 -61.572552 -48.270077 -10.116778 66.093903
16060000000 -17.023561 -156.20773 -53.965591 -160.32152 -57.566231 -86.45047 -10.169435 62.996189
16070000000 -16.536238 -157.61862 -54.57782 178.56566 -57.242577 -111.25601 -10.191897 60.168045
16080000000 -16.561966 -158.7682 -55.215317 150.43617 -55.718945 -145.67654 -10.215934 57.653984
16090000000 -16.20817 -157.25441 -57.291382 137.75214 -55.568573 -162.90221 -10.273811 55.136086
16100000000 -15.942838 -157.99979 -57.286243 111.70724 -55.368752 174.81383 -10.335741 52.145569
16110000000 -15.671368 -158.79276 -57.550083 99.691551 -54.368996 150.07799 -10.367596 48.797718
16120000000 -15.555944 -159.17203 -57.090977 83.197701 -52.696835 130.6339 -10.345561 45.744057
16130000000 -15.293588 -159.03644 -56.771309 57.454338 -52.027557 98.024017 -10.282706 43.661442
16140000000 -14.973487 -158.19904 -57.319336 39.484974 -51.526627 72.496521 -10.277493 42.129078
16150000000 -14.333574 -160.27939 -56.986355 10.874767 -51.478828 40.451458 -10.46005 40.633614
16160000000 -14.075506 -161.97516 -59.004608 -12.247766 -51.323528 19.361765 -10.779766 38.60619
16170000000 -13.686809 -164.13429 -60.18932 -21.565708 -51.148808 -7.6247573 -11.168234 35.443596
16180000000 -13.59129 -165.06296 -60.161602 -32.928001 -51.051369 -32.203205 -11.494123 31.482037
16190000000 -13.369225 -166.29652 -58.756226 -44.303955 -51.354797 -61.045952 -11.700943 27.205141
16200000000 -13.378785 -165.62349 -57.202175 -59.145103 -51.46566 -81.798103 -11.882771 23.45092
16210000000 -13.000738 -165.10201 -55.311455 -83.714355 -51.177254 -105.78043 -12.134892 20.037327
16220000000 -12.686747 -164.33405 -53.909294 -106.5017 -50.549896 -128.76776 -12.47084 16.712448
16230000000 -12.162227 -166.70042 -53.438614 -144.25475 -50.187637 -162.31592 -12.835565 13.393837
16240000000 -12.042911 -167.57419 -54.531132 -171.19569 -51.326248 165.44334 -13.159169 10.269102
16250000000 -11.737423 -170.52307 -55.326553 158.60158 -52.492092 143.46643 -13.468366 7.5058155
16260000000 -11.691663 -171.75124 -58.352085 149.99191 -53.419521 123.29217 -13.99642 5.5447631
16270000000 -11.447001 -173.96446 -55.481216 134.83328 -52.968098 104.90106 -14.755357 3.634733
16280000000 -11.457536 -174.91609 -55.149448 106.96581 -52.590366 74.347549 -15.77435 0.91499192
16290000000 -11.19228 -175.22952 -55.577011 87.829628 -53.621883 45.742104 -16.864754 -4.0298481
16300000000 -10.983482 -175.32352 -55.806927 60.272739 -55.072842 15.924247 -17.989202 -10.630249
16310000000 -10.536989 -176.04442 -56.02375 40.576954 -58.546341 -3.5800507 -18.995388 -16.539783
16320000000 -10.314715 -176.97949 -55.993557 22.543112 -58.230701 -4.8872414 -19.976946 -22.182079
16330000000 -9.9730177 -178.49754 -55.873459 -4.4072475 -57.317631 -29.873442 -21.289387 -27.300842
16340000000 -9.9079666 -179.96423 -56.116806 -25.7094 -56.868366 -58.116428 -23.052317 -33.875378
16350000000 -9.6886759 178.58354 -58.048447 -61.699013 -59.968006 -98.492661 -25.210922 -40.142231
16360000000 -9.6897535 176.93327 -59.564312 -55.590424 -63.673306 -94.786034 -27.779215 -48.366955
16370000000 -9.6028576 175.55081 -57.767513 -87.899055 -63.505688 -130.58751 -32.478699 -59.598251
16380000000 -9.596962 174.6825 -58.484684 -91.839493 -63.848198 -87.934914 -40.947014 -116.53572
16390000000 -9.3906651 174.21121 -56.79129 -118.22916 -61.800354 -130.35661 -32.943077 165.58014
16400000000 -9.137599 173.8325 -55.406368 -143.18214 -59.672153 -153.91747 -27.492992 157.54704
16410000000 -8.7726402 172.31146 -57.232582 178.11813 -62.87048 173.23151 -24.470669 155.06276
16420000000 -8.5450554 170.85652 -59.091743 160.99991 -65.132568 161.98201 -22.888418 151.23172
16430000000 -8.3379097 168.98372 -60.41053 139.34789 -67.602486 167.65494 -21.596176 146.71698
16440000000 -8.2808037 168.05457 -60.873825 147.35062 -61.665157 169.55763 -20.398914 140.56
16450000000 -8.175868 166.89316 -59.255058 124.1515 -61.187099 131.06505 -19.190639 135.60921
16460000000 -8.1021156 166.26314 -58.998219 89.832436 -63.787777 102.87455 -18.199703 131.4514
16470000000 -8.055171 165.29605 -59.932709 89.002853 -61.909931 111.64365 -17.457268 128.23245
16480000000 -7.9651446 164.81473 -59.060528 66.573776 -61.078217 85.767181 -16.766619 124.4371
16490000000 -7.8404493 164.00021 -57.593781 47.824047 -59.3652 63.202637 -16.017128 119.64888
16500000000 -7.621767 163.75986 -59.110607 28.479593 -59.654751 53.261086 -15.242443 115.62591
16510000000 -7.3169389 161.85477 -58.386192 4.7429075 -57.498932 28.81024 -14.462588 113.55225
16520000000 -7.1126156 160.3262 -59.607208 0.1313346 -57.573959 11.739174 -13.825559 112.45398
16530000000 -6.9596324 157.93253 -57.072521 -24.599468 -56.861629 -17.829247 -13.455402 111.2739
16540000000 -6.9723988 156.97305 -57.59251 -36.607475 -57.337055 -35.119926 -13.296988 109.12094
16550000000 -6.915813 156.1147 -56.106625 -55.284531 -56.479794 -48.233917 -13.143948 105.82848
16560000000 -6.8683643 156.43852 -54.252441 -78.047142 -54.193001 -73.531784 -12.897026 102.10543
16570000000 -6.6808681 156.01721 -53.987366 -104.795 -53.828087 -101.05182 -12.516713 98.964539
16580000000 -6.4768362 156.02197 -52.443558 -130.06136 -53.260399 -122.17693 -12.156318 96.452042
16590000000 -6.2151494 154.59058 -53.063156 -160.23343 -53.582916 -144.74696 -11.899009 94.108551
16600000000 -6.0283647 153.06363 -53.005749 -176.97748 -52.648243 -165.81183 -11.718266 91.873543
16610000000 -5.8968549 150.90863 -51.763222 155.60144 -52.400604 166.66573 -11.442745 89.282417
16620000000 -5.8684559 149.35155 -52.135651 131.98669 -52.007141 149.66116 -11.137956 86.68924
16630000000 -5.7983975 148.03636 -51.949039 106.94936 -51.219685 124.94805 -10.794634 84.895035
16640000000 -5.7426319 147.62633 -52.13559 83.161461 -50.473896 97.158005 -10.598047 83.675819
16650000000 -5.5367966 147.25018 -52.261597 63.591629 -51.154331 75.509979 -10.514261 82.84848
16660000000 -5.3112164 146.77641 -52.001942 37.124969 -50.214333 50.348408 -10.512973 81.258919
16670000000 -5.0290036 145.77899 -52.315968 16.270393 -50.285564 28.761667 -10.529702 78.525986
16680000000 -4.8279333 144.32808 -52.739605 -9.4981823 -49.703922 1.0778332 -10.484056 74.953987
16690000000 -4.6862369 142.81673 -52.45517 -29.118883 -49.892578 -24.80197 -10.356537 71.672279
16700000000 -4.620369 141.41756 -52.796726 -45.928936 -50.02692 -45.509285 -10.163336 68.954659
16710000000 -4.5386419 140.3253 -51.43335 -72.890129 -49.448986 -69.283577 -9.9885559 66.926987
16720000000 -4.4531074 139.35817 -51.957207 -94.479233 -49.716305 -94.64196 -9.8326597 65.172852
16730000000 -4.2765341 138.38284 -51.556942 -123.56905 -49.28331 -119.29331 -9.7183914 63.489552
16740000000 -4.1036196 137.08118 -52.606926 -143.83182 -49.431911 -144.72095 -9.6262903 61.724808
16750000000 -3.9260216 135.67383 -52.472282 -165.2963 -49.276386 -168.99188 -9.5901251 59.973228
16760000000 -3.7639883 134.25679 -52.719452 178.74016 -49.451778 169.37656 -9.555089 58.23267
16770000000 -3.6161506 132.88351 -51.789879 148.62636 -49.123203 139.33412 -9.5821695 56.117687
16780000000 -3.4750683 131.69566 -53.13834 124.1488 -50.133076 116.66776 -9.6286802 54.011219
16790000000 -3.3353443 130.42456 -53.573528 101.60119 -50.291286 92.610352 -9.6558666 51.262051
16800000000 -3.2045753 129.12595 -54.74736 88.381317 -50.773155 68.65329 -9.6609735 48.189178
16810000000 -3.0911047 127.6643 -52.758446 76.611412 -50.738567 50.483021 -9.6495686 44.923889
16820000000 -2.9996624 126.20975 -52.368927 50.129768 -50.529778 22.475235 -9.6023512 41.918251
16830000000 -2.897336 124.71942 -52.120926 24.92499 -51.160061 -2.3540227 -9.4887629 39.151947
16840000000 -2.7887948 123.41728 -52.137051 -4.441607 -50.837982 -29.371845 -9.3598413 36.755898
16850000000 -2.6353376 121.92572 -53.730434 -22.296772 -52.847164 -54.892353 -9.2466602 34.808765
16860000000 -2.489296 120.36649 -52.468903 -37.326462 -53.595768 -72.323204 -9.2033052 33.29895
16870000000 -2.3474493 118.69357 -51.797684 -59.130779 -53.720619 -89.604675 -9.2521601 31.877214
16880000000 -2.2374816 117.141 -50.987175 -84.017525 -53.140808 -107.016 -9.4074268 30.077936
16890000000 -2.1402993 115.66081 -50.15918 -109.47741 -52.483097 -132.59305 -9.5626516 27.263718
16900000000 -2.0589907 114.44299 -50.344826 -140.53925 -53.616058 -164.41145 -9.7005215 23.932871
16910000000 -1.9634143 113.10384 -50.632584 -165.41916 -54.940563 -179.63481 -9.7430153 19.985497
16920000000 -1.8799984 111.85526 -50.837402 169.77298 -55.001499 160.0287 -9.7176628 16.270695
16930000000 -1.7688454 110.36927 -51.249428 147.99597 -54.629967 139.92369 -9.6600199 12.668044
16940000000 -1.6822363 108.7364 -50.755013 121.19186 -54.839745 118.47854 -9.6417437 9.3740101
16950000000 -1.5876423 106.96554 -51.491093 90.367104 -55.972614 93.195602 -9.6673174 6.4091215
16960000000 -1.5218465 105.24699 -52.075027 71.036201 -55.75378 82.373726 -9.7110653 3.7038438
16970000000 -1.4338872 103.60442 -52.134022 46.129478 -55.03619 57.978531 -9.7505922 0.9765783
16980000000 -1.3581456 102.01064 -52.359638 19.53903 -55.306179 31.488708 -9.8420124 -1.9275326
16990000000 -1.2629254 100.48972 -53.272625 -6.6801696 -55.770863 8.3194513 -9.993083 -5.3108754
17000000000 -1.1824872 99.015831 -53.798752 -27.813192 -55.989338 -8.5691042 -10.206419 -9.0712299
