!Keysight Technologies,P9374A,MY57211807,A.19.30.04
!Date: Friday, May 08, 2026 15:11:16
!Correction: S11(C  2-Port  ) 
!S21(C  2-Port  ) 
!S12(C  2-Port  ) 
!S22(C  2-Port  ) 
!S2P File: Measurements: S11, S21, S12, S22:
# Hz S  dB   R 50
13000000000 -18.573675 56.425735 -40.160896 110.98928 -40.105732 109.54807 -12.861649 -83.283958
13010000000 -19.094805 56.877586 -39.982487 87.518257 -39.875546 85.438835 -13.295987 -86.767456
13020000000 -19.509138 58.231483 -39.886978 64.692551 -39.808189 63.213913 -13.780739 -90.269547
13030000000 -19.743105 62.037735 -39.739719 43.441738 -39.733082 41.207687 -14.313904 -93.820496
13040000000 -19.925119 63.003475 -39.836224 20.136517 -39.834492 18.285755 -14.894367 -97.344643
13050000000 -19.784819 65.452087 -40.106964 -1.6300462 -40.116203 -3.5575504 -15.486583 -101.43399
13060000000 -19.640453 64.274864 -39.99675 -21.553635 -40.129501 -23.776884 -16.084364 -106.75269
13070000000 -19.570465 63.969742 -39.707466 -42.582321 -39.747974 -43.865776 -16.640079 -113.10273
13080000000 -19.564697 61.7542 -39.437481 -67.680855 -39.524654 -69.622543 -17.109764 -119.15007
13090000000 -19.377972 60.424992 -39.823208 -92.537605 -39.902046 -93.807892 -17.563868 -124.87939
13100000000 -19.609005 58.418213 -40.360729 -111.92165 -40.487186 -113.36192 -18.157087 -130.22836
13110000000 -19.657021 59.469421 -40.054501 -131.02234 -40.147541 -131.73366 -18.823145 -136.71463
13120000000 -19.870804 59.539444 -39.780762 -153.56198 -39.826405 -154.62721 -19.465057 -144.96381
13130000000 -19.72777 61.351818 -39.504158 -177.15079 -39.585915 -178.02013 -19.83403 -154.74834
13140000000 -19.734638 63.925373 -39.584373 158.33353 -39.641975 157.22913 -20.031836 -164.78705
13150000000 -19.234615 63.286812 -40.151875 133.76736 -40.118275 132.7411 -20.181669 -173.96817
13160000000 -19.283012 63.315357 -40.837402 113.58632 -40.929066 112.5494 -20.3659 176.69572
13170000000 -18.898376 61.058018 -40.711918 97.181267 -40.682598 96.291458 -20.422333 166.04254
13180000000 -19.188578 56.906773 -40.157974 75.135765 -40.177517 74.45446 -20.024902 154.53502
13190000000 -19.252043 56.122295 -39.592541 50.866272 -39.645741 49.911613 -19.268461 143.89276
13200000000 -19.428766 53.731358 -39.735317 23.319935 -39.757957 22.297758 -18.44725 135.83669
13210000000 -19.662132 53.231297 -40.53933 0.032842513 -40.488049 -1.1768669 -17.766119 129.63683
13220000000 -19.644211 54.001797 -40.778198 -22.072189 -40.681549 -22.620342 -17.286598 123.40849
13230000000 -19.486721 54.165047 -41.301998 -44.462749 -41.31422 -45.955658 -16.786539 116.14694
13240000000 -19.361872 54.515514 -41.339096 -61.888496 -41.319527 -62.908085 -16.136745 108.3995
13250000000 -19.069777 53.595592 -41.481945 -85.694702 -41.471146 -86.505341 -15.330729 101.64836
13260000000 -19.114801 52.405857 -41.360405 -106.78008 -41.222317 -107.44969 -14.476321 96.713715
13270000000 -18.910763 50.183865 -41.821613 -130.51738 -41.854019 -131.60889 -13.756639 92.844894
13280000000 -19.080658 47.481491 -42.095905 -150.50795 -42.053337 -151.62012 -13.202684 89.138878
13290000000 -19.301205 44.525036 -41.952465 -173.41112 -42.023556 -175.14122 -12.776711 84.79126
13300000000 -19.702349 41.799259 -42.303925 165.72166 -42.397568 164.49736 -12.357841 79.766632
13310000000 -20.176422 40.885597 -42.570328 142.89249 -42.606705 141.60141 -11.852868 74.633842
13320000000 -20.234621 41.646194 -42.884899 120.95101 -42.904339 119.60936 -11.302188 70.343018
13330000000 -20.329645 41.16748 -43.257294 99.880104 -43.342049 97.972092 -10.762569 66.682594
13340000000 -20.139969 43.254597 -43.845177 80.151123 -43.889084 78.187149 -10.302393 63.164185
13350000000 -19.668018 41.441654 -43.717197 62.596985 -43.999985 61.874207 -9.9729271 59.380974
13360000000 -19.385649 38.927917 -42.963219 41.113472 -43.079105 40.636597 -9.6995792 55.004971
13370000000 -19.482311 33.341099 -43.307468 13.330956 -43.356968 12.876886 -9.3695726 50.343868
13380000000 -19.856598 30.383478 -44.096977 -7.2061357 -44.090893 -9.1099319 -8.9461823 45.843044
13390000000 -20.784166 27.528301 -44.626423 -26.449369 -44.683308 -27.756531 -8.5202942 41.695389
13400000000 -21.221678 29.302631 -44.732304 -47.169453 -44.874859 -46.914951 -8.1381159 38.24202
13410000000 -21.798147 27.81666 -44.746254 -67.502525 -44.808453 -66.854797 -7.8695083 34.842243
13420000000 -21.926926 33.106625 -44.856026 -89.533279 -44.63443 -89.040512 -7.7054806 31.099522
13430000000 -21.481577 29.670401 -45.828289 -107.87029 -45.736282 -110.17471 -7.5633235 27.013571
13440000000 -21.35531 27.766363 -45.126301 -125.21439 -45.22234 -127.39228 -7.4196539 22.616358
13450000000 -21.111242 24.701942 -45.025558 -150.23816 -45.128956 -150.49246 -7.2154803 18.185789
13460000000 -21.25456 20.281858 -44.935814 -174.80382 -44.950924 -174.75256 -6.9890819 14.199113
13470000000 -22.006058 16.173113 -46.343613 160.82809 -46.060616 159.52068 -6.7970958 10.468543
13480000000 -22.267794 17.540487 -47.287544 146.702 -47.225803 144.73415 -6.6760268 6.6578112
13490000000 -23.218779 13.86388 -46.865746 135.00354 -46.935822 132.96786 -6.6439271 2.8463066
13500000000 -23.50461 16.777544 -46.017273 109.78513 -46.083591 109.6408 -6.6621284 -0.97293568
13510000000 -24.38607 18.3442 -46.842747 86.138329 -46.523746 85.191879 -6.6462011 -4.7284193
13520000000 -24.128416 20.932903 -47.242149 68.593437 -47.372578 67.095566 -6.6269169 -8.5813751
13530000000 -24.331915 18.643991 -47.205582 52.435272 -47.31118 49.663208 -6.641788 -12.456274
13540000000 -23.741123 17.675596 -46.92783 36.206757 -47.021694 35.988014 -6.6978683 -16.335558
13550000000 -23.948183 12.810205 -46.035969 11.390499 -46.000919 11.617643 -6.8142014 -20.095032
13560000000 -23.819397 7.9884086 -46.603237 -15.247616 -46.343075 -16.279451 -6.9400511 -23.902323
13570000000 -25.314758 4.9052982 -47.762997 -32.198078 -47.56229 -34.801968 -7.0345984 -27.547583
13580000000 -25.438248 4.6017127 -47.618687 -45.612476 -47.885796 -47.271244 -7.1027069 -31.020325
13590000000 -27.781975 7.2837701 -46.760334 -59.817596 -47.048893 -59.954082 -7.1863084 -34.478615
13600000000 -27.30315 18.16654 -45.791653 -82.252693 -45.928665 -81.842285 -7.320868 -37.627712
13610000000 -27.149633 27.377977 -45.292782 -108.12455 -45.298191 -107.84534 -7.5170598 -40.600948
13620000000 -25.899326 22.310556 -45.454151 -133.3035 -45.332962 -134.54942 -7.7490196 -43.709473
13630000000 -26.24725 20.194084 -45.740887 -154.9014 -45.802929 -155.44312 -7.9703135 -46.879101
13640000000 -25.893951 10.250406 -46.199928 -175.06992 -46.344082 -173.86084 -8.1767883 -50.186207
13650000000 -27.800873 3.3634834 -45.721111 167.00896 -45.544994 166.30334 -8.3459902 -53.504379
13660000000 -28.461178 4.8433905 -45.747215 146.6841 -45.66151 145.17624 -8.5141973 -56.618923
13670000000 -30.153711 6.7142677 -45.398655 127.44547 -45.18224 124.23594 -8.6963158 -59.340446
13680000000 -30.410875 21.629244 -44.5303 107.34459 -44.761276 105.4261 -8.9009237 -61.834358
13690000000 -28.764429 29.587276 -43.746429 79.38681 -43.921753 78.818192 -9.1221647 -64.322334
13700000000 -27.568308 26.908133 -44.000336 50.935814 -43.948994 50.449253 -9.3796692 -67.063164
13710000000 -26.904264 27.159103 -45.161041 28.302797 -45.07906 26.463074 -9.6363277 -69.888351
13720000000 -26.74575 18.218586 -45.781998 10.69687 -45.755302 10.292717 -9.8721209 -72.866859
13730000000 -28.043644 19.247824 -45.52969 -4.3904095 -45.643353 -6.5564857 -10.09284 -75.590569
13740000000 -27.977926 16.669493 -44.135437 -30.127907 -44.100422 -29.423769 -10.307834 -78.126587
13750000000 -29.764204 14.53954 -44.310661 -54.936592 -44.184723 -55.656296 -10.569606 -80.47773
13760000000 -29.982738 19.749069 -44.617012 -80.168983 -44.51812 -81.834396 -10.87002 -83.118759
13770000000 -30.370058 22.566648 -45.054474 -102.27322 -45.133774 -103.47317 -11.186216 -86.112892
13780000000 -29.77091 26.442335 -45.119881 -123.8685 -45.216137 -126.19175 -11.441594 -89.607559
13790000000 -28.424471 26.000055 -45.012276 -146.0287 -45.365387 -145.6736 -11.632095 -92.963501
13800000000 -28.162378 19.860004 -45.498661 -168.15796 -45.44326 -167.26915 -11.769762 -95.544365
13810000000 -26.694883 20.896271 -45.49675 169.41425 -45.330624 169.69667 -11.919496 -97.567513
13820000000 -26.320694 4.2361159 -46.054153 150.25629 -45.899395 148.80176 -12.158967 -99.454247
13830000000 -27.257151 3.7702265 -45.938663 128.07982 -46.151836 126.97314 -12.477648 -101.79684
13840000000 -27.399618 -7.4581337 -45.908455 108.92918 -45.985619 108.92564 -12.822566 -104.99529
13850000000 -30.382975 -3.3403466 -45.743874 85.617561 -45.507996 84.936012 -13.131722 -108.50242
13860000000 -30.437517 3.6189067 -45.877293 59.138374 -45.699032 58.657162 -13.326353 -111.85196
13870000000 -30.317423 12.521075 -46.707516 40.349915 -46.504601 37.165066 -13.489638 -114.90474
13880000000 -28.852819 12.565961 -46.771313 18.404556 -46.929379 17.638966 -13.717588 -117.90822
13890000000 -27.214411 9.0935049 -46.968643 1.1909145 -47.019093 1.4270147 -14.0263 -120.88035
13900000000 -26.343084 -8.7141104 -46.510757 -23.387327 -46.322536 -23.199244 -14.297343 -124.39896
13910000000 -26.946213 -15.822122 -46.93927 -44.181648 -46.655254 -44.404274 -14.483924 -128.35461
13920000000 -27.100328 -28.249132 -46.538696 -67.914169 -46.59201 -70.328728 -14.57874 -132.26518
13930000000 -29.312273 -35.994728 -46.903389 -87.89357 -46.821255 -88.245842 -14.701482 -135.51489
13940000000 -30.642929 -31.823555 -46.331104 -111.65298 -46.495739 -111.64774 -14.900249 -138.32628
13950000000 -31.659283 -30.759289 -46.614918 -138.27312 -46.424145 -137.6219 -15.183773 -141.22517
13960000000 -32.192974 -26.399515 -47.669426 -160.82713 -47.498543 -162.03702 -15.523592 -145.03337
13970000000 -30.693604 -23.736164 -47.951733 -178.3788 -47.829628 179.20415 -15.795537 -150.12656
13980000000 -29.846493 -34.396038 -47.772152 165.39203 -47.878002 163.4207 -15.964832 -155.86845
13990000000 -28.6745 -44.58836 -46.901737 142.10324 -46.637184 141.06245 -15.995016 -161.61356
14000000000 -28.699869 -57.648743 -46.47245 112.29318 -46.253197 110.76524 -15.942294 -166.80653
14010000000 -28.029736 -64.388802 -47.611454 81.145744 -47.527832 79.270515 -15.859244 -171.4427
14020000000 -28.044197 -70.699272 -48.422161 62.052036 -48.491474 59.840401 -15.787895 -175.96957
14030000000 -27.981571 -80.429962 -49.702827 41.71661 -49.997051 40.577366 -15.739695 179.53084
14040000000 -29.533985 -88.458061 -49.371681 25.087318 -49.239647 26.004969 -15.685115 175.04716
14050000000 -30.707455 -85.267097 -49.169937 4.2637405 -49.311817 4.2428374 -15.598181 170.41899
14060000000 -32.217297 -86.076202 -48.544491 -23.522869 -48.161133 -25.814014 -15.476475 165.65901
14070000000 -32.480274 -73.902374 -49.564281 -53.036991 -49.425629 -55.278717 -15.348127 160.94383
14080000000 -31.730885 -80.219398 -49.395184 -72.745277 -49.591431 -75.732742 -15.185939 156.382
14090000000 -30.658794 -79.748001 -50.474144 -101.91354 -50.731087 -102.27329 -15.109089 151.7771
14100000000 -28.275007 -97.766083 -51.283432 -126.56809 -51.147118 -126.03505 -14.973677 147.11888
14110000000 -27.826252 -110.39667 -52.75251 -156.56686 -52.487576 -154.83015 -14.798632 141.94337
14120000000 -26.968412 -127.40829 -55.200871 -166.9373 -54.984871 -171.28128 -14.545236 136.66158
14130000000 -27.854126 -140.16705 -55.144238 178.61092 -55.609104 177.91678 -14.190969 131.68535
14140000000 -28.842056 -148.50301 -53.863644 159.51793 -54.15852 158.51028 -13.844234 127.25651
14150000000 -31.372248 -143.90051 -54.49184 123.13073 -54.570953 126.68593 -13.574886 123.3898
14160000000 -30.431561 -134.70459 -55.304615 95.193192 -54.595837 95.512672 -13.350477 119.43498
14170000000 -31.004072 -130.42786 -56.113087 64.204262 -56.134876 59.929008 -13.145901 114.99268
14180000000 -29.270597 -128.13243 -66.31736 17.571753 -65.768364 16.514915 -12.85257 110.16473
14190000000 -27.72724 -135.81287 -62.816696 54.661469 -62.751827 61.29467 -12.472959 105.36208
14200000000 -26.626118 -146.77548 -63.365761 17.410578 -63.974892 21.314756 -12.079257 100.98444
14210000000 -26.77537 -160.05389 -65.943199 -38.749752 -66.068161 -30.049681 -11.745527 97.217133
14220000000 -27.291328 -164.95334 -83.602539 141.53662 -81.105484 128.41707 -11.466424 93.728401
14230000000 -27.519526 -171.21199 -66.954742 61.643059 -67.050949 54.434513 -11.213532 90.04451
14240000000 -27.991787 -170.66246 -63.557861 -10.026384 -63.397041 -11.531429 -10.937027 85.945175
14250000000 -27.932516 -173.06624 -71.984665 -66.431732 -73.060394 -82.727364 -10.663957 81.62278
14260000000 -29.236507 -172.04164 -68.280441 123.4388 -69.317001 146.40474 -10.38905 77.550781
14270000000 -28.711582 -161.33041 -60.588459 50.077141 -62.016678 53.053883 -10.154088 73.61676
14280000000 -28.126715 -163.88266 -59.32943 3.3661096 -59.6479 3.9651937 -9.9588575 69.747536
14290000000 -27.01952 -165.59962 -56.965744 -36.713741 -57.668674 -39.56974 -9.759306 65.56366
14300000000 -27.169201 -173.59222 -60.304665 -84.244682 -61.052696 -91.152771 -9.5490017 61.030281
14310000000 -26.709721 -175.9521 -65.546951 -62.039021 -67.252075 -53.800865 -9.3067226 56.447201
14320000000 -26.563244 172.50134 -58.102955 -72.887268 -58.182407 -69.358315 -9.0457153 52.015526
14330000000 -26.945004 167.92603 -56.124546 -112.319 -56.695492 -116.71556 -8.8186474 47.837292
14340000000 -28.571785 159.17529 -57.707745 -145.14763 -58.554844 -143.5023 -8.65557 44.058254
14350000000 -29.800388 174.50691 -58.161655 -139.42929 -58.927849 -133.58257 -8.521244 40.257225
14360000000 -29.709372 -178.48807 -55.214626 -162.94019 -54.912392 -160.61685 -8.4348145 36.105103
14370000000 -27.757627 -169.35081 -52.116268 167.63516 -52.294128 165.82231 -8.3758011 31.445475
14380000000 -26.978991 179.68019 -52.317287 121.82677 -52.907181 123.89958 -8.3235588 26.464479
14390000000 -26.616928 178.48398 -55.895435 98.071236 -55.622875 98.485428 -8.2775307 21.521856
14400000000 -26.54192 169.47356 -57.7346 93.0075 -57.298809 102.73804 -8.2114878 16.877201
14410000000 -27.314072 161.79329 -54.070122 96.765755 -53.474602 94.521271 -8.1331491 12.475145
14420000000 -28.781172 158.34142 -51.15379 61.113365 -50.961998 60.230923 -8.0952663 8.1049442
14430000000 -29.800869 163.87308 -50.673161 22.614594 -50.451267 20.47394 -8.1112499 3.5890408
14440000000 -30.007498 177.35822 -52.524734 -6.1683135 -52.677704 -8.3273268 -8.2109528 -1.0574741
14450000000 -27.576731 -178.272 -53.476021 -13.714422 -53.695156 -11.7018 -8.33605 -5.6463618
14460000000 -27.016216 176.73805 -51.72036 -23.90675 -51.354755 -25.693314 -8.4769869 -10.356968
14470000000 -26.714731 175.14746 -48.880978 -54.673328 -48.617554 -58.183563 -8.6356249 -14.93538
14480000000 -26.464851 176.7007 -49.454151 -95.510788 -49.717854 -97.606094 -8.8207626 -19.685421
14490000000 -26.563097 170.77409 -51.897198 -121.93555 -52.075806 -120.44767 -9.0668173 -24.856049
14500000000 -26.885199 174.38695 -53.748665 -117.96582 -53.084888 -121.46062 -9.3532324 -30.393534
14510000000 -27.293648 168.39093 -49.728035 -131.11961 -49.484444 -135.29855 -9.6001635 -35.959255
14520000000 -28.193735 -178.75958 -47.670773 -166.33838 -47.60405 -171.29897 -9.8040161 -41.36084
14530000000 -26.99169 176.37379 -46.945927 155.59445 -47.010342 152.39853 -9.9859734 -45.961384
14540000000 -27.083569 -176.96512 -48.879509 122.1157 -48.914623 118.47902 -10.22428 -50.306824
14550000000 -25.885754 179.0699 -50.674896 104.21745 -50.710255 102.58722 -10.62431 -54.737053
14560000000 -25.556076 -176.69377 -51.221272 94.379585 -51.248913 90.108315 -11.130348 -59.616493
14570000000 -24.028067 176.40361 -49.286816 75.296181 -49.530785 70.167038 -11.645273 -65.191872
14580000000 -23.846231 172.85782 -48.666977 45.162628 -49.116653 41.960426 -12.119011 -71.349144
14590000000 -24.372395 164.24452 -48.923214 17.436934 -49.387211 15.9564 -12.518324 -77.564201
14600000000 -25.262449 172.7715 -49.452011 -3.6191068 -49.439838 -1.7714418 -12.938613 -83.597794
14610000000 -24.850393 171.42537 -49.563087 -29.576298 -49.709118 -32.194813 -13.427021 -89.557831
14620000000 -24.946461 179.84254 -49.738907 -52.594543 -50.199062 -53.687489 -13.91693 -95.938004
14630000000 -23.740898 178.94711 -49.785358 -75.412498 -50.716991 -77.007713 -14.370294 -103.02223
14640000000 -23.007244 179.07959 -50.358273 -97.67318 -50.506138 -95.797554 -14.759636 -109.98343
14650000000 -22.060652 173.28862 -50.92625 -123.61316 -50.941044 -120.35769 -15.08014 -116.52302
14660000000 -21.539745 166.15027 -51.690105 -141.81195 -51.194462 -142.10811 -15.474738 -123.2402
14670000000 -22.404604 159.19324 -50.795666 -164.10439 -51.19331 -166.78969 -16.071661 -130.12759
14680000000 -22.694218 160.57483 -51.892006 172.77524 -52.29208 173.23013 -16.657745 -137.54153
14690000000 -23.190304 163.42117 -52.248886 157.13425 -52.09021 163.38742 -17.083061 -146.8195
14700000000 -22.270493 168.15816 -50.826145 140.11229 -50.345131 138.32358 -17.339878 -157.11066
14710000000 -21.892338 165.86455 -51.346867 106.46609 -51.275616 107.77402 -17.363012 -166.7748
14720000000 -21.373873 165.71199 -51.356636 82.450485 -51.112419 82.829262 -17.185621 -176.11223
14730000000 -20.860518 162.75174 -52.94104 52.211365 -53.213043 54.345383 -17.036924 175.515
14740000000 -20.452005 156.42357 -56.136726 48.898312 -54.934658 53.035713 -16.902617 168.16275
14750000000 -20.952393 150.73257 -53.577633 47.218647 -51.81171 44.331577 -16.794756 161.36063
14760000000 -21.020721 149.88797 -50.538719 17.932041 -49.225838 11.861223 -16.728745 154.84383
14770000000 -21.612555 148.54605 -49.123058 -20.374641 -48.888866 -29.339741 -16.622873 147.58969
14780000000 -20.896391 150.56198 -51.099442 -68.443565 -51.251156 -73.891258 -16.417734 139.82037
14790000000 -20.929987 146.631 -56.356812 -85.96833 -55.569317 -82.051231 -16.050421 131.69437
14800000000 -20.640625 148.35565 -55.418068 -53.905895 -54.255112 -70.481384 -15.750575 124.68044
14810000000 -20.506313 147.35211 -50.314518 -98.470535 -50.342144 -109.8547 -15.468948 119.40776
14820000000 -19.854696 146.71994 -50.274025 -141.63911 -50.631958 -150.70677 -15.152901 115.2619
14830000000 -19.932085 141.11696 -52.459881 179.56001 -53.065773 171.38014 -14.784338 110.52993
14840000000 -20.078365 138.81087 -57.231987 154.63704 -57.159107 154.51434 -14.454805 104.89861
14850000000 -20.572495 135.81311 -55.784927 168.63512 -56.152149 154.06441 -14.251138 99.548935
14860000000 -20.581259 135.27347 -51.420387 138.35495 -52.448681 126.60114 -14.089993 95.343468
14870000000 -21.145815 131.13437 -51.098175 83.906235 -52.424622 71.694054 -13.994487 92.09478
14880000000 -21.387465 131.32571 -53.960735 32.642448 -55.925869 21.196222 -13.920636 88.730576
14890000000 -21.381441 132.54567 -62.399624 -16.311106 -67.398865 -41.042847 -13.796109 84.103127
14900000000 -20.686373 131.86847 -62.000256 62.47488 -62.642086 71.913536 -13.64691 78.08622
14910000000 -20.217138 129.46715 -56.675659 21.378855 -58.416401 21.679827 -13.509076 72.693901
14920000000 -20.04228 122.57607 -55.633064 -29.45318 -58.885582 -32.852665 -13.29985 69.107895
14930000000 -20.692736 120.90752 -55.300617 -90.925873 -59.298279 -98.614326 -13.142873 66.677948
14940000000 -20.835011 119.34047 -59.718704 -146.01447 -68.440369 -146.28056 -13.080565 64.76738
14950000000 -21.461964 119.90224 -64.805359 136.19019 -69.051399 105.08468 -13.086708 61.919395
14960000000 -21.926239 118.63899 -70.031853 -76.771568 -67.743134 -55.256073 -13.193878 57.523743
14970000000 -22.434486 125.24316 -63.345093 167.98279 -71.59565 178.8304 -13.468386 53.485085
14980000000 -21.942537 122.8847 -62.407368 85.978783 -71.61013 49.295795 -13.563281 50.897408
14990000000 -21.667658 122.79259 -61.695797 0.0031839758 -63.415901 -43.319405 -13.657364 48.344513
15000000000 -21.663523 113.91626 -68.293694 -75.7192 -64.237122 -147.53186 -13.802804 45.762844
15010000000 -22.676979 112.74023 -74.915947 152.75287 -65.817642 155.53175 -14.09462 41.860157
15020000000 -23.070044 109.87349 -61.141251 60.936672 -59.971291 75.399467 -14.407851 37.856556
15030000000 -23.585035 114.52106 -56.450085 -21.387743 -58.56535 -15.339606 -14.600025 34.232918
15040000000 -23.451073 112.42687 -55.496037 -73.784187 -59.088581 -72.729759 -14.65595 32.895763
15050000000 -23.789932 117.70924 -57.338684 -146.11623 -64.136032 -155.93234 -14.599545 32.154442
15060000000 -23.483086 117.70415 -70.791191 -134.02876 -64.380638 -55.120419 -14.921458 31.550663
15070000000 -23.379194 119.61997 -61.770958 -103.17965 -59.295563 -101.36365 -15.585756 30.88752
15080000000 -23.455235 116.43287 -58.165581 -149.13884 -58.456947 -143.55539 -16.391649 31.256613
15090000000 -23.968035 115.97974 -57.615768 179.78848 -58.990475 -165.12448 -16.87365 30.315641
15100000000 -24.744242 117.49033 -57.71386 153.91058 -56.767307 -176.38628 -17.323925 28.381159
15110000000 -24.766396 121.94445 -57.554501 145.19658 -54.525948 155.69791 -17.702816 27.671848
15120000000 -24.88315 121.15418 -54.261772 118.66969 -52.517006 119.82525 -18.175222 28.23324
15130000000 -24.730755 120.71307 -51.766735 87.659439 -51.524239 85.591354 -18.675814 31.209942
15140000000 -25.26358 123.2049 -52.820297 47.585705 -52.576778 50.081886 -18.809776 34.280167
15150000000 -24.381464 127.11695 -54.349125 30.472267 -53.505272 35.464195 -18.724752 35.722153
15160000000 -24.123812 124.97677 -54.222912 17.828327 -52.399227 17.759623 -18.675383 36.998711
15170000000 -23.790886 124.13478 -52.083378 -7.3578887 -51.363556 -13.848161 -18.783819 40.506699
15180000000 -24.002752 123.90149 -53.298695 -25.636921 -52.780727 -28.071634 -18.653509 46.869362
15190000000 -23.546621 125.26192 -51.750057 -49.653561 -51.79084 -53.368633 -18.189772 51.955463
15200000000 -23.883163 124.25419 -50.898602 -70.614021 -50.473866 -68.712852 -17.879129 53.463737
15210000000 -23.792789 123.68857 -49.522713 -98.052376 -48.799171 -98.47155 -17.856302 53.877769
15220000000 -24.50868 128.4472 -49.405003 -126.34454 -48.511131 -131.38301 -17.874811 54.334545
15230000000 -23.369928 131.29004 -50.090546 -158.98677 -49.465187 -166.5507 -17.546085 55.883369
15240000000 -23.148592 128.46362 -51.47805 -176.60802 -51.681942 179.70093 -16.95064 55.633835
15250000000 -22.629004 125.26752 -52.132912 165.66536 -52.677166 167.10611 -16.387554 53.748508
15260000000 -23.028589 120.47249 -50.902451 151.45433 -50.254776 154.33408 -15.987463 51.931316
15270000000 -23.058729 121.62646 -48.927872 135.99702 -48.1707 129.72665 -15.527358 50.86594
15280000000 -22.799433 118.13591 -47.45134 105.49462 -47.676979 96.014481 -15.007616 50.178242
15290000000 -23.148535 117.28683 -47.00993 69.205734 -47.725624 63.895847 -14.597747 49.913338
15300000000 -23.163837 117.63352 -48.748402 39.745197 -49.353554 39.404682 -14.219786 49.755898
15310000000 -23.123903 119.52697 -49.40337 23.275673 -49.219666 23.143875 -13.982666 48.124714
15320000000 -22.435146 117.74374 -50.273521 5.0088205 -50.11554 -0.43851826 -13.956975 45.680611
15330000000 -22.465162 115.27797 -48.755062 -6.9347076 -48.958431 -13.557816 -13.944099 43.070282
15340000000 -22.719128 109.74751 -47.754307 -36.143215 -48.688595 -42.942986 -13.789566 40.429802
15350000000 -23.283745 113.85544 -47.744614 -64.723595 -49.262856 -61.687504 -13.533331 37.632988
15360000000 -22.754807 109.57906 -48.182125 -89.247864 -48.441139 -82.797646 -13.339722 34.730751
15370000000 -23.37076 109.17217 -48.521755 -107.48392 -48.128895 -107.58523 -13.23388 31.540295
15380000000 -22.904482 102.92399 -47.708927 -129.41165 -48.266041 -136.05492 -13.155544 28.232021
15390000000 -24.22632 102.18159 -47.532787 -157.17447 -49.093647 -158.50238 -12.992173 24.743771
15400000000 -23.862759 102.0982 -48.560589 172.9106 -49.908073 -177.38382 -12.81036 21.621397
15410000000 -24.211338 99.824219 -49.892452 158.46899 -49.22641 167.26247 -12.682223 19.645912
15420000000 -24.681803 97.124527 -49.990692 144.56781 -49.049919 142.52031 -12.653234 17.968071
15430000000 -25.008795 100.77264 -48.630711 123.83748 -49.167366 117.10437 -12.817133 15.487593
15440000000 -24.524595 97.863861 -48.538471 96.185928 -50.108829 100.23822 -13.152819 11.661844
15450000000 -24.84626 94.321724 -49.682327 75.686493 -49.739838 90.420258 -13.442606 6.6430326
15460000000 -25.086967 87.771111 -49.190693 64.015457 -47.385967 68.030693 -13.572799 1.0692847
15470000000 -26.721197 86.072624 -47.149719 34.156132 -46.577488 28.739872 -13.592021 -4.1543336
15480000000 -27.120625 86.605408 -48.341251 -0.9566254 -48.993977 -1.8166276 -13.649952 -8.3014355
15490000000 -27.973206 87.099251 -50.799442 -19.269444 -51.231403 -8.7484989 -13.75665 -11.464981
15500000000 -28.163975 86.082634 -51.541882 -24.364998 -49.764507 -16.07033 -13.935564 -15.102602
15510000000 -28.717949 85.126205 -49.330162 -35.60252 -47.436749 -39.869293 -14.248611 -19.407228
15520000000 -29.63125 82.012512 -47.483532 -61.386074 -46.85759 -68.645004 -14.641088 -23.932409
15530000000 -29.276966 83.558273 -46.881969 -93.881805 -46.960186 -99.891441 -15.113672 -28.283247
15540000000 -31.021927 67.538116 -48.024738 -122.79501 -48.286194 -124.99641 -15.744873 -32.868755
15550000000 -33.597557 79.12809 -49.516262 -140.24525 -49.149841 -137.54344 -16.442629 -38.196114
15560000000 -35.000587 76.730499 -48.523258 -152.32617 -47.343369 -154.35887 -17.122705 -45.432167
15570000000 -35.562271 94.315926 -47.051796 -175.12341 -46.383533 175.41376 -17.754969 -54.519493
15580000000 -36.008362 74.594772 -47.033463 150.56796 -47.485134 141.91345 -18.311249 -64.296394
15590000000 -39.726486 76.581818 -48.397396 124.84077 -49.503529 127.16762 -18.702341 -72.945084
15600000000 -46.113174 48.223232 -49.140816 110.09856 -48.524124 114.56418 -18.961945 -80.848312
15610000000 -50.55706 175.80754 -47.734859 96.135544 -46.597328 91.328835 -19.220448 -88.635551
15620000000 -47.783035 -113.45795 -47.269341 67.624512 -46.895054 57.320957 -19.681702 -96.967781
15630000000 -38.562721 -150.18388 -47.30949 37.147427 -47.617435 32.139248 -20.361595 -105.96549
15640000000 -40.0112 -147.93214 -48.614784 11.243252 -49.282257 9.0825129 -21.142521 -117.0854
15650000000 -36.517662 -157.68901 -49.986046 -2.0647724 -49.555294 2.9726467 -21.630386 -130.7381
15660000000 -40.369362 -144.48074 -48.715256 -14.415627 -47.811729 -20.44504 -21.377686 -145.22621
15670000000 -34.694515 -131.66649 -47.512337 -45.495937 -47.626091 -55.862362 -20.485136 -158.07841
15680000000 -32.563042 -125.55585 -48.189819 -76.261452 -49.352673 -84.16732 -19.590828 -167.50377
15690000000 -29.61767 -136.46355 -50.320087 -99.264412 -51.833004 -96.196457 -19.013538 -174.44737
15700000000 -29.086678 -142.82353 -50.836956 -108.33604 -50.336147 -103.45763 -18.589994 179.60429
15710000000 -28.533781 -145.23599 -49.326447 -129.33377 -49.17099 -131.16585 -18.089495 173.38403
15720000000 -27.797071 -147.19699 -49.056931 -155.15286 -49.629421 -162.96378 -17.528917 166.53291
15730000000 -27.886816 -149.04437 -49.606926 179.00745 -50.880611 176.60823 -17.033302 160.50504
15740000000 -27.684444 -145.32147 -50.930405 150.44659 -52.331814 157.93636 -16.621897 155.46622
15750000000 -27.019253 -143.67108 -52.160332 145.17758 -51.532562 151.66003 -16.320187 150.17307
15760000000 -26.090191 -143.06306 -51.473492 126.09443 -50.724037 121.26027 -15.971414 144.37605
15770000000 -25.289944 -146.54041 -50.000137 106.28695 -50.392685 99.032364 -15.452952 138.35229
15780000000 -25.077774 -149.2021 -50.203888 75.893272 -51.483414 74.22464 -14.782617 133.72748
15790000000 -24.770914 -149.37538 -51.36076 49.222141 -52.483021 56.919704 -14.076572 130.74344
15800000000 -23.972166 -150.67085 -52.854225 38.231503 -52.272411 49.875141 -13.545617 128.84709
15810000000 -23.652338 -152.82758 -52.653347 18.756124 -51.736599 20.415422 -13.293083 127.11228
15820000000 -23.206099 -153.96907 -51.43948 -0.42670366 -51.926346 -1.5649134 -13.184583 125.17626
15830000000 -23.18166 -154.73546 -52.124451 -31.785187 -52.495907 -20.122208 -13.091986 122.09149
15840000000 -22.903746 -152.42258 -54.387478 -46.998768 -52.114452 -34.041698 -12.96058 118.39208
15850000000 -22.761164 -154.81766 -53.289028 -53.637836 -51.175339 -55.960312 -12.74158 114.81445
15860000000 -22.625105 -151.5432 -51.742039 -75.241005 -50.896969 -87.188972 -12.45957 111.32961
15870000000 -22.248627 -152.92023 -51.623539 -100.83318 -51.990921 -106.51607 -12.184197 107.97037
15880000000 -21.847437 -150.96179 -53.021969 -126.97506 -52.546814 -120.11571 -11.92515 104.70819
15890000000 -21.324369 -154.77872 -54.000381 -140.76785 -51.465351 -146.12489 -11.649066 102.01025
15900000000 -21.381264 -156.72227 -52.35458 -154.61978 -51.269745 -167.04384 -11.346786 99.65934
15910000000 -21.254078 -158.00847 -52.273548 174.46729 -52.237442 162.5183 -11.094605 97.749557
15920000000 -21.040564 -157.55592 -52.271339 157.94214 -52.390999 147.80949 -10.900908 96.135345
15930000000 -20.824139 -157.92569 -52.493717 134.19069 -52.916271 126.54961 -10.801464 94.501595
15940000000 -20.561562 -155.62813 -52.864979 110.32643 -53.263775 102.31952 -10.739467 92.68367
15950000000 -20.157322 -156.35449 -53.084026 96.477173 -52.927464 86.122406 -10.711473 90.444626
15960000000 -19.855659 -154.33015 -52.503983 74.581604 -53.54208 62.779549 -10.67904 87.83461
15970000000 -19.322977 -155.37744 -52.876942 48.674782 -54.245251 44.547523 -10.648889 84.910301
15980000000 -19.343676 -155.8589 -53.722775 32.235168 -55.085575 34.54137 -10.559353 81.79892
15990000000 -19.054745 -155.21629 -52.161026 9.9820318 -53.156208 5.4455471 -10.424001 78.870956
16000000000 -19.045256 -155.53983 -53.300945 -12.930946 -54.076096 -15.696555 -10.238342 76.4645
16010000000 -18.583673 -155.02438 -53.662895 -39.909321 -55.485664 -40.376801 -10.044454 74.603676
16020000000 -18.483681 -157.03239 -53.81213 -53.878822 -56.107796 -51.030113 -9.9167442 73.018852
16030000000 -18.260006 -156.25821 -53.615814 -69.825127 -54.205441 -60.093315 -9.8972845 71.363503
16040000000 -17.917032 -156.03242 -54.002598 -97.617165 -54.339283 -89.992599 -9.964922 69.538666
16050000000 -17.470297 -156.61778 -54.67374 -124.53281 -55.415398 -115.14553 -10.016102 67.177094
16060000000 -17.171438 -156.85448 -56.584652 -123.27183 -55.15543 -110.95622 -10.058231 64.345215
16070000000 -16.746767 -156.8004 -54.964943 -147.2876 -54.638687 -143.70944 -10.073092 61.553493
16080000000 -16.465546 -157.20795 -53.658958 -176.69322 -53.354404 -168.87532 -10.118203 59.037094
16090000000 -16.018665 -157.33949 -55.138111 161.13809 -54.08205 171.13976 -10.17646 56.531654
16100000000 -15.929923 -159.03201 -57.645382 145.05418 -54.491371 149.22614 -10.236125 53.693066
16110000000 -15.820851 -158.75499 -56.990261 138.0544 -54.973694 127.95834 -10.237247 50.54705
16120000000 -15.522925 -158.33757 -56.628845 118.61528 -56.675953 115.64706 -10.206016 47.393482
16130000000 -15.154091 -159.0659 -55.973335 115.87158 -55.019272 109.08273 -10.151575 45.148937
16140000000 -14.874257 -159.41808 -53.572163 88.316254 -52.76606 83.307899 -10.167469 43.640251
16150000000 -14.492991 -161.44376 -53.760555 54.176449 -52.117477 49.382751 -10.315212 42.545033
16160000000 -14.249529 -161.75084 -53.953522 37.976532 -53.037937 24.664145 -10.571564 40.728745
16170000000 -13.787036 -163.54112 -54.124374 4.8453159 -54.320213 -7.3085756 -10.935603 37.754044
16180000000 -13.598319 -164.05711 -56.157162 -3.9465563 -56.969929 -11.015231 -11.263818 33.882275
16190000000 -13.298327 -165.34128 -55.978951 -18.736855 -57.195831 -25.363958 -11.539643 29.777668
16200000000 -13.170343 -165.18845 -54.909149 -25.077532 -54.608414 -25.638647 -11.741387 26.074661
16210000000 -12.825664 -165.98392 -52.188744 -47.195602 -52.65424 -56.789314 -11.983809 22.846981
16220000000 -12.683757 -166.04359 -52.095566 -84.036987 -53.559719 -87.476921 -12.283136 19.543684
16230000000 -12.347597 -167.64615 -52.799934 -109.80956 -53.885334 -109.01521 -12.637444 16.056015
16240000000 -12.25864 -167.32037 -55.551476 -134.01758 -55.408016 -132.44749 -12.976623 13.095232
16250000000 -11.832554 -169.24521 -55.313259 -138.49911 -55.438305 -147.49934 -13.257772 10.658404
16260000000 -11.656048 -170.84161 -54.432087 -148.49686 -55.623516 -150.24121 -13.737296 8.974884
16270000000 -11.364065 -173.27821 -52.814213 -175.85266 -53.193195 -169.75591 -14.40201 7.2528191
16280000000 -11.303221 -174.70949 -54.208324 158.45241 -53.823769 164.01224 -15.390645 4.9405622
16290000000 -11.036461 -175.85365 -53.694206 149.6447 -53.57407 152.49953 -16.486284 1.0694923
16300000000 -10.979362 -176.49521 -52.056717 133.90715 -51.785522 135.02074 -17.591162 -4.5223556
16310000000 -10.650425 -176.80275 -51.091614 108.2751 -51.288448 109.59249 -18.642677 -10.909745
16320000000 -10.47586 -176.90526 -51.213676 77.663841 -50.635731 82.702698 -19.830963 -16.614874
16330000000 -10.037188 -177.75909 -52.220581 58.242519 -51.669067 62.023956 -21.177979 -20.589743
16340000000 -9.8527374 -179.21416 -52.901821 48.847668 -50.987972 46.086502 -22.682829 -24.954372
16350000000 -9.6381083 178.59462 -50.95742 34.850304 -50.50745 27.318985 -24.605141 -30.775866
16360000000 -9.673583 176.90913 -49.379528 8.970994 -49.497719 6.9595637 -27.343483 -36.535648
16370000000 -9.5732069 175.7128 -48.90477 -14.297536 -48.89043 -14.950215 -31.863155 -37.449471
16380000000 -9.5274076 174.48724 -47.869423 -40.796814 -47.233131 -40.382488 -44.318996 -43.790516
16390000000 -9.3522263 173.91408 -48.641273 -66.239876 -47.618557 -69.368408 -35.795158 146.50429
16400000000 -9.1749258 173.31982 -48.244999 -88.27198 -47.593128 -95.452919 -28.72348 147.64612
16410000000 -8.8377085 172.20013 -48.214645 -110.8618 -48.291359 -116.59719 -25.34831 148.87396
16420000000 -8.6071033 171.01437 -47.673702 -131.18454 -47.674622 -134.24194 -23.291361 147.69194
16430000000 -8.3359232 169.43059 -48.088413 -153.27504 -47.702728 -158.1678 -21.847656 143.69928
16440000000 -8.2567272 168.05945 -47.157585 -172.53444 -46.784546 -177.54021 -20.678015 138.60135
16450000000 -8.1657228 166.94437 -46.318867 161.54076 -46.368328 153.61365 -19.556919 134.51947
16460000000 -8.1213722 166.33746 -46.199581 130.5282 -46.633823 127.83331 -18.536716 131.63707
16470000000 -8.0124893 165.58897 -46.443146 108.3007 -46.751797 105.06419 -17.671482 128.04834
16480000000 -7.9370375 164.71834 -47.009541 84.597015 -47.08242 83.532349 -16.977674 123.94649
16490000000 -7.7757936 163.90497 -46.82859 63.348747 -46.667969 58.662514 -16.214472 119.29774
16500000000 -7.6132102 163.0471 -46.858036 39.420197 -47.354641 33.485413 -15.425636 115.58104
16510000000 -7.3762393 161.4268 -47.198818 18.206198 -48.242863 15.475838 -14.571737 113.73216
16520000000 -7.2349186 160.28929 -46.745461 -3.3629932 -47.757626 -1.6809473 -13.904539 112.76665
16530000000 -7.0271802 158.53726 -46.625675 -25.077183 -46.863758 -24.187111 -13.486488 112.071
16540000000 -6.9620814 157.76053 -46.745434 -51.085583 -46.839485 -50.364147 -13.300734 110.25369
16550000000 -6.807507 156.58421 -46.369625 -73.790512 -46.959915 -76.774963 -13.15245 107.39917
16560000000 -6.7710323 156.2395 -47.225246 -103.4774 -47.903275 -100.58234 -12.938949 103.69411
16570000000 -6.6170053 155.48593 -47.723866 -121.97089 -48.258804 -118.72691 -12.63034 100.52094
16580000000 -6.5103941 155.32372 -48.393211 -142.87598 -48.369762 -136.04764 -12.294789 98.007965
16590000000 -6.2729392 154.30878 -48.308453 -158.37428 -47.727364 -157.42793 -11.995896 95.621788
16600000000 -6.1323156 153.09586 -47.821602 -178.72301 -47.610741 -179.36462 -11.765886 93.248497
16610000000 -5.9568844 151.34866 -47.030621 154.40317 -47.105167 156.14722 -11.493129 90.683159
16620000000 -5.879271 150.03235 -47.5756 132.83028 -47.336906 135.60277 -11.174002 88.348846
16630000000 -5.721251 148.48921 -47.499832 109.58147 -46.780888 111.02058 -10.816014 86.887039
16640000000 -5.6592126 147.63896 -47.892452 87.670486 -47.274117 86.733673 -10.558753 85.928955
16650000000 -5.4643259 146.86781 -47.843224 65.699409 -47.663536 62.431046 -10.460795 85.102676
16660000000 -5.3101544 146.29185 -48.320141 45.381096 -47.704308 44.900379 -10.490167 83.656822
16670000000 -5.0696712 145.33908 -47.698742 22.835827 -47.21965 22.409555 -10.552938 81.146385
16680000000 -4.9098301 144.30769 -47.908836 -0.69951165 -47.223915 -3.5998316 -10.561171 77.701859
16690000000 -4.7306056 143.06708 -48.285957 -22.672459 -47.452808 -29.079599 -10.45131 74.422012
16700000000 -4.6437516 141.8661 -47.506119 -43.317402 -47.313358 -51.225849 -10.232533 71.52504
16710000000 -4.4973803 140.64442 -47.433281 -71.459724 -47.507912 -77.076797 -10.01761 69.398445
16720000000 -4.4000969 139.41838 -48.571167 -97.679016 -48.490433 -101.06226 -9.8308048 67.572456
16730000000 -4.239409 138.14017 -48.917812 -117.29705 -48.61528 -120.87244 -9.709713 66.009445
16740000000 -4.1068749 136.88113 -49.469669 -134.22728 -49.06731 -143.2394 -9.5926847 64.406387
16750000000 -3.9298491 135.56413 -48.242878 -154.29005 -48.770752 -162.2863 -9.5449648 62.891678
16760000000 -3.7880504 134.17432 -47.953369 178.28717 -48.699753 172.52461 -9.5022631 61.423756
16770000000 -3.6277182 132.87344 -48.273476 150.13449 -49.035549 145.73305 -9.5483818 59.641125
16780000000 -3.4901698 131.74918 -49.101654 124.65836 -49.864895 121.71886 -9.6100636 57.594585
16790000000 -3.3409581 130.50197 -50.487297 103.47411 -50.741596 98.463867 -9.6915817 54.856178
16800000000 -3.2126334 129.17906 -51.122791 85.856331 -51.762062 82.284767 -9.7011061 51.717361
16810000000 -3.0911262 127.79393 -50.463726 67.68531 -51.509426 65.206383 -9.6781311 48.196194
16820000000 -2.981226 126.33138 -50.26318 41.726639 -51.059208 44.771774 -9.6085806 44.969486
16830000000 -2.8723421 124.73477 -50.334316 16.856625 -51.336952 21.002153 -9.4922523 42.15519
16840000000 -2.7628942 123.28064 -50.864227 -8.1919823 -51.075287 -2.5639105 -9.3479767 39.888371
16850000000 -2.6385567 121.69317 -51.775055 -31.874489 -51.916946 -30.300714 -9.2279377 38.066616
16860000000 -2.5172272 120.23183 -52.5336 -56.409985 -52.934242 -50.478008 -9.1594343 36.773125
16870000000 -2.3810475 118.72615 -53.521507 -67.133926 -53.683491 -63.545341 -9.1838312 35.355919
16880000000 -2.256952 117.2878 -52.9552 -89.081192 -52.718639 -81.185738 -9.3325558 33.654083
16890000000 -2.1411879 115.84959 -52.609604 -110.09297 -51.972389 -108.66516 -9.5343285 31.007921
16900000000 -2.0410333 114.57063 -53.472031 -143.41939 -52.91222 -136.50023 -9.7257519 27.868477
16910000000 -1.9361086 113.14951 -54.672733 -158.93967 -53.241112 -156.06487 -9.7821302 23.815441
16920000000 -1.8575844 111.72584 -54.3326 -179.69188 -53.196617 -179.71123 -9.762475 19.794481
16930000000 -1.7712229 110.21317 -54.665695 157.29271 -53.773762 158.02866 -9.6849813 15.860951
16940000000 -1.6977221 108.65514 -54.837864 137.91594 -53.630917 136.15167 -9.6650381 12.606791
16950000000 -1.6072674 106.95949 -55.683399 111.11517 -54.667759 106.24821 -9.6496325 9.6848946
16960000000 -1.5337222 105.30758 -56.187626 94.312714 -55.269798 86.300133 -9.6812744 6.9963951
16970000000 -1.437964 103.67274 -55.685455 75.913513 -55.233841 63.777779 -9.7222662 4.1790032
16980000000 -1.3524717 102.10159 -56.341541 46.215439 -56.194469 40.759045 -9.8459406 1.2747209
16990000000 -1.2510043 100.52972 -56.481941 26.404018 -55.546032 17.640446 -10.030332 -1.8672525
17000000000 -1.1693866 99.018532 -57.569489 -3.6072824 -56.837738 -9.7388668 -10.264453 -5.4455972
