!Keysight Technologies,P9374A,MY57211807,A.19.30.04
!Date: Friday, May 08, 2026 15:08:51
!Correction: S11(C  2-Port  ) 
!S21(C  2-Port  ) 
!S12(C  2-Port  ) 
!S22(C  2-Port  ) 
!S2P File: Measurements: S11, S21, S12, S22:
# Hz S  dB   R 50
13000000000 -18.389677 56.219044 -45.345634 104.27573 -44.841839 107.83947 -12.202612 -89.546722
13010000000 -18.957586 55.6157 -44.493721 82.20591 -44.014927 83.755692 -12.637829 -93.170738
13020000000 -19.561085 57.180916 -43.871208 58.436203 -43.73093 57.792412 -13.076114 -96.711868
13030000000 -19.911222 61.108959 -43.869236 32.630882 -43.771801 33.139244 -13.547874 -100.30999
13040000000 -20.000566 63.509171 -44.882599 6.8710947 -44.651741 9.922287 -14.082545 -104.13777
13050000000 -19.88625 65.853615 -45.721653 -8.2432251 -44.804932 -6.1708755 -14.648872 -108.55183
13060000000 -19.637867 65.051239 -45.321453 -21.517462 -44.392258 -24.867607 -15.207581 -114.2678
13070000000 -19.662006 63.649986 -44.560829 -41.380371 -43.800369 -45.584564 -15.710309 -120.6395
13080000000 -19.594566 63.018715 -43.746105 -67.357651 -43.289715 -71.992676 -16.097761 -126.34595
13090000000 -19.327169 61.095257 -44.010483 -93.423805 -43.981594 -97.706528 -16.452141 -131.64148
13100000000 -19.423946 59.669033 -44.71122 -113.69759 -44.588844 -116.76407 -16.91482 -136.80734
13110000000 -19.357857 58.468094 -44.507275 -128.35663 -44.091167 -133.49821 -17.46558 -143.16658
13120000000 -19.780361 57.423424 -43.764713 -152.23337 -43.60421 -157.66386 -17.987791 -150.93997
13130000000 -19.888374 59.652702 -43.443382 -176.95987 -43.656338 177.1144 -18.311964 -159.70464
13140000000 -19.939323 63.087479 -43.797367 156.27103 -44.282795 151.26753 -18.458229 -168.06862
13150000000 -19.688566 64.133202 -44.681313 136.79347 -44.96674 134.02434 -18.601698 -175.85655
13160000000 -19.325535 66.63868 -45.28532 119.91575 -45.723122 115.82994 -18.79134 175.95685
13170000000 -18.697254 62.826805 -44.206459 105.13226 -44.654209 102.47608 -18.894928 166.19344
13180000000 -18.781284 58.330402 -43.555035 78.86895 -44.154873 77.923363 -18.620319 155.43842
13190000000 -18.713844 54.848103 -43.288696 54.687988 -43.679409 54.804222 -18.023233 145.69824
13200000000 -19.324924 49.578247 -43.134827 28.508348 -43.544666 27.960348 -17.330929 138.10852
13210000000 -19.878559 51.170845 -43.800037 2.8007312 -44.554722 1.880722 -16.778294 132.15234
13220000000 -20.139416 52.009171 -44.516666 -17.704653 -45.217278 -15.642701 -16.401117 126.13234
13230000000 -20.029335 56.373165 -45.052124 -35.803139 -45.205658 -30.965288 -16.030348 118.91885
13240000000 -19.436476 58.064552 -44.743767 -54.549679 -44.639397 -51.607422 -15.530525 111.36529
13250000000 -18.813627 55.692207 -45.001839 -76.687416 -44.713772 -72.628944 -14.805573 104.56018
13260000000 -18.631277 52.911739 -44.698006 -97.375153 -44.211903 -95.159836 -14.006458 99.106056
13270000000 -18.540081 48.108509 -44.601879 -119.56644 -44.07346 -119.96771 -13.353376 94.789406
13280000000 -19.098152 44.612217 -44.80978 -143.96974 -44.535625 -142.26555 -12.866446 90.98204
13290000000 -19.566042 42.233799 -45.322842 -164.09381 -44.618557 -162.98671 -12.449684 86.767792
13300000000 -20.124546 41.981907 -45.280228 176.52303 -44.52607 176.58551 -12.029076 81.6782
13310000000 -20.370949 42.93145 -45.55442 157.97021 -44.719711 156.60399 -11.554124 76.515732
13320000000 -20.251566 42.849598 -44.460346 135.53029 -43.637512 130.51927 -11.058849 72.062134
13330000000 -20.234615 43.334927 -45.107838 110.18102 -44.546494 104.65843 -10.569751 68.315536
13340000000 -19.704285 42.746078 -45.726101 88.069023 -45.587532 83.236877 -10.163386 64.787514
13350000000 -19.730413 39.36528 -45.95892 71.407257 -45.635174 67.704262 -9.8487787 60.917835
13360000000 -19.443684 38.710468 -45.197605 53.165359 -44.973515 46.88308 -9.5829239 56.391567
13370000000 -19.56258 33.631222 -45.085041 28.816282 -45.117218 22.520302 -9.2495422 51.533909
13380000000 -19.909422 30.84453 -45.029419 3.5100265 -45.206596 -1.6950846 -8.8408127 46.791149
13390000000 -20.58285 28.243244 -45.593693 -17.841799 -45.685719 -23.467239 -8.4141731 42.655571
13400000000 -21.169054 27.421505 -45.837994 -37.486507 -46.239468 -44.588261 -8.0186949 39.298233
13410000000 -22.002287 27.283905 -46.05579 -59.577591 -47.098827 -63.808552 -7.7372389 35.991322
13420000000 -22.016573 32.147984 -46.023438 -79.301369 -46.78886 -77.381073 -7.5702314 32.273697
13430000000 -21.922449 31.191435 -46.097321 -99.988068 -46.408661 -97.329399 -7.4472117 28.248587
13440000000 -21.293652 30.61478 -45.857738 -121.40962 -46.056019 -123.39609 -7.3124552 23.915743
13450000000 -20.844172 25.936819 -46.587597 -143.65685 -47.100826 -144.51726 -7.101305 19.458027
13460000000 -20.833689 20.456102 -45.813354 -164.32544 -46.374016 -164.17522 -6.8719316 15.312637
13470000000 -21.5863 13.90729 -46.857933 173.21013 -47.271816 176.12431 -6.6887808 11.526031
13480000000 -22.36161 13.605136 -47.529705 151.40852 -47.178646 155.8414 -6.5634441 7.7843027
13490000000 -23.69323 10.24722 -47.070408 144.71623 -46.565071 145.27525 -6.5095787 4.0266957
13500000000 -24.460739 18.318521 -46.412327 120.11469 -46.219868 120.64229 -6.5057497 0.22322054
13510000000 -24.431026 24.870037 -46.10622 94.280617 -45.68486 95.666016 -6.4900236 -3.5063288
13520000000 -23.740742 23.827467 -46.520592 78.655823 -45.790962 77.809586 -6.4821682 -7.2085152
13530000000 -23.45686 20.466314 -45.671135 55.334095 -45.100025 51.991901 -6.4959741 -10.873844
13540000000 -23.274294 14.702004 -45.565983 32.250961 -45.311642 29.646481 -6.5476599 -14.736717
13550000000 -23.673525 7.5533323 -45.361694 9.0676727 -45.253731 7.0242538 -6.675272 -18.56263
13560000000 -24.45719 4.2051415 -45.475014 -13.877233 -45.188904 -15.262467 -6.8041859 -22.379864
13570000000 -25.931637 3.7307987 -46.193462 -36.164799 -45.533054 -37.948612 -6.8796768 -26.014009
13580000000 -26.629522 9.2390766 -45.876511 -53.070408 -45.172749 -58.051826 -6.9407449 -29.468145
13590000000 -26.958881 14.631824 -45.741714 -72.42556 -45.750195 -79.976288 -6.996892 -32.77412
13600000000 -26.572947 18.947956 -44.776047 -95.654549 -44.968365 -100.03735 -7.1135077 -35.895676
13610000000 -26.522934 22.414846 -44.540062 -120.06571 -44.657398 -123.66647 -7.2966189 -38.704365
13620000000 -26.155254 19.321768 -44.52132 -146.60286 -44.466309 -150.08469 -7.5014992 -41.596359
13630000000 -26.568056 16.364958 -44.245712 -170.20293 -44.333076 -174.46675 -7.7136345 -44.636951
13640000000 -26.871897 11.071496 -44.630268 162.66347 -44.868801 158.19301 -7.9199257 -47.9333
13650000000 -27.772469 8.7626629 -45.055534 139.09558 -45.30793 135.5876 -8.1093626 -51.152195
13660000000 -28.202229 7.9158273 -46.039291 117.26466 -46.374065 114.74751 -8.268014 -54.2234
13670000000 -29.380636 6.3592134 -45.717297 99.549828 -46.095448 95.862274 -8.4472427 -56.979698
13680000000 -30.380171 18.584311 -45.549049 72.873375 -46.318119 71.492058 -8.6135292 -59.36451
13690000000 -29.028872 24.088577 -45.811958 52.206966 -45.970325 53.043125 -8.7869549 -61.845467
13700000000 -28.470835 31.706018 -45.474598 26.97156 -45.802315 26.305775 -9.0014992 -64.577568
13710000000 -26.778702 30.283089 -45.905254 -5.5165596 -46.160275 -5.0157957 -9.2455235 -67.386993
13720000000 -26.470545 20.875219 -47.919403 -27.978434 -48.211243 -27.950586 -9.4684887 -70.080032
13730000000 -27.15202 17.174788 -48.472248 -44.759811 -48.890087 -45.497585 -9.6804962 -72.672241
13740000000 -27.684795 11.500528 -48.532764 -63.076893 -48.765251 -62.339684 -9.884347 -74.931824
13750000000 -30.383682 8.270504 -49.199928 -87.587151 -49.674778 -84.241234 -10.111657 -77.375809
13760000000 -30.949541 21.735451 -48.983223 -107.78893 -49.29821 -102.43359 -10.421261 -80.030731
13770000000 -31.190685 25.475014 -50.320728 -136.2251 -49.713776 -129.60876 -10.728657 -83.040627
13780000000 -29.340359 36.227573 -51.417648 -153.64763 -50.740501 -152.52698 -10.971198 -86.526932
13790000000 -27.546492 26.993546 -52.37291 -161.20267 -51.037506 -159.86185 -11.134919 -89.946884
13800000000 -27.120131 20.336987 -50.979931 179.3087 -50.069153 174.93185 -11.234805 -92.641579
13810000000 -26.409771 12.494849 -51.509113 151.56433 -51.157761 148.32303 -11.346904 -94.727493
13820000000 -26.702518 0.72095913 -52.535156 131.49265 -51.846493 131.5197 -11.563692 -96.638138
13830000000 -27.965883 0.76113361 -54.08112 113.95605 -52.646523 114.84402 -11.856608 -98.723
13840000000 -28.397127 -4.5206728 -54.552277 104.34284 -52.678669 98.409348 -12.192907 -101.71791
13850000000 -30.649532 1.7295632 -52.568226 97.639252 -52.159508 85.51693 -12.478116 -104.988
13860000000 -29.758514 8.3407125 -50.639015 70.909943 -50.758354 60.533283 -12.667976 -108.47233
13870000000 -29.55011 12.929289 -50.603428 42.665306 -51.124706 37.186066 -12.842585 -111.68034
13880000000 -28.238373 10.795986 -50.634239 12.269062 -50.653595 5.7468133 -13.046329 -114.72687
13890000000 -27.093813 3.145586 -51.885391 -8.1651688 -51.743378 -17.111876 -13.321449 -117.93839
13900000000 -26.971344 -9.8858557 -52.471531 -33.050941 -52.089924 -41.769356 -13.592664 -121.57568
13910000000 -26.843658 -14.61214 -54.036053 -40.826641 -55.046894 -49.294178 -13.767211 -125.58274
13920000000 -27.102844 -29.107828 -51.040085 -62.880329 -51.714054 -69.262779 -13.849684 -129.47952
13930000000 -29.331381 -34.945976 -51.23568 -93.93541 -51.834972 -101.30411 -13.929453 -132.7516
13940000000 -30.574299 -35.845108 -52.214813 -118.24288 -53.107967 -124.80638 -14.080238 -135.66974
13950000000 -32.469368 -31.652142 -51.956402 -144.03769 -53.049141 -146.35875 -14.377153 -138.75418
13960000000 -32.596382 -22.901165 -51.687065 -168.16254 -53.115479 -171.46091 -14.704974 -142.51433
13970000000 -30.837484 -19.22015 -53.374352 157.12151 -54.842651 155.20427 -14.994018 -147.60518
13980000000 -29.420605 -30.191362 -56.277725 136.85995 -57.254673 145.21368 -15.190806 -153.3056
13990000000 -28.012035 -42.035992 -55.427589 126.31847 -55.813988 127.37412 -15.22757 -158.92477
14000000000 -27.418953 -58.543671 -54.9464 97.85392 -56.228302 96.302422 -15.144442 -164.31924
14010000000 -27.379477 -69.84507 -57.511864 59.9617 -59.239517 66.91452 -15.046267 -169.25079
14020000000 -27.707165 -81.372978 -58.625965 57.019981 -59.276363 66.486664 -14.984282 -174.13245
14030000000 -29.548355 -90.022675 -60.898064 23.694983 -61.432613 44.458302 -14.966375 -178.50095
14040000000 -31.44824 -86.085602 -61.410458 10.244213 -61.080273 22.985075 -14.880554 176.90521
14050000000 -32.082722 -73.124123 -62.498081 -8.1361284 -61.867958 4.7799745 -14.793329 172.02321
14060000000 -31.514168 -71.50753 -61.500877 -41.821697 -60.732788 -31.305592 -14.706827 167.25229
14070000000 -30.779951 -69.044807 -63.124218 -84.296295 -62.530972 -72.262215 -14.574594 162.54742
14080000000 -29.611156 -82.148499 -68.956017 -145.51993 -68.012962 -124.8678 -14.437879 157.81041
14090000000 -29.344969 -91.171967 -71.622124 124.98489 -77.196228 113.13947 -14.344647 153.18788
14100000000 -28.07379 -107.73975 -68.519699 95.83316 -70.908218 39.089169 -14.201044 148.37985
14110000000 -28.744827 -123.01015 -66.769951 46.727142 -73.102264 5.0152993 -14.049105 143.0896
14120000000 -28.805897 -129.18542 -61.997753 2.3444111 -65.664009 -12.824948 -13.813954 137.93002
14130000000 -28.93829 -136.90405 -64.827858 -33.965611 -66.8927 -41.649395 -13.466059 132.88979
14140000000 -29.596703 -139.04965 -63.363422 -10.92507 -65.688736 -6.4607201 -13.135131 128.40042
14150000000 -30.468266 -135.92827 -59.853935 -57.112137 -62.105362 -50.423496 -12.883208 124.42157
14160000000 -29.824587 -134.41013 -59.594326 -61.024086 -60.606045 -54.843723 -12.657493 120.38165
14170000000 -30.199438 -130.62947 -56.005886 -85.458298 -55.849476 -87.154121 -12.452811 115.79445
14180000000 -28.838522 -133.11967 -54.494804 -120.90947 -55.23909 -126.50429 -12.182066 110.89948
14190000000 -28.069832 -139.38821 -55.612637 -142.6474 -56.494934 -137.63908 -11.833495 106.21731
14200000000 -27.016085 -147.91957 -53.790195 -170.10475 -54.340481 -167.20074 -11.458933 101.98896
14210000000 -26.992023 -158.14761 -53.859829 170.40506 -53.813686 174.77728 -11.132775 98.179443
14220000000 -26.880959 -165.66895 -53.521851 152.74512 -53.401978 155.03424 -10.87216 94.574677
14230000000 -27.593376 -175.46242 -52.233063 130.75465 -52.111942 134.18407 -10.644721 90.763321
14240000000 -28.805563 -173.35245 -50.694778 111.58517 -50.475151 111.65264 -10.403276 86.648735
14250000000 -29.029089 -167.79454 -49.878681 81.749413 -49.842308 81.106064 -10.138975 82.475502
14260000000 -29.068785 -161.87582 -49.839428 60.071365 -49.506855 59.038155 -9.8710346 78.366966
14270000000 -27.733818 -157.20653 -49.484165 37.729786 -49.41301 38.228119 -9.6503086 74.462814
14280000000 -26.87804 -166.10677 -48.501991 13.575514 -48.38311 13.702266 -9.4587173 70.689789
14290000000 -26.513056 -169.21609 -48.296513 -11.371725 -48.220665 -9.7248058 -9.2737188 66.536354
14300000000 -26.716665 178.79617 -48.19194 -29.850973 -47.579807 -29.555988 -9.0777216 62.038929
14310000000 -27.282297 175.19737 -47.003906 -51.011684 -46.672787 -54.091484 -8.8725328 57.481773
14320000000 -28.244884 167.67737 -46.801426 -77.149666 -46.771587 -81.078499 -8.6448526 53.253937
14330000000 -28.560661 174.94373 -46.274864 -99.205688 -46.288181 -100.3499 -8.4218893 49.269142
14340000000 -28.871733 175.39525 -45.775227 -122.79564 -45.567646 -123.3718 -8.2685461 45.427998
14350000000 -28.054495 -179.34589 -45.525162 -144.25949 -45.245205 -146.16048 -8.1609344 41.586475
14360000000 -28.066967 -179.98796 -44.880714 -167.7135 -44.574848 -169.72394 -8.1063023 37.506126
14370000000 -26.961226 -179.10097 -44.458324 165.39673 -44.22718 162.21172 -8.0631571 33.055233
14380000000 -27.134846 172.15848 -44.652142 141.57849 -44.262245 140.23685 -8.0160093 28.327339
14390000000 -27.49918 172.37787 -44.491196 121.89017 -44.206573 118.60353 -7.9717093 23.500828
14400000000 -28.043608 167.98679 -43.742844 101.96021 -43.623428 97.561745 -7.9175744 18.876434
14410000000 -28.16305 169.31255 -42.830269 76.384071 -43.032898 73.018478 -7.8824859 14.460535
14420000000 -28.811655 166.5858 -42.78009 50.506191 -42.77681 49.220417 -7.8766026 10.24276
14430000000 -28.787388 170.72145 -42.615467 26.09396 -42.467175 23.978567 -7.9143863 5.9226222
14440000000 -28.69273 172.67552 -42.473442 2.8725438 -42.211128 -0.57877898 -8.0118532 1.5162269
14450000000 -27.571865 176.23018 -42.466457 -19.360743 -42.265228 -23.690023 -8.1446037 -3.0260921
14460000000 -27.569118 174.73056 -41.90844 -42.783852 -41.887707 -47.632984 -8.2923069 -7.6147323
14470000000 -26.620234 176.61151 -41.512398 -67.244644 -41.765068 -70.511398 -8.4576054 -12.227589
14480000000 -26.793463 174.94476 -41.743046 -94.529541 -41.701134 -95.650993 -8.6841688 -16.890121
14490000000 -26.381163 171.30492 -41.663937 -114.48286 -41.55328 -117.477 -8.9663277 -21.754175
14500000000 -27.526573 171.46172 -41.317425 -136.62871 -41.276924 -140.67426 -9.2778072 -27.014673
14510000000 -27.413963 172.70721 -40.817505 -161.55144 -40.959988 -164.77713 -9.5439558 -32.458168
14520000000 -28.243509 -179.34027 -40.853607 170.63158 -40.958576 167.85187 -9.7770729 -37.993786
14530000000 -27.16506 179.5502 -41.166386 147.02103 -41.132683 145.30414 -10.005436 -42.835796
14540000000 -26.745888 -174.02516 -41.137466 126.11217 -41.038326 123.3047 -10.318359 -47.164845
14550000000 -24.950382 179.47339 -40.697678 102.86034 -40.704308 98.578911 -10.743816 -51.216351
14560000000 -24.972429 177.01454 -40.595352 76.987335 -40.854687 73.890587 -11.251182 -55.981384
14570000000 -24.344517 171.31435 -40.886711 52.429962 -40.990898 50.974545 -11.815455 -61.710999
14580000000 -24.90106 170.15948 -41.17543 28.773266 -41.138798 27.573187 -12.365885 -68.093605
14590000000 -24.976248 167.78131 -41.175156 10.200375 -41.080521 6.839396 -12.888951 -74.220421
14600000000 -25.525114 176.90923 -40.435139 -13.262698 -40.581707 -17.055557 -13.396647 -80.226151
14610000000 -24.604618 177.04398 -40.185543 -41.955727 -40.524094 -44.672043 -13.930979 -86.448593
14620000000 -24.096243 -178.62611 -40.969654 -68.803696 -41.272808 -69.844833 -14.514684 -93.699738
14630000000 -23.136015 177.08144 -41.683964 -86.604744 -41.708164 -87.118301 -15.141126 -101.47533
14640000000 -22.686546 173.93701 -41.241199 -107.49518 -41.197849 -108.40392 -15.587362 -109.01621
14650000000 -22.351944 168.42548 -40.840351 -131.53394 -40.816143 -133.60579 -15.983694 -116.41711
14660000000 -22.375809 165.11176 -41.310471 -157.0542 -41.333355 -158.57114 -16.42388 -123.64115
14670000000 -22.861004 162.64445 -41.146481 -177.13336 -41.254055 -178.8363 -17.080946 -131.34065
14680000000 -22.631475 164.13112 -41.047287 158.84576 -41.210293 157.07776 -17.74407 -140.25752
14690000000 -22.832426 164.34334 -40.89283 135.66266 -40.954327 134.97491 -18.248966 -151.2081
14700000000 -22.046099 167.81575 -41.196304 112.21617 -41.197018 110.87182 -18.442289 -163.06757
14710000000 -21.761187 165.6172 -41.591545 88.102409 -41.460926 86.945 -18.293276 -174.83148
14720000000 -21.221956 164.53279 -41.471355 69.940773 -41.267803 68.425194 -18.022966 174.79672
14730000000 -21.014357 160.84303 -41.224522 43.503368 -41.272865 41.803005 -17.631804 166.19888
14740000000 -20.710464 155.83585 -41.026096 23.067602 -41.015846 21.401789 -17.239733 158.63965
14750000000 -21.057228 152.5246 -41.05513 -1.5665916 -41.058636 -2.4544506 -16.942965 151.52995
14760000000 -20.888039 150.41486 -40.857109 -25.934006 -40.676983 -26.8575 -16.749422 144.67339
14770000000 -21.28574 148.14348 -41.333591 -49.364201 -41.100857 -50.410675 -16.55406 137.52162
14780000000 -21.131557 147.49199 -41.008556 -70.291687 -40.762486 -71.567009 -16.256659 129.91806
14790000000 -21.241995 148.40593 -40.837421 -95.367928 -40.532753 -97.742661 -15.842894 122.80457
14800000000 -20.640646 148.79947 -41.244965 -118.47884 -41.025082 -120.85147 -15.364153 116.8082
14810000000 -20.496262 148.45572 -41.225437 -140.39998 -40.92701 -143.13515 -14.877337 111.4847
14820000000 -19.784632 146.69934 -41.018925 -162.78708 -40.737221 -165.29008 -14.521896 106.72134
14830000000 -19.887449 142.45503 -40.69976 173.87515 -40.563511 170.94754 -14.186444 102.23369
14840000000 -19.809916 138.09785 -40.543617 148.39769 -40.381104 145.77081 -13.887424 97.673241
14850000000 -20.423428 134.37808 -40.563118 124.18378 -40.237255 120.86289 -13.563106 93.747917
14860000000 -20.766497 132.06081 -40.588886 99.690063 -40.421314 96.096718 -13.309693 90.07724
14870000000 -21.631987 131.49725 -40.471134 74.624245 -40.351791 70.974579 -13.174772 86.89135
14880000000 -21.581686 132.70978 -40.850609 51.276669 -40.610538 47.5326 -13.131411 83.246178
14890000000 -21.374689 134.82437 -40.641312 29.051394 -40.731667 23.328894 -13.104125 78.817917
14900000000 -20.493334 132.67221 -40.69051 3.3569553 -40.820477 0.14627485 -12.988739 73.897469
14910000000 -20.22753 129.40825 -40.663227 -19.972769 -40.734463 -22.650187 -12.713045 69.577309
14920000000 -19.890156 123.93971 -40.649467 -43.436119 -40.593033 -46.492489 -12.39923 65.87291
14930000000 -20.411905 120.75109 -40.410229 -66.826065 -40.38839 -71.03643 -12.211106 63.410126
14940000000 -20.69495 116.9599 -40.270947 -94.563461 -40.491589 -99.047462 -12.183589 61.439587
14950000000 -21.720362 118.56587 -40.677395 -119.99951 -40.900364 -122.82117 -12.273252 59.041595
14960000000 -22.121832 118.728 -40.898697 -143.96765 -41.120289 -146.89626 -12.397385 56.1875
14970000000 -22.449089 125.31152 -41.139061 -168.33252 -41.257767 -170.64168 -12.466937 53.058136
14980000000 -22.111567 123.00083 -41.351322 169.20247 -41.518696 166.37868 -12.528644 49.886753
14990000000 -21.92075 123.98696 -41.379501 147.18654 -41.638271 144.56892 -12.68554 47.239105
15000000000 -21.732059 117.23119 -40.792465 125.98348 -41.14048 123.58965 -12.948565 44.72953
15010000000 -22.142237 115.09851 -40.27203 99.023125 -40.416626 97.231018 -13.223083 42.046009
15020000000 -22.475996 109.35762 -40.157272 69.065071 -40.275078 66.923653 -13.364284 38.448444
15030000000 -23.139256 110.53443 -40.570549 42.425152 -40.828655 40.184769 -13.426604 35.113125
15040000000 -23.706379 109.25455 -41.27092 15.437757 -41.440544 14.265787 -13.419369 33.077061
15050000000 -23.981798 115.21281 -42.105446 -5.1523595 -42.326393 -7.1605792 -13.512365 32.593491
15060000000 -24.157166 116.79041 -41.995113 -23.801231 -42.220749 -23.935926 -13.810601 32.91515
15070000000 -23.931475 121.52366 -41.395744 -46.229755 -41.427006 -47.165386 -14.318299 33.415424
15080000000 -23.755022 121.30956 -40.902462 -72.124207 -40.885651 -72.813705 -14.846117 33.238903
15090000000 -23.446217 120.85152 -40.556686 -100.01574 -40.74358 -101.79955 -15.399943 31.736069
15100000000 -23.814098 118.60232 -40.847904 -129.06009 -40.989655 -128.99005 -15.852965 30.603189
15110000000 -23.986696 117.24719 -41.263508 -156.74002 -41.334129 -156.01982 -16.227858 30.171234
15120000000 -24.836445 115.69345 -42.027657 -177.16353 -41.782711 -177.84921 -16.521881 31.182129
15130000000 -25.244625 116.159 -41.618725 157.52367 -41.58844 156.10522 -16.737755 32.66642
15140000000 -26.027113 121.40845 -42.175999 132.26109 -42.263363 131.71944 -16.878075 33.972149
15150000000 -25.22945 128.55412 -42.136181 110.73785 -42.073357 111.03408 -16.924038 35.402538
15160000000 -24.632416 131.53865 -42.131824 87.932495 -41.719296 87.786507 -16.821056 37.831848
15170000000 -23.439919 130.23245 -42.007504 61.751625 -41.616028 59.610901 -16.636761 41.253113
15180000000 -23.076233 126.50034 -42.00293 39.074528 -41.947357 36.361012 -16.409468 44.961262
15190000000 -22.765312 122.20731 -41.850796 13.113412 -41.831795 11.5768 -16.265202 48.174809
15200000000 -23.649385 119.19203 -41.715744 -12.967313 -41.535778 -14.183309 -16.216291 50.554657
15210000000 -24.044443 120.12467 -42.107147 -41.329582 -41.693233 -43.679913 -16.175762 51.600304
15220000000 -24.983728 126.00645 -42.877769 -62.419426 -42.695759 -66.08625 -16.043457 51.785126
15230000000 -24.206762 130.1494 -42.919056 -87.232552 -42.855293 -90.383102 -15.799351 51.059082
15240000000 -23.722605 133.6382 -43.127625 -105.50526 -43.234989 -108.17433 -15.44368 50.518375
15250000000 -22.659327 129.16977 -42.426624 -129.42833 -42.381691 -130.30276 -15.016872 49.547668
15260000000 -22.523514 126.42039 -42.020592 -154.7766 -41.604733 -157.19266 -14.549033 48.498524
15270000000 -22.250116 120.65318 -41.835495 177.01096 -41.789406 171.48727 -14.087114 47.138786
15280000000 -22.404087 116.67971 -42.615387 151.09961 -42.917561 146.10689 -13.669847 46.683975
15290000000 -22.862362 113.42828 -42.758041 126.67236 -43.333908 124.7466 -13.326702 46.594147
15300000000 -23.260933 115.48308 -43.339455 104.76789 -43.291321 104.31747 -13.055809 46.669823
15310000000 -23.319445 115.0095 -43.110638 84.384331 -42.996071 82.742371 -12.900839 45.431927
15320000000 -23.393047 117.61234 -43.038647 61.815315 -42.997543 58.283974 -12.910527 43.577854
15330000000 -23.121204 118.12733 -42.277542 38.9935 -42.487068 36.266335 -12.859615 41.041718
15340000000 -22.710228 116.14272 -41.91021 11.342833 -42.163063 10.095765 -12.775939 38.19981
15350000000 -22.701384 115.80213 -42.093658 -17.920546 -42.210659 -17.231894 -12.58176 35.590988
15360000000 -22.310879 111.3026 -43.285114 -40.943523 -42.867283 -41.086555 -12.408896 33.197212
15370000000 -22.688715 106.4114 -43.143005 -59.935463 -43.031734 -63.931351 -12.273072 30.560005
15380000000 -22.770393 101.74961 -42.704586 -81.543861 -42.901054 -83.204582 -12.156137 27.510725
15390000000 -23.73123 96.934029 -42.110149 -109.50035 -42.038876 -108.48415 -12.017405 24.499044
15400000000 -24.521847 96.454239 -42.514591 -135.01274 -41.866444 -135.30241 -11.874421 22.045347
15410000000 -25.258732 99.348419 -42.872551 -158.93826 -42.28941 -161.92717 -11.766377 20.515923
15420000000 -25.441931 101.51792 -42.881287 179.76218 -42.629417 174.22223 -11.784359 19.207306
15430000000 -24.909842 106.74201 -42.764 157.19376 -42.834049 153.67412 -11.945045 17.163206
15440000000 -24.237112 101.2888 -42.269981 133.84229 -41.977089 132.69264 -12.277118 13.588391
15450000000 -24.17008 96.36335 -42.13448 104.6085 -41.758755 103.20907 -12.585559 8.9717827
15460000000 -24.438858 87.457901 -42.526199 80.627731 -42.001167 75.188538 -12.734358 3.829731
15470000000 -25.721838 83.47377 -42.879128 56.264366 -42.656609 49.928032 -12.737963 -0.9132852
15480000000 -26.758842 76.412109 -42.70631 34.638927 -42.823769 28.689468 -12.741229 -4.5594544
15490000000 -29.061014 78.904259 -42.811691 11.238601 -42.840878 6.8749723 -12.857675 -7.4923549
15500000000 -29.75025 85.390144 -42.641438 -12.125761 -42.728733 -17.61237 -13.083152 -10.421556
15510000000 -29.831457 91.30838 -42.581291 -35.70311 -42.767925 -41.805645 -13.389787 -13.476408
15520000000 -29.781313 89.525841 -42.226322 -60.338493 -42.566704 -65.750984 -13.758794 -17.128532
15530000000 -29.403151 91.134903 -42.41415 -87.922432 -42.915806 -93.256958 -14.253456 -20.788273
15540000000 -29.800148 78.831337 -42.740124 -111.67926 -43.314007 -114.08223 -14.900311 -24.407255
15550000000 -30.931656 77.337212 -42.874466 -133.48116 -43.282455 -136.42413 -15.673719 -28.893839
15560000000 -32.923615 65.407288 -42.343758 -157.60173 -42.680065 -161.67285 -16.448406 -34.466461
15570000000 -35.590279 65.671249 -42.3685 174.26521 -43.127171 170.26523 -17.18367 -41.908714
15580000000 -40.064487 49.152847 -42.537113 145.40224 -43.355667 145.67418 -17.834822 -50.110233
15590000000 -45.482368 89.116798 -43.759308 121.01609 -44.330376 122.43766 -18.380745 -58.048058
15600000000 -61.359474 -179.38371 -43.858791 100.51806 -43.911339 102.45957 -18.92227 -65.129211
15610000000 -41.732311 178.57367 -44.016331 78.345062 -44.073242 78.003258 -19.478985 -71.875046
15620000000 -41.925819 -177.56 -43.847294 54.917088 -43.972557 53.028198 -20.307686 -78.670677
15630000000 -40.6003 170.2701 -43.711182 30.277815 -44.128757 29.850096 -21.453836 -84.943855
15640000000 -44.933208 -161.59599 -44.155579 3.4358187 -44.552498 6.6080751 -22.792833 -93.961456
15650000000 -42.280266 -148.01738 -44.371075 -17.641844 -43.96254 -15.02386 -24.259796 -108.86204
15660000000 -37.555424 -113.6843 -44.456867 -43.37698 -44.022694 -44.012642 -24.821257 -129.92429
15670000000 -34.01009 -126.81011 -44.31916 -69.886314 -44.276821 -72.205704 -24.197773 -149.67439
15680000000 -30.767288 -125.03736 -45.719166 -99.082062 -45.81134 -97.597038 -22.929674 -162.35861
15690000000 -29.349335 -139.13614 -46.35088 -115.84717 -45.906563 -113.89592 -22.009201 -171.54364
15700000000 -28.170351 -143.61145 -46.325481 -134.88298 -45.803974 -136.47079 -21.331512 -179.25342
15710000000 -28.408726 -154.188 -45.704628 -160.6004 -45.469704 -162.89334 -20.689798 172.36142
15720000000 -28.202534 -150.23146 -45.727142 175.09853 -45.494247 173.01208 -20.066832 164.46564
15730000000 -28.879114 -151.38475 -45.924965 149.49509 -46.037128 150.69051 -19.410999 158.3141
15740000000 -28.003649 -142.41127 -45.644176 121.71766 -44.865097 124.49768 -18.853109 152.98318
15750000000 -27.572098 -141.77104 -46.717743 93.032799 -45.456909 91.965302 -18.404953 147.51677
15760000000 -26.012486 -139.82747 -47.515003 71.776268 -46.629242 66.314461 -17.893728 140.67955
15770000000 -25.287777 -143.06863 -47.987282 47.469536 -47.832989 43.411991 -17.182554 133.81584
15780000000 -24.350035 -146.68309 -48.357212 25.268782 -47.744991 23.665136 -16.297632 129.05243
15790000000 -24.101175 -151.24496 -48.586472 2.2283664 -48.05476 -0.18565983 -15.44551 126.56506
15800000000 -23.624357 -154.33063 -48.76088 -20.293047 -47.918114 -23.692623 -14.787275 125.36845
15810000000 -23.815262 -158.00073 -48.532616 -50.712498 -47.673874 -55.899445 -14.447984 124.40776
15820000000 -23.850952 -156.27902 -48.646927 -78.58799 -48.124371 -85.545326 -14.290177 122.82572
15830000000 -23.795324 -153.89317 -50.259029 -104.46794 -49.778091 -111.42249 -14.174642 120.18271
15840000000 -23.434935 -149.65938 -51.22057 -130.38936 -50.443645 -135.73895 -14.011979 116.73994
15850000000 -22.772573 -149.11111 -51.33836 -150.61929 -50.891331 -160.35851 -13.769957 113.10497
15860000000 -21.988459 -148.52126 -51.677944 175.45381 -51.429081 166.17194 -13.469271 109.51648
15870000000 -21.480061 -152.51978 -54.044098 144.49252 -54.050735 133.52132 -13.183991 106.32897
15880000000 -21.365437 -155.61676 -58.853119 130.69061 -58.372364 127.93751 -12.831539 103.43801
15890000000 -21.450926 -158.26958 -56.482567 134.26355 -55.654766 120.76668 -12.455319 100.59748
15900000000 -21.788286 -159.88243 -55.102116 110.14925 -55.601288 90.567268 -12.083623 98.418854
15910000000 -21.841959 -157.50473 -54.238819 72.314301 -55.006191 59.991253 -11.761313 96.869827
15920000000 -21.38273 -155.05214 -55.656761 39.800144 -56.295769 29.32748 -11.506001 95.828903
15930000000 -20.872467 -154.22778 -57.026726 10.805534 -58.327347 -5.8611846 -11.327775 94.503899
15940000000 -20.269445 -153.79955 -59.920864 -27.67808 -60.99622 -46.708302 -11.262756 92.912621
15950000000 -19.698229 -155.27963 -66.394539 -4.2045212 -72.80175 -48.845669 -11.264712 91.011101
15960000000 -19.527473 -157.59576 -62.982864 9.69771 -67.558266 9.0747614 -11.248384 88.766388
15970000000 -19.464697 -156.97633 -58.054432 -25.769419 -60.318668 -22.195282 -11.220084 86.08902
15980000000 -19.438852 -156.77365 -56.694866 -65.085579 -58.915237 -64.721016 -11.109066 82.942482
15990000000 -19.301365 -155.42348 -57.301037 -94.263062 -62.011784 -89.599815 -10.931138 79.938232
16000000000 -19.093307 -154.84857 -56.996197 -123.87633 -58.521008 -109.37512 -10.67183 77.563065
16010000000 -18.745131 -154.49376 -57.945694 -165.37292 -59.663292 -153.08743 -10.386479 75.688957
16020000000 -18.424114 -156.01839 -61.516312 169.23462 -65.239708 171.8813 -10.206885 74.339622
16030000000 -18.212032 -155.33281 -63.079491 167.52487 -65.273163 -152.40219 -10.138021 73.13044
16040000000 -17.761763 -155.84381 -58.807556 155.06284 -58.049023 169.68523 -10.18606 71.807907
16050000000 -17.426306 -156.93076 -57.013592 128.97115 -57.208088 135.77145 -10.214096 69.883713
16060000000 -17.10037 -156.97342 -55.516273 82.578636 -56.374916 93.635994 -10.249777 67.246536
16070000000 -16.693279 -157.44647 -57.279099 46.31068 -58.579113 58.286186 -10.284377 64.570908
16080000000 -16.42325 -158.3278 -58.050049 20.446836 -58.922195 44.200478 -10.32803 62.14706
16090000000 -16.284906 -158.31172 -59.205517 -2.7469089 -58.507103 16.085653 -10.385765 59.544914
16100000000 -16.07374 -158.0224 -57.561272 -21.943472 -56.462078 -11.080043 -10.43584 56.709515
16110000000 -15.894053 -157.77928 -57.186001 -56.273129 -56.503399 -45.014782 -10.396635 53.417717
16120000000 -15.452603 -157.26411 -57.58979 -84.967674 -56.538383 -72.47332 -10.303333 50.248138
16130000000 -15.00077 -158.34914 -57.571606 -123.80926 -56.969746 -109.64697 -10.163095 48.141479
16140000000 -14.730959 -159.97609 -62.163452 -154.28827 -60.01812 -134.40968 -10.099096 46.947426
16150000000 -14.432539 -161.76834 -63.75869 -125.87589 -59.187115 -122.50521 -10.196285 46.115486
16160000000 -14.222196 -163.06342 -58.604691 -153.67548 -55.501408 -153.55238 -10.456844 44.749233
16170000000 -13.940518 -163.97159 -57.164463 173.87552 -54.102966 170.77652 -10.813281 42.200565
16180000000 -13.716736 -164.02304 -55.777077 143.68805 -53.644123 134.72351 -11.174406 38.360828
16190000000 -13.371791 -164.47333 -55.572521 113.55304 -54.65659 106.19794 -11.440011 34.046104
16200000000 -13.142879 -164.51187 -55.263191 73.863541 -54.765568 77.099113 -11.676735 29.990334
16210000000 -12.758513 -165.53651 -57.060665 42.237171 -54.771049 46.123669 -11.937961 26.324381
16220000000 -12.612089 -166.11865 -62.95459 47.26387 -58.323971 28.176371 -12.231991 23.124628
16230000000 -12.287398 -167.54979 -57.289047 40.527908 -56.349731 21.938595 -12.491091 19.934776
16240000000 -12.181938 -168.13849 -54.210762 11.653625 -55.117588 0.46613529 -12.690956 16.90634
16250000000 -11.912889 -169.72041 -53.345909 -13.738866 -53.122219 -21.381245 -12.92457 14.422418
16260000000 -11.706093 -171.21028 -51.996338 -52.094933 -52.103497 -57.322903 -13.35813 12.866734
16270000000 -11.470662 -172.87616 -53.321205 -86.995911 -53.134113 -92.698486 -14.078691 11.496914
16280000000 -11.295211 -174.4722 -53.063118 -105.45947 -53.276562 -110.27785 -15.114302 9.9394884
16290000000 -11.085688 -175.41492 -52.931381 -133.47581 -52.5023 -137.81319 -16.306324 6.4111714
16300000000 -10.902067 -176.22279 -53.807289 -161.03127 -53.967304 -170.19403 -17.553885 1.2223341
16310000000 -10.640326 -176.69934 -53.561855 -179.76376 -53.757423 176.9115 -18.582825 -5.267242
16320000000 -10.386718 -177.0876 -54.672081 148.83801 -54.709614 148.47508 -19.649017 -11.672532
16330000000 -10.049584 -178.11852 -53.971664 141.9314 -53.288658 135.20589 -20.954863 -17.102642
16340000000 -9.8843403 -179.74942 -52.927551 115.27981 -52.871376 107.99082 -22.555084 -22.17178
16350000000 -9.7240629 178.95546 -52.75753 85.85305 -53.35281 78.841454 -24.587214 -25.93998
16360000000 -9.640193 176.96404 -53.253986 60.748898 -53.406269 65.152184 -27.212049 -27.395651
16370000000 -9.620513 175.76962 -54.172104 41.276241 -53.152367 38.868656 -31.531908 -23.446436
16380000000 -9.5078564 174.84451 -52.642914 17.53314 -52.448986 8.8034487 -43.140511 16.327793
16390000000 -9.3373108 174.05692 -54.848999 -2.8707788 -55.735195 -7.8542061 -34.058228 127.63434
16400000000 -9.1203737 173.19034 -53.308945 -23.505669 -52.994446 -26.217382 -27.839109 140.52122
16410000000 -8.8665113 172.18501 -53.862495 -46.301693 -53.897713 -52.509876 -24.720522 144.82225
16420000000 -8.5714788 170.94102 -53.415592 -70.094948 -53.695606 -75.791481 -22.873924 146.28041
16430000000 -8.3628874 169.34409 -54.256294 -79.227257 -54.590668 -86.269005 -21.434944 144.12161
16440000000 -8.2508373 167.98441 -52.680981 -105.89411 -53.307766 -111.04382 -20.251553 139.64905
16450000000 -8.1788111 166.85368 -51.929081 -130.15175 -52.506611 -136.00127 -19.153574 134.6579
16460000000 -8.1445351 166.22037 -52.385334 -156.76472 -53.084023 -160.5006 -18.310501 130.86934
16470000000 -8.0585899 165.80521 -51.510204 -177.14365 -52.702648 -178.52159 -17.612719 127.56265
16480000000 -7.9108887 165.0446 -51.487251 156.50607 -52.901348 156.48177 -16.9046 124.08234
16490000000 -7.7532754 164.01074 -51.643803 127.07812 -53.312622 132.07501 -16.050276 119.62115
16500000000 -7.5635138 163.06049 -52.514702 105.80689 -53.183498 112.36516 -15.15184 115.96368
16510000000 -7.3471217 161.27377 -53.365463 86.548332 -54.081013 89.257156 -14.315185 114.10658
16520000000 -7.2376947 159.8558 -53.153576 70.447281 -53.536331 81.026344 -13.672902 113.48062
16530000000 -7.0678949 158.51866 -51.502277 49.963562 -51.525955 54.771297 -13.325212 112.89071
16540000000 -7.0076556 157.55643 -51.655952 21.422915 -51.88015 24.950214 -13.210835 111.45239
16550000000 -6.8561859 156.96725 -51.423641 -4.9424782 -52.096828 2.2185442 -13.155275 108.90532
16560000000 -6.7513118 156.49438 -52.247421 -35.796959 -52.08876 -23.325497 -12.972969 105.42116
16570000000 -6.5791168 155.7847 -54.541485 -59.822876 -53.86639 -44.495628 -12.668341 102.00467
16580000000 -6.4588513 155.11339 -54.92308 -67.090759 -52.828136 -60.112823 -12.331876 99.194702
16590000000 -6.260376 154.12923 -55.345638 -79.193336 -53.332428 -76.812241 -12.049975 96.729355
16600000000 -6.1426167 152.73244 -53.640499 -98.693398 -52.312229 -96.891716 -11.81113 94.4263
16610000000 -6.0063205 151.46097 -53.510254 -119.38582 -51.737274 -117.6712 -11.518762 92.09465
16620000000 -5.8899608 150.00395 -52.052925 -139.75255 -50.308624 -140.45163 -11.176625 89.984367
16630000000 -5.7443624 148.84534 -52.363747 -171.06633 -50.209442 -172.80536 -10.857101 88.721054
16640000000 -5.62391 147.71867 -53.164597 167.95026 -51.15974 160.65649 -10.627407 88.154747
16650000000 -5.4476652 146.92537 -53.122128 151.07088 -51.421398 142.65146 -10.561953 87.635208
16660000000 -5.2960367 146.10437 -53.203777 129.34985 -51.50473 118.77226 -10.601096 86.455666
16670000000 -5.0826406 145.34773 -52.899963 111.1786 -51.69585 97.362526 -10.695704 83.818329
16680000000 -4.9197602 144.21132 -53.218304 90.128708 -52.123653 75.549377 -10.740659 80.355942
16690000000 -4.7434669 143.2028 -52.319778 74.050797 -52.061775 60.002754 -10.657718 76.892921
16700000000 -4.6183681 141.83279 -50.517895 56.057732 -50.328815 43.785259 -10.454729 74.004723
16710000000 -4.4872885 140.63165 -49.572742 18.446218 -49.832142 6.7430248 -10.235004 71.835625
16720000000 -4.3970385 139.2912 -50.249409 -5.6085925 -50.729198 -15.364381 -10.042351 70.438774
16730000000 -4.246172 138.13615 -51.029663 -32.234806 -51.256462 -44.091782 -9.8691874 69.037292
16740000000 -4.1112962 136.8624 -51.462368 -48.955357 -52.420822 -60.916687 -9.7618408 67.445854
16750000000 -3.9415514 135.60332 -51.037003 -70.82325 -52.619888 -80.304489 -9.71066 66.101891
16760000000 -3.7828238 134.31926 -50.52137 -92.595551 -52.378956 -95.809952 -9.7188034 64.855858
16770000000 -3.607192 132.88585 -50.505878 -115.62487 -51.160202 -116.33413 -9.7749357 63.374321
16780000000 -3.4781892 131.66791 -50.061459 -143.0416 -51.085766 -143.92361 -9.8585396 61.512753
16790000000 -3.3407285 130.33746 -50.387794 -167.49342 -51.41885 -168.95103 -9.9345026 58.870583
16800000000 -3.2313771 129.1124 -50.39365 167.9632 -51.732395 169.2596 -9.9956427 55.576256
16810000000 -3.0981121 127.81231 -50.64542 143.94841 -51.785751 146.80603 -10.00727 52.099377
16820000000 -2.989692 126.32075 -51.124748 117.13684 -51.454311 121.35719 -9.9431143 48.753395
16830000000 -2.8646843 124.81115 -51.814163 95.009285 -51.97382 100.99153 -9.8042746 45.909634
16840000000 -2.7532656 123.28565 -52.788944 70.043343 -53.007568 78.106834 -9.6364231 43.538437
16850000000 -2.6213129 121.66567 -53.076904 60.557995 -52.538059 70.579681 -9.4970541 41.835495
16860000000 -2.515914 120.12772 -51.660465 35.172348 -51.006752 42.666752 -9.4162226 40.717648
16870000000 -2.3882847 118.68306 -51.838024 5.5518584 -51.362125 10.338208 -9.4529514 39.548138
16880000000 -2.2723622 117.32349 -52.08255 -22.119734 -51.712994 -15.652774 -9.618989 38.146534
16890000000 -2.1386957 115.89917 -53.579487 -47.374691 -52.533058 -40.477879 -9.8239937 35.967632
16900000000 -2.0407112 114.58833 -55.492367 -67.083511 -54.489201 -60.872833 -9.9955797 32.638165
16910000000 -1.9276085 113.1279 -56.209862 -73.895432 -54.673267 -72.318054 -10.101384 28.506155
16920000000 -1.8592705 111.67649 -55.586136 -88.423203 -53.710567 -90.104233 -10.132874 24.126072
16930000000 -1.7697423 110.19617 -54.054619 -107.5995 -52.831902 -114.63625 -10.106795 20.267368
16940000000 -1.7010566 108.60558 -53.159378 -143.08054 -52.516354 -146.59279 -10.0537 16.740973
16950000000 -1.6107544 106.97607 -54.869263 -170.03705 -54.015915 -172.9863 -10.004992 13.611444
16960000000 -1.5312366 105.33627 -55.695202 171.40736 -54.328911 165.53339 -10.002221 10.659563
16970000000 -1.4328084 103.70357 -55.91095 153.825 -54.691788 140.60411 -10.033369 8.0087309
16980000000 -1.3479038 102.08863 -55.90591 135.02924 -55.173317 120.18379 -10.156551 5.3296208
16990000000 -1.2521719 100.49847 -55.661072 108.44672 -55.893158 98.499802 -10.335406 2.5784035
17000000000 -1.171749 98.997856 -55.787365 91.53215 -56.543354 78.213615 -10.582105 -0.88580114
