!Keysight Technologies,P9374A,MY57211807,A.19.30.04
!Date: Friday, May 08, 2026 15:18:07
!Correction: S11(C  2-Port  ) 
!S21(C  2-Port  ) 
!S12(C  2-Port  ) 
!S22(C  2-Port  ) 
!S2P File: Measurements: S11, S21, S12, S22:
# Hz S  dB   R 50
13000000000 -18.381285 55.283398 -42.01012 111.81586 -42.044537 110.81763 -10.164415 -17.609589
13010000000 -18.974182 53.975044 -41.057648 86.327934 -41.071171 84.740479 -10.495057 -18.862488
13020000000 -19.861315 55.960255 -40.914692 58.841801 -40.963028 57.856068 -10.813004 -19.935888
13030000000 -20.151569 62.047291 -41.35656 33.387108 -41.278397 31.963438 -11.088081 -20.852509
13040000000 -20.274157 65.330223 -42.272465 12.065309 -42.166908 9.5728626 -11.404074 -21.396006
13050000000 -19.554811 69.407127 -42.393688 -5.7782779 -42.500221 -7.1796627 -11.739659 -21.927916
13060000000 -19.119448 65.869247 -42.036922 -22.812422 -41.897804 -22.413353 -12.207605 -22.583628
13070000000 -18.96769 61.947834 -41.288765 -44.078594 -40.903667 -46.485752 -12.674126 -23.003939
13080000000 -19.318401 58.208916 -40.999878 -70.399567 -40.930588 -74.359024 -13.038462 -24.101925
13090000000 -19.535685 56.276421 -41.043446 -95.071938 -41.282959 -97.014656 -13.366091 -25.256157
13100000000 -20.157986 56.369915 -41.364422 -118.19672 -41.433502 -118.5979 -13.619035 -26.007408
13110000000 -20.22356 60.629765 -41.628254 -137.97386 -41.662285 -138.98627 -13.932287 -26.236214
13120000000 -20.084291 62.791889 -41.77206 -160.17596 -41.614891 -160.20905 -14.359649 -26.1915
13130000000 -19.505756 64.184402 -41.708008 178.95929 -41.347824 177.0123 -14.865993 -25.661966
13140000000 -19.216831 64.181953 -41.584824 155.61861 -41.655346 151.73344 -15.294723 -25.434771
13150000000 -18.924953 61.275761 -42.315048 135.37065 -42.709583 132.75807 -15.62605 -25.761833
13160000000 -19.281805 60.969902 -42.14753 118.70388 -42.151669 118.95293 -15.941978 -25.523075
13170000000 -19.090633 59.243011 -41.873402 97.832275 -41.52998 97.023048 -16.305431 -24.634398
13180000000 -19.423018 57.334755 -41.082703 76.480125 -41.090984 73.769958 -16.871771 -22.85033
13190000000 -19.253487 56.368519 -40.78054 48.735023 -40.915531 46.813137 -17.612452 -20.364202
13200000000 -19.415854 53.388184 -41.329926 23.735811 -41.481701 22.5802 -18.345312 -18.120987
13210000000 -19.714872 53.009186 -42.614582 5.6312819 -42.304371 6.214591 -19.006311 -16.952181
13220000000 -19.674173 53.389221 -41.742134 -10.145896 -41.52615 -13.62634 -19.43642 -15.731514
13230000000 -19.680622 54.413063 -41.497112 -33.028164 -41.592033 -35.891899 -19.730139 -13.164968
13240000000 -19.423824 55.82309 -41.147354 -54.587795 -41.176907 -56.213829 -19.946596 -8.0256805
13250000000 -18.925709 54.988476 -41.027973 -78.381012 -41.201015 -80.651794 -20.150625 -0.21793015
13260000000 -18.701303 52.31979 -41.118874 -103.57291 -41.30138 -103.78493 -20.446098 8.8185816
13270000000 -18.673691 47.719658 -41.393864 -124.09054 -41.400272 -124.9958 -20.601545 17.561094
13280000000 -19.094706 44.23653 -41.466911 -145.88921 -41.424519 -147.20229 -20.642307 24.987968
13290000000 -19.649015 41.969707 -41.294785 -165.65128 -41.294704 -167.35696 -20.31336 30.967466
13300000000 -20.270315 41.590725 -41.101307 170.47353 -41.279419 169.89467 -19.605312 34.859707
13310000000 -20.619408 43.584938 -41.110031 147.50641 -41.138935 147.44846 -18.69302 38.561115
13320000000 -20.297672 45.52457 -41.434608 123.59834 -41.075329 121.87272 -17.683577 42.707298
13330000000 -19.883284 44.009838 -41.727085 101.51265 -41.776569 99.426506 -16.677134 46.007347
13340000000 -19.474043 42.913845 -42.20752 80.251999 -42.285316 79.585449 -15.853226 48.162441
13350000000 -19.213041 38.268944 -41.984577 61.603928 -41.773277 60.86702 -15.100499 48.921207
13360000000 -19.418371 33.831768 -41.820049 37.235939 -41.817608 36.522251 -14.351062 47.680782
13370000000 -19.940702 30.827223 -42.195518 15.002606 -41.990471 13.83337 -13.488066 45.533619
13380000000 -20.474409 29.32789 -42.640717 -7.4564867 -42.432064 -9.3387728 -12.517033 43.183842
13390000000 -21.346958 30.055521 -43.210499 -25.995857 -43.00351 -28.370945 -11.609233 41.263897
13400000000 -21.325157 33.827713 -43.307899 -43.502193 -43.05558 -44.94973 -10.785758 39.996384
13410000000 -21.394279 31.039 -42.851822 -63.273014 -42.728592 -67.63475 -10.128887 38.352383
13420000000 -21.245192 32.653576 -42.882439 -86.01368 -42.636948 -89.37558 -9.6481133 35.788433
13430000000 -21.025995 26.587864 -42.548809 -107.60635 -42.402962 -112.36901 -9.2323952 32.409374
13440000000 -21.461226 24.20738 -43.000118 -129.32561 -43.174904 -134.49106 -8.823679 28.280575
13450000000 -21.41724 21.966957 -43.396942 -147.38248 -43.705193 -150.93327 -8.3602152 23.735029
13460000000 -21.861244 19.784615 -42.741547 -167.26849 -42.967152 -171.69542 -7.920342 19.399534
13470000000 -22.159569 18.68214 -42.797081 170.3419 -43.30402 166.23965 -7.5632606 15.390766
13480000000 -22.287271 18.080067 -42.803684 149.29721 -43.564915 146.26985 -7.3069601 11.418973
13490000000 -23.079136 14.855759 -42.361656 130.17509 -42.928925 130.33229 -7.1604061 7.4236302
13500000000 -23.449125 16.481218 -42.444115 106.13697 -42.779091 105.93552 -7.0831938 3.2642672
13510000000 -24.329468 17.133286 -42.61108 85.129066 -42.917519 85.079781 -7.0266175 -0.99630678
13520000000 -24.265612 21.538654 -41.970806 67.024704 -42.379093 66.210808 -7.0307717 -5.2744527
13530000000 -24.099283 19.153837 -41.693428 40.157173 -42.220909 41.654018 -7.088973 -9.4298038
13540000000 -23.595476 17.565823 -42.075348 18.184462 -42.267586 20.223717 -7.2175436 -13.657042
13550000000 -23.627455 10.713799 -42.212437 -1.0459962 -42.209621 -0.44699308 -7.4203801 -17.728491
13560000000 -23.938133 3.8018486 -41.517822 -23.06604 -41.680378 -22.581385 -7.6423087 -21.799536
13570000000 -25.925299 1.6952504 -41.539017 -48.652672 -41.757881 -46.141827 -7.8256779 -25.731752
13580000000 -26.484924 3.6167047 -41.838783 -71.688477 -41.750416 -68.716583 -8.0188465 -29.520853
13590000000 -28.601282 15.02041 -42.123508 -89.233665 -41.783905 -88.760056 -8.2445126 -32.93515
13600000000 -26.665024 24.983473 -41.707104 -111.98381 -41.590206 -110.7358 -8.5428991 -35.851765
13610000000 -26.161215 26.707701 -41.303211 -132.74521 -40.907608 -131.83203 -8.889678 -38.431458
13620000000 -25.229692 19.176252 -41.127548 -159.59631 -40.941055 -160.10468 -9.2994909 -41.247765
13630000000 -25.970037 12.713577 -40.873451 177.30788 -40.883667 176.67987 -9.7405071 -44.166294
13640000000 -26.4056 2.5615587 -41.35746 149.79712 -41.427116 151.55362 -10.206559 -47.423721
13650000000 -29.336494 -0.637375 -42.123165 128.03545 -41.452057 130.0992 -10.661207 -50.463242
13660000000 -30.108603 8.6814766 -42.455311 110.33373 -41.972855 109.01723 -11.087337 -53.288876
13670000000 -31.139874 21.01948 -42.361664 86.605164 -41.705463 86.616653 -11.526377 -55.684978
13680000000 -29.030313 31.573959 -42.255169 67.101845 -41.732906 63.613564 -11.986855 -57.620564
13690000000 -27.421007 29.080921 -42.104637 42.262928 -41.869354 39.334347 -12.502427 -59.47047
13700000000 -26.587147 23.100674 -42.16124 17.391485 -42.195526 16.360872 -13.139165 -61.438953
13710000000 -26.891006 18.35261 -43.23365 -7.7365518 -42.610619 -6.5068727 -13.819725 -63.133823
13720000000 -27.318462 12.171656 -43.583363 -24.295685 -42.921085 -27.310022 -14.470984 -65.15387
13730000000 -29.435244 14.848422 -43.400963 -45.593178 -43.016151 -49.637985 -15.187619 -66.817146
13740000000 -29.657228 20.007364 -43.370838 -69.420792 -42.994308 -71.861794 -15.896069 -67.950111
13750000000 -30.467596 28.050344 -44.105392 -90.704636 -43.304111 -95.014511 -16.788641 -68.981911
13760000000 -28.751486 28.24399 -43.807735 -113.45189 -43.526402 -119.97763 -17.947914 -69.299614
13770000000 -29.571671 24.469809 -44.723152 -134.90726 -44.57 -140.86839 -19.195463 -70.141525
13780000000 -28.400331 24.504562 -44.747456 -156.22748 -44.73032 -161.23827 -20.523026 -72.148964
13790000000 -28.337751 18.996305 -44.668896 -173.97772 -44.936237 -178.88022 -21.862909 -74.369926
13800000000 -28.160458 16.648857 -44.804703 160.91957 -44.846302 160.00204 -23.153454 -74.899094
13810000000 -27.389648 16.820417 -44.904083 141.32762 -44.71965 137.22467 -24.686525 -71.384941
13820000000 -26.872454 6.0211768 -45.114849 115.97135 -45.052204 110.556 -26.646944 -61.88633
13830000000 -27.759163 4.9272337 -45.973858 94.576599 -46.25531 88.550873 -29.06826 -45.18309
13840000000 -27.76041 -5.3277378 -46.077412 80.803833 -46.714314 73.076752 -31.028378 -14.337949
13850000000 -30.309256 0.070761561 -45.460793 55.705116 -46.610352 53.924271 -30.222826 18.310591
13860000000 -30.708536 4.9795074 -45.994827 33.582253 -46.44759 33.20673 -27.764809 37.013542
13870000000 -29.942354 19.323172 -46.254265 10.309427 -46.524055 10.684591 -25.236118 44.746304
13880000000 -27.968771 13.644186 -46.282616 -7.3885536 -46.604282 -8.7529039 -22.977926 48.28545
13890000000 -26.564684 6.3629775 -45.754299 -33.058273 -46.232868 -36.308109 -20.894175 49.838776
13900000000 -25.931927 -11.542303 -46.604343 -60.98473 -47.504665 -61.726154 -19.221025 50.050388
13910000000 -26.743208 -19.67066 -47.489052 -76.039162 -48.210499 -76.168633 -17.886469 49.852074
13920000000 -27.063496 -35.7663 -47.060822 -100.81186 -47.572063 -100.19944 -16.724039 48.173836
13930000000 -30.819712 -45.12566 -47.589367 -123.33248 -48.506569 -122.10155 -15.724607 45.194885
13940000000 -33.269623 -31.504747 -48.116264 -142.72484 -48.835869 -134.35405 -14.703504 41.787178
13950000000 -33.534184 -13.605189 -47.629009 -164.47856 -47.363663 -161.12933 -13.691688 38.039829
13960000000 -31.165541 -5.7792654 -48.177017 168.92575 -48.376362 169.0737 -12.7318 34.619759
13970000000 -28.472538 -15.729345 -49.410362 142.51973 -49.492226 143.29074 -11.882244 31.584806
13980000000 -27.49239 -35.373722 -50.124363 118.27208 -51.002293 123.57524 -11.164381 28.3036
13990000000 -27.134335 -51.59972 -51.268631 98.662727 -51.851818 104.98048 -10.578857 24.494577
14000000000 -27.343174 -70.138756 -53.563286 76.516441 -53.346561 87.305527 -10.118576 20.293215
14010000000 -28.283609 -79.909554 -54.769588 70.337463 -54.680393 81.86068 -9.7365828 15.643289
14020000000 -29.567816 -86.786331 -53.769104 58.398212 -52.271969 66.213341 -9.3641653 10.70834
14030000000 -32.366173 -83.600067 -54.788868 33.794785 -52.877586 36.123871 -9.0717268 5.6068339
14040000000 -31.935444 -64.325279 -57.438171 20.329218 -55.75626 13.28911 -8.8484983 0.49677518
14050000000 -30.003103 -63.681667 -54.81855 19.073914 -54.250656 18.09679 -8.6741381 -4.6250558
14060000000 -29.817881 -70.448509 -54.953487 -21.254612 -54.276882 -12.269816 -8.5787487 -9.7332344
14070000000 -28.84915 -76.412346 -58.475426 -35.532585 -55.857861 -27.855291 -8.5311193 -15.065029
14080000000 -29.285252 -96.313705 -59.809231 -8.6138086 -56.804394 -34.471741 -8.5291367 -20.341009
14090000000 -30.353987 -98.466026 -54.715794 -22.826744 -54.241333 -36.702068 -8.5683908 -25.430513
14100000000 -29.170584 -113.75682 -52.692112 -54.965263 -51.725376 -64.329514 -8.6509066 -30.212816
14110000000 -30.520664 -118.83691 -52.30719 -73.497345 -52.03476 -89.293152 -8.7834368 -34.574978
14120000000 -29.065626 -124.581 -50.764439 -96.091476 -51.381397 -109.46246 -9.0055256 -38.874046
14130000000 -29.229053 -130.47313 -51.024456 -124.31353 -52.061615 -134.62143 -9.3153658 -43.230186
14140000000 -28.759863 -135.94566 -51.751305 -143.55829 -51.682991 -147.55898 -9.6673307 -47.836395
14150000000 -29.802053 -140.37784 -50.190639 -163.02504 -50.334419 -171.88541 -10.002027 -52.652298
14160000000 -30.104061 -137.37352 -49.862495 173.55962 -50.893177 164.55811 -10.32862 -57.194855
14170000000 -30.518202 -131.19368 -50.296169 154.25391 -51.603756 144.39148 -10.644585 -61.197834
14180000000 -29.345276 -130.6769 -49.389233 135.28168 -50.678402 132.23085 -11.060007 -64.966576
14190000000 -27.64263 -134.82985 -48.303932 110.65086 -49.340267 108.57739 -11.592444 -68.679497
14200000000 -26.488703 -148.6479 -47.580444 85.118324 -49.050743 81.886368 -12.203521 -72.726349
14210000000 -26.625753 -159.39211 -47.842648 53.103783 -49.605034 53.990517 -12.828374 -77.391212
14220000000 -26.59428 -170.42084 -48.908161 30.458006 -50.390018 36.053059 -13.409665 -82.502708
14230000000 -27.920525 -179.9993 -49.332157 11.863355 -50.527813 21.151476 -13.970618 -87.28862
14240000000 -29.80448 -177.14226 -49.257145 -7.8813691 -49.874371 0.34595972 -14.562509 -91.788582
14250000000 -30.208889 -163.10733 -49.74963 -29.066277 -49.708637 -21.455412 -15.276766 -96.471352
14260000000 -29.089783 -153.34534 -49.735168 -48.433903 -50.171085 -41.831963 -16.090805 -101.89057
14270000000 -26.734072 -153.60991 -48.758095 -68.917801 -48.679562 -64.639252 -16.932619 -108.40991
14280000000 -26.037432 -166.39178 -48.408741 -97.034485 -48.872375 -86.772568 -17.735476 -115.23193
14290000000 -25.718315 -173.80406 -50.028122 -122.8746 -49.32729 -111.95304 -18.475323 -121.75839
14300000000 -26.448713 171.40224 -50.780155 -134.81213 -49.372032 -126.23884 -19.320776 -127.97884
14310000000 -28.020683 168.70738 -50.198483 -154.82065 -48.603592 -148.95393 -20.422333 -135.16444
14320000000 -29.268061 163.52016 -50.114239 -178.60454 -48.435539 -178.54311 -21.74299 -145.20743
14330000000 -30.142698 -178.95366 -51.127941 166.58928 -49.91468 164.43965 -22.996754 -160.35971
14340000000 -29.052015 -176.21561 -50.684139 147.66245 -49.52747 147.73831 -23.675154 -178.77086
14350000000 -27.322124 -171.84157 -50.410095 135.70145 -49.369217 131.40573 -23.337643 163.72458
14360000000 -26.669653 179.64761 -48.930027 112.84077 -47.968494 110.67564 -22.51948 148.88243
14370000000 -26.321894 175.23187 -48.668144 84.924728 -47.466717 82.452591 -21.716967 137.0316
14380000000 -27.108213 164.26859 -48.965908 57.998646 -47.297955 53.279984 -21.034275 126.57751
14390000000 -28.296583 168.77827 -50.597942 39.198055 -48.81916 25.410971 -20.373829 116.71798
14400000000 -29.014561 166.92502 -50.139393 33.40588 -50.119408 18.597 -19.551241 106.55744
14410000000 -29.08378 174.20532 -48.244034 16.051865 -48.92992 2.4052074 -18.658676 97.637032
14420000000 -28.938406 174.48784 -47.662006 -12.639504 -48.556129 -21.31418 -17.617838 90.090935
14430000000 -27.768373 175.04323 -47.147526 -35.439983 -47.854416 -42.743587 -16.650345 83.810898
14440000000 -28.051018 170.39708 -46.829029 -64.591576 -47.59322 -71.15583 -15.813916 78.478958
14450000000 -27.472891 174.06383 -47.091911 -83.374908 -48.398293 -89.30294 -15.057879 73.26976
14460000000 -27.650099 172.11453 -47.107948 -110.14132 -48.496811 -112.93205 -14.399252 68.138573
14470000000 -27.17754 175.52451 -47.021408 -132.09827 -47.86515 -132.70287 -13.793238 63.249241
14480000000 -26.672237 177.18121 -47.562927 -155.80099 -48.577404 -155.44542 -13.257629 59.095028
14490000000 -26.526066 170.54726 -47.376301 -175.26485 -48.706608 -172.18094 -12.807634 55.037529
14500000000 -27.133341 173.60602 -47.290321 165.07265 -48.108906 167.91768 -12.434359 50.812214
14510000000 -27.458508 168.23383 -46.911808 139.9288 -47.605564 144.83131 -12.13865 45.789177
14520000000 -29.025562 -178.44922 -47.586987 117.28233 -48.051025 123.89532 -11.841889 40.21645
14530000000 -27.418627 -176.11511 -47.620712 96.594429 -47.247288 104.43977 -11.472786 34.657757
14540000000 -26.388868 -169.92714 -47.526871 80.822838 -46.985924 84.132912 -11.104174 29.750238
14550000000 -24.453089 -178.06656 -46.578712 54.38623 -46.151909 55.890518 -10.774525 25.549061
14560000000 -24.248598 175.29881 -46.54314 31.088673 -46.575459 33.399471 -10.585077 21.613068
14570000000 -23.985138 166.50461 -46.794601 5.1666498 -46.80204 10.885804 -10.510267 17.594601
14580000000 -24.950674 163.98793 -47.465588 -14.001767 -46.762878 -7.6087823 -10.546469 12.959127
14590000000 -26.337763 164.22725 -47.199787 -31.371458 -46.084953 -26.819347 -10.603245 8.1883373
14600000000 -26.359385 -177.40872 -46.553032 -54.848839 -45.405815 -52.218578 -10.696017 3.1543601
14610000000 -24.772247 -175.9071 -46.20229 -79.429398 -44.976013 -77.242554 -10.849769 -1.4318538
14620000000 -23.342411 -172.98866 -46.519493 -105.57183 -44.710045 -105.547 -11.065625 -5.7957473
14630000000 -22.067804 177.4527 -46.515522 -125.04619 -44.918266 -129.40724 -11.316844 -10.324444
14640000000 -21.89817 169.97711 -46.568108 -150.54968 -45.430004 -156.00128 -11.584132 -15.59986
14650000000 -22.184013 161.58472 -46.402237 -171.53082 -45.422543 -174.71989 -11.917635 -20.472719
14660000000 -22.945166 159.10303 -46.712547 163.64362 -45.179611 158.39568 -12.235703 -24.425793
14670000000 -24.061066 161.20071 -46.639343 143.85951 -45.160679 134.84607 -12.574352 -27.19475
14680000000 -23.47258 168.69438 -46.319778 122.05439 -45.225182 111.84331 -12.998114 -29.54771
14690000000 -22.854546 172.207 -45.653206 97.195183 -44.808193 88.649414 -13.62768 -31.824194
14700000000 -21.369181 171.41763 -45.893688 69.888161 -44.935501 58.419361 -14.432134 -34.248039
14710000000 -20.967522 165.66235 -47.081074 43.273373 -46.153511 26.856939 -15.411879 -36.817039
14720000000 -20.61993 161.04961 -47.01255 27.228069 -47.257908 11.223555 -16.363882 -39.292526
14730000000 -20.962597 155.70052 -46.548935 5.9486122 -47.32354 -9.4069872 -17.376196 -42.135399
14740000000 -21.228275 153.17191 -46.142586 -19.675661 -46.325989 -32.564919 -18.367702 -44.670101
14750000000 -21.561922 152.46146 -46.657524 -47.815186 -47.385559 -62.545868 -19.370363 -46.457706
14760000000 -21.362188 152.66071 -46.312634 -69.250465 -47.205631 -82.786369 -20.261217 -45.545345
14770000000 -21.337835 151.22429 -46.18755 -93.268517 -47.41935 -109.96521 -21.004105 -43.313232
14780000000 -20.857985 150.1597 -46.266575 -121.51427 -48.046032 -138.66733 -21.975731 -38.184444
14790000000 -20.890442 148.01726 -46.660007 -146.93393 -49.587719 -161.64995 -22.992334 -30.487328
14800000000 -20.57239 148.97949 -46.61034 -169.03725 -49.538731 -175.9534 -24.013687 -19.975811
14810000000 -20.314507 148.04118 -46.345642 163.52112 -48.983757 156.31444 -24.661116 -8.6063509
14820000000 -19.726753 146.45267 -46.778122 134.13847 -50.135319 130.20265 -24.725859 2.1039782
14830000000 -19.720425 141.71725 -47.45026 108.09306 -50.070641 110.94928 -24.315506 11.073594
14840000000 -19.815138 136.43614 -48.030899 81.897423 -50.322765 80.223808 -23.626171 18.609221
14850000000 -20.528614 132.61394 -48.090996 62.441296 -50.951283 60.537388 -22.772459 24.182146
14860000000 -21.23839 131.12988 -47.644417 33.312881 -51.34016 38.203915 -22.101803 28.025606
14870000000 -22.004976 132.74434 -47.429535 0.97982812 -50.376789 9.1295013 -21.571466 29.900751
14880000000 -21.889261 137.1805 -48.128014 -30.151447 -50.915359 -26.224892 -21.029699 28.594627
14890000000 -20.851522 138.76126 -50.000549 -64.281509 -53.909046 -51.582325 -20.191935 25.779175
14900000000 -19.845739 133.65143 -51.316086 -86.013367 -54.733448 -63.962872 -19.179485 22.861729
14910000000 -19.504292 127.38177 -51.71785 -102.62696 -53.463825 -82.551575 -18.203049 22.005697
14920000000 -19.68306 118.52344 -51.454643 -127.89692 -52.659019 -113.25064 -17.469872 22.758057
14930000000 -20.669916 115.97081 -50.074802 -151.14854 -51.849525 -136.29305 -17.030066 23.668615
14940000000 -21.668232 113.76204 -50.219883 168.72147 -51.667675 -174.15581 -16.879457 23.327789
14950000000 -22.679525 122.63067 -50.644264 135.42101 -52.39249 151.06534 -16.904329 21.131723
14960000000 -22.368162 126.20203 -52.460052 105.9515 -54.193012 125.79761 -16.884281 17.88521
14970000000 -21.642969 131.35178 -51.816296 81.996689 -52.651833 104.08125 -16.77239 15.085885
14980000000 -21.030386 123.2786 -52.574127 44.40749 -54.017921 69.678864 -16.618372 12.462341
14990000000 -21.08597 119.65652 -53.568237 19.679728 -53.233807 43.017223 -16.599764 10.327892
15000000000 -21.590839 110.09893 -55.815208 7.1076984 -54.079472 26.610575 -16.678997 7.3557305
15010000000 -22.708145 109.38113 -53.087952 -15.697629 -51.845802 -4.0275602 -16.817312 3.7821357
15020000000 -23.70785 107.38849 -51.547039 -47.082851 -50.993244 -38.605484 -16.700783 0.066206299
15030000000 -23.996176 116.36176 -51.798958 -85.401276 -51.844505 -70.528313 -16.548853 -2.299242
15040000000 -23.768518 115.49694 -52.277756 -109.22829 -51.089436 -96.004616 -16.408752 -2.4240766
15050000000 -23.306692 120.64774 -51.926826 -140.23776 -51.233299 -125.66154 -16.471121 -1.3409489
15060000000 -23.115494 116.79115 -51.660244 -164.62483 -50.18668 -152.63742 -16.843521 -0.49545163
15070000000 -23.316162 116.45907 -53.054214 163.57629 -51.140659 175.16115 -17.438227 -1.3549167
15080000000 -24.0292 116.18063 -53.02589 145.22685 -50.628506 150.58279 -18.140385 -3.4978931
15090000000 -23.925434 119.06583 -53.71019 120.62779 -50.975986 122.80996 -18.657658 -6.2258039
15100000000 -24.463585 118.96121 -52.206463 113.42322 -50.820122 107.14584 -18.85993 -7.7956433
15110000000 -24.147392 120.44189 -50.697826 84.57122 -49.610481 80.659531 -18.904268 -9.161478
15120000000 -24.783298 118.23989 -50.330589 55.421398 -49.142319 51.045887 -19.094294 -8.9192085
15130000000 -24.78614 117.16451 -49.421623 31.118292 -48.410454 27.263601 -19.283236 -8.5144548
15140000000 -26.076109 120.44622 -49.655239 1.1766078 -48.520626 -3.3193336 -19.378735 -7.8240047
15150000000 -25.083307 129.86868 -48.716156 -17.308575 -48.162231 -25.952322 -19.39085 -7.1191602
15160000000 -24.517393 131.01973 -48.236542 -47.552208 -47.7509 -57.103233 -19.367928 -5.3549562
15170000000 -23.166998 131.12285 -48.067463 -74.754997 -48.089672 -84.858452 -19.33831 -2.8975658
15180000000 -22.700705 124.93568 -49.227753 -102.80663 -49.740372 -112.91969 -19.528866 -0.96108586
15190000000 -22.60705 118.87225 -48.851295 -116.97106 -49.715996 -121.99263 -19.848852 -0.28827813
15200000000 -24.211895 115.39281 -47.569046 -137.84773 -48.472473 -143.21208 -20.211752 -0.99059528
15210000000 -24.543581 119.90253 -46.456593 -165.23134 -47.182579 -167.18726 -20.472862 -3.6359603
15220000000 -25.856241 128.89192 -46.333553 159.32059 -46.793629 157.5681 -20.64151 -6.5490322
15230000000 -23.920654 137.43965 -46.814693 135.69493 -47.224987 133.3098 -20.52647 -8.8107567
15240000000 -23.12145 135.64534 -47.241779 110.35062 -47.768181 107.24778 -20.297966 -11.416179
15250000000 -21.791798 129.77654 -47.164177 86.779472 -47.920204 81.785492 -20.218344 -14.628949
15260000000 -21.896494 120.89384 -46.91468 61.890884 -48.326595 61.134388 -20.259224 -16.559307
15270000000 -22.215452 115.72955 -47.119106 37.111244 -48.289776 37.096062 -20.408052 -17.76696
15280000000 -23.007618 111.01784 -47.075214 11.958717 -48.171577 13.905626 -20.71792 -17.247187
15290000000 -23.744724 113.41407 -47.58363 -10.480201 -48.132668 -8.8856592 -21.266867 -17.923416
15300000000 -24.013235 118.36837 -47.163864 -32.795723 -47.549538 -30.175653 -22.332514 -20.098728
15310000000 -23.383707 121.64821 -46.760735 -63.755444 -47.345493 -62.256847 -23.65604 -25.54911
15320000000 -22.723618 120.81437 -47.676075 -92.587898 -48.251816 -90.539261 -25.134439 -33.111393
15330000000 -22.352615 119.08949 -49.264915 -117.19028 -49.451187 -114.63612 -26.097111 -42.093952
15340000000 -22.175764 113.00054 -49.434811 -132.21809 -50.08445 -134.94612 -26.903185 -50.915173
15350000000 -22.498394 111.87133 -49.125462 -154.40096 -50.207054 -152.03877 -28.132376 -59.610096
15360000000 -22.52956 106.02854 -49.695786 178.50896 -50.720882 -174.71373 -30.431089 -72.395752
15370000000 -23.474335 105.9993 -49.911415 159.47923 -50.309792 166.61969 -33.152748 -90.584091
15380000000 -23.074009 101.44595 -50.307034 135.67116 -50.286442 143.01125 -35.324734 -114.79335
15390000000 -24.2537 100.36391 -50.806229 112.70964 -50.395969 116.91683 -36.745598 -142.59756
15400000000 -24.48085 98.930305 -51.049229 97.398933 -50.7225 96.105515 -35.983997 176.12738
15410000000 -24.90794 101.88969 -50.79821 69.212692 -51.052025 69.290398 -31.973606 142.42242
15420000000 -25.164186 102.12443 -51.35463 42.199783 -51.968647 44.833447 -27.773405 132.09981
15430000000 -24.524101 105.60164 -55.08268 23.909842 -55.66116 31.252872 -24.571875 129.59782
15440000000 -24.160395 99.84774 -54.394463 17.464598 -53.747345 28.71217 -22.601179 129.01257
15450000000 -23.996025 96.160393 -52.981659 2.2750192 -51.661469 6.9635143 -21.567448 128.18088
15460000000 -24.3944 85.034821 -52.988243 -23.75885 -51.584808 -22.001974 -21.140793 125.49306
15470000000 -25.66917 80.280365 -52.016979 -39.485329 -50.879482 -41.05616 -20.704449 121.02686
15480000000 -27.430214 72.416992 -50.935059 -68.600403 -49.771389 -72.571587 -20.008247 115.32346
15490000000 -30.276161 79.742928 -52.737156 -104.92506 -51.927467 -109.20602 -19.04895 110.33035
15500000000 -30.722931 92.649017 -54.63554 -115.73702 -53.436436 -115.72938 -18.078659 105.56604
15510000000 -29.248753 101.19894 -54.372898 -120.94234 -53.10387 -132.78258 -17.281342 101.68492
15520000000 -28.55677 95.180031 -53.450081 -144.13835 -52.952591 -151.1355 -16.594709 98.333191
15530000000 -27.52717 88.65789 -53.138779 -168.79077 -51.880405 -172.77312 -15.900933 95.549217
15540000000 -28.687408 69.047142 -52.773521 -174.14888 -51.794201 169.86775 -15.288467 93.252235
15550000000 -30.892693 63.675293 -50.356983 156.71892 -50.407558 141.46469 -14.717618 91.615952
15560000000 -34.362625 42.257942 -50.116589 123.15276 -50.527515 109.1938 -14.315014 89.956963
15570000000 -42.731136 77.797348 -51.170391 93.26722 -51.535801 81.586472 -14.032888 88.067131
15580000000 -44.32024 97.331062 -52.259411 73.791862 -53.01844 61.918179 -13.818915 85.742683
15590000000 -38.869041 127.97686 -52.511551 49.762035 -52.796249 43.840874 -13.608273 82.772102
15600000000 -41.838623 100.29015 -53.050266 32.856472 -52.96048 22.720346 -13.341766 79.111992
15610000000 -42.822441 125.82445 -53.310417 14.688568 -53.923225 3.9296761 -13.051425 74.945534
15620000000 -65.489372 20.557274 -52.059994 -6.5416484 -53.141838 -15.021315 -12.700883 70.896301
15630000000 -42.912224 -149.50166 -52.478561 -35.549732 -52.830318 -43.395054 -12.335311 67.432259
15640000000 -41.794243 -123.86954 -52.985531 -50.382496 -53.568367 -62.2075 -11.917461 65.020554
15650000000 -36.944756 -147.10692 -51.198689 -75.967354 -52.668388 -77.936256 -11.515127 63.203716
15660000000 -37.662678 -132.16899 -50.809361 -108.84251 -51.607857 -112.53873 -11.210587 61.396156
15670000000 -34.75832 -134.50891 -52.228233 -142.53737 -53.629795 -146.75998 -11.063685 59.033638
15680000000 -31.932642 -123.44041 -55.054569 -160.01122 -55.994625 -160.42418 -11.028075 56.079365
15690000000 -29.426266 -136.55096 -55.414436 -174.60806 -55.7388 -174.6489 -10.963793 52.306259
15700000000 -28.098471 -140.7946 -55.046638 173.85571 -56.194305 168.98064 -10.88502 48.259411
15710000000 -27.893612 -152.9124 -52.956295 146.56062 -54.304226 148.09279 -10.737678 44.467453
15720000000 -28.082012 -153.83044 -52.989433 121.66811 -54.370899 130.13432 -10.574363 40.746243
15730000000 -29.270607 -152.44409 -52.586834 90.529251 -53.237595 100.89474 -10.461356 36.630386
15740000000 -28.571009 -140.62184 -53.057423 54.477543 -53.404438 64.503723 -10.330126 32.170506
15750000000 -27.516197 -135.95839 -54.986607 27.317488 -54.740749 36.50864 -10.158122 27.648865
15760000000 -25.357372 -135.60559 -58.30864 5.9457436 -58.14045 19.388939 -9.9455109 23.608557
15770000000 -24.298325 -143.62306 -57.392052 0.17249112 -57.079334 8.7653017 -9.7913427 20.460407
15780000000 -23.696997 -150.9754 -57.170807 -17.924726 -56.483952 -6.7999759 -9.8059044 17.731827
15790000000 -24.119675 -158.61693 -55.833729 -44.818333 -54.427643 -37.012756 -10.029139 14.492513
15800000000 -24.4541 -158.83655 -56.746021 -79.720871 -55.550491 -68.848679 -10.381742 9.7238436
15810000000 -25.063847 -155.98824 -56.684143 -109.67811 -55.277672 -103.6848 -10.729913 3.3183985
15820000000 -24.167051 -148.89163 -57.832439 -134.62468 -56.069607 -118.53303 -10.982112 -4.1358838
15830000000 -23.313757 -147.42627 -59.503674 -167.99188 -56.589577 -154.0873 -11.091096 -11.141207
15840000000 -22.120176 -147.44313 -61.763008 168.66281 -58.475281 178.09407 -11.182293 -17.258629
15850000000 -21.921024 -155.06403 -62.939922 162.58971 -59.263512 168.62402 -11.316266 -22.680269
15860000000 -21.898174 -155.12949 -61.125782 104.59608 -58.981682 123.10966 -11.553653 -28.081427
15870000000 -22.186914 -158.45453 -69.154114 86.203751 -64.60965 100.4992 -11.906592 -33.353291
15880000000 -22.457506 -154.60106 -67.597878 113.38186 -64.361877 88.784401 -12.385486 -38.58556
15890000000 -22.150133 -153.69739 -63.493694 61.685303 -62.768982 94.335197 -12.976967 -43.663425
15900000000 -21.459503 -152.52383 -66.055229 48.778385 -58.755764 60.899334 -13.754509 -49.194603
15910000000 -20.999781 -155.67456 -62.828785 4.4309502 -57.935345 4.8018165 -14.636763 -56.19582
15920000000 -20.507706 -157.69534 -64.410843 -58.092495 -58.816235 -45.936977 -15.564566 -65.33358
15930000000 -20.787064 -159.80025 -65.363731 -105.77387 -61.179806 -105.71316 -16.364035 -76.034904
15940000000 -20.566221 -157.42854 -66.875458 -109.4291 -66.102135 -109.31442 -16.873966 -87.324272
15950000000 -20.510582 -156.40407 -63.443859 -178.16182 -62.705044 -152.62891 -17.146269 -98.246048
15960000000 -19.856464 -153.64815 -63.673897 147.56241 -62.325386 163.88527 -17.407602 -107.86115
15970000000 -19.371998 -154.10596 -66.376549 120.42014 -66.389374 128.47479 -17.724411 -116.21409
15980000000 -19.035181 -155.42133 -62.400398 88.026726 -62.844517 121.73843 -18.211258 -124.04372
15990000000 -18.856653 -156.39275 -63.460033 62.02824 -60.779449 88.211533 -18.879725 -133.06607
16000000000 -18.999132 -158.21455 -60.825752 35.192314 -58.580494 57.013924 -19.674168 -144.80258
16010000000 -19.013565 -156.2216 -60.718361 19.411011 -57.549213 30.19556 -20.005302 -159.44073
16020000000 -18.794172 -155.42973 -57.723595 -13.250616 -55.606323 -10.870388 -19.644926 -174.25726
16030000000 -18.236641 -153.66089 -56.466549 -49.773865 -54.593754 -43.200016 -18.818359 174.24272
16040000000 -17.641621 -155.2196 -56.813354 -84.728958 -54.90802 -83.60183 -18.016205 165.87814
16050000000 -17.284973 -157.19305 -57.159332 -107.13017 -56.949757 -111.47322 -17.49868 159.6378
16060000000 -17.011723 -158.00201 -55.954025 -124.00465 -57.066788 -122.65247 -17.136126 153.74777
16070000000 -16.790644 -158.48239 -55.696648 -156.72867 -55.615208 -148.63902 -16.830765 147.73459
16080000000 -16.652214 -158.02461 -55.515236 171.35191 -54.074482 178.27623 -16.491308 141.65408
16090000000 -16.284941 -156.8604 -55.705162 146.15051 -53.992558 148.67175 -16.243752 136.13577
16100000000 -15.940275 -157.26453 -56.466034 123.74475 -55.194576 117.81676 -16.049458 130.74927
16110000000 -15.6421 -158.0441 -55.554012 101.39698 -54.806858 100.77508 -15.868709 124.34757
16120000000 -15.314702 -158.923 -54.620163 70.486961 -54.181355 70.096947 -15.544305 117.38461
16130000000 -15.174015 -160.34816 -55.052528 49.867008 -54.97686 49.282864 -14.998355 110.63189
16140000000 -15.011013 -160.1147 -53.458874 17.364082 -53.798229 16.976625 -14.338117 105.87407
16150000000 -14.662466 -160.88504 -52.843204 -19.747189 -53.388214 -17.332735 -13.783446 102.84824
16160000000 -14.232859 -160.93367 -55.498276 -63.385727 -57.04977 -53.124832 -13.475857 100.881
16170000000 -13.735007 -162.92415 -58.405994 -82.06234 -58.377644 -63.447876 -13.414142 98.206978
16180000000 -13.446174 -163.91437 -60.616016 -97.454453 -58.1329 -82.069435 -13.494537 94.632935
16190000000 -13.191599 -166.45174 -59.219944 -107.4753 -58.204605 -108.3731 -13.561356 89.895996
16200000000 -13.233916 -166.41936 -59.003361 -127.79097 -58.654022 -121.32996 -13.507981 84.959099
16210000000 -13.022515 -166.4778 -57.061024 -161.96896 -57.450764 -156.22963 -13.361606 80.007324
16220000000 -12.845666 -165.08597 -56.061436 152.16817 -57.282372 171.72787 -13.244844 75.240639
16230000000 -12.353106 -166.13643 -58.940716 110.98169 -58.460308 144.80836 -13.099536 70.305878
16240000000 -12.0495 -166.52638 -60.865795 67.365448 -59.961239 104.60337 -12.936321 65.236992
16250000000 -11.653363 -169.93181 -63.202934 25.095957 -61.428837 61.55447 -12.691875 60.749969
16260000000 -11.570405 -171.91515 -70.439255 -0.25544631 -65.930397 56.778847 -12.488787 57.317638
16270000000 -11.436078 -174.68614 -86.567574 29.900717 -67.337616 70.068489 -12.407688 54.61729
16280000000 -11.5165 -175.19284 -77.776985 1.0589617 -65.82592 57.486034 -12.543897 51.378757
16290000000 -11.232018 -175.3105 -72.857155 -41.266052 -63.492096 0.75878322 -12.91202 47.140526
16300000000 -11.020339 -175.04065 -67.702721 -110.57048 -62.924519 -52.181347 -13.280134 41.341518
16310000000 -10.541295 -175.94817 -64.585098 152.17097 -67.882935 -153.02347 -13.555708 34.213993
16320000000 -10.279587 -176.61493 -70.385361 120.22884 -77.807121 -127.17244 -13.746054 26.771841
16330000000 -9.9178953 -178.7995 -61.972336 98.971077 -71.248024 167.1637 -13.950536 19.802176
16340000000 -9.9001522 179.61324 -60.127079 62.239517 -64.487076 108.43913 -14.171085 13.060723
16350000000 -9.7650938 178.01514 -59.564377 13.787371 -64.496696 63.65213 -14.403692 6.402369
16360000000 -9.8180447 177.24931 -61.246647 -14.964895 -64.777847 32.40807 -14.644709 0.071363382
16370000000 -9.6371861 176.30698 -67.108742 -34.952045 -63.336124 29.925535 -14.98349 -5.7221088
16380000000 -9.4972925 175.4368 -59.375984 -32.658138 -59.022301 -18.876234 -15.587622 -11.501657
16390000000 -9.2355394 173.97173 -60.2141 -63.180092 -59.171604 -48.735207 -16.501772 -18.451252
16400000000 -9.0942087 173.01567 -55.952972 -91.055534 -56.890774 -77.945 -17.51944 -28.244818
16410000000 -8.8395462 171.55708 -56.142265 -141.26123 -58.010998 -113.59198 -18.296144 -41.34137
16420000000 -8.6554384 170.76665 -57.401726 -165.39871 -56.97987 -134.89719 -18.615391 -55.819038
16430000000 -8.4155016 169.39896 -60.33149 174.20898 -58.152515 -153.19171 -18.845768 -68.621239
16440000000 -8.2825823 168.61845 -56.851818 153.0757 -55.125679 175.34885 -19.076204 -79.404816
16450000000 -8.1181278 167.07372 -58.243481 128.59322 -56.016544 149.78366 -19.33638 -90.594597
16460000000 -8.074913 166.30466 -59.520168 110.01427 -55.634834 128.02315 -19.362255 -102.81848
16470000000 -8.0093794 165.05505 -57.622375 101.4021 -54.394657 100.94689 -19.243568 -114.11355
16480000000 -7.9762444 164.60892 -57.002422 70.528633 -54.610798 75.726509 -19.152395 -123.91033
16490000000 -7.8398404 163.85431 -54.85569 47.739532 -53.136162 52.443909 -19.218512 -134.19174
16500000000 -7.6450481 163.55592 -54.571583 8.3810644 -52.510532 16.135292 -19.128012 -146.50917
16510000000 -7.3451014 161.79988 -55.421352 -26.217848 -53.260128 -16.684662 -18.59551 -159.92909
16520000000 -7.1443267 160.42899 -58.08691 -55.224812 -55.551945 -38.770638 -17.661358 -170.14519
16530000000 -6.9658356 158.16412 -60.254856 -57.789692 -54.805603 -52.534431 -16.716543 -176.53387
16540000000 -6.9518838 157.10031 -59.041912 -62.797424 -54.806515 -80.394028 -16.139812 179.75911
16550000000 -6.8944225 156.10234 -56.162151 -89.603371 -53.906506 -103.36585 -15.819803 176.26883
16560000000 -6.863173 156.30983 -54.296963 -114.35789 -52.896912 -123.30075 -15.647388 171.40315
16570000000 -6.6975594 156.05888 -53.971642 -159.54741 -52.460815 -163.68579 -15.424459 165.62788
16580000000 -6.4645972 156.06973 -55.649471 168.12988 -53.4561 161.65392 -15.0973 159.61569
16590000000 -6.1939864 154.51404 -58.202724 135.25037 -55.089897 131.32146 -14.74737 154.37828
16600000000 -6.0373363 152.8537 -59.694008 133.58725 -56.466858 119.37275 -14.46595 149.66269
16610000000 -5.9204278 150.7594 -59.014259 115.2878 -56.18182 100.49306 -14.225996 144.62366
16620000000 -5.9033213 149.38333 -59.036545 98.437149 -55.244343 72.70417 -13.962014 139.86615
16630000000 -5.8212538 148.24234 -58.122501 80.040565 -55.556477 43.921715 -13.499713 136.0439
16640000000 -5.7285156 147.86632 -56.426598 45.130852 -56.300743 10.661562 -12.990414 133.00034
16650000000 -5.5014839 147.36996 -56.623116 15.782061 -57.99374 -11.866117 -12.640449 130.76471
16660000000 -5.2706161 146.68242 -56.66922 -11.409655 -57.912361 -26.510927 -12.503347 128.84874
16670000000 -5.012578 145.48674 -58.274128 -50.236317 -56.983788 -67.603661 -12.576835 126.15637
16680000000 -4.8576155 144.06073 -58.380352 -59.489693 -58.806446 -97.432793 -12.692714 122.3763
16690000000 -4.7267852 142.79175 -58.891552 -100.66615 -59.660812 -127.99182 -12.762589 117.69345
16700000000 -4.6587968 141.51714 -63.652611 -109.33361 -64.682457 -175.37193 -12.692844 112.96767
16710000000 -4.5401187 140.55769 -60.359432 -110.46686 -70.683548 -158.69138 -12.479592 108.79183
16720000000 -4.4295144 139.50664 -57.962162 -133.91844 -66.062592 -144.77942 -12.225179 105.14314
16730000000 -4.2411304 138.29517 -56.425526 178.60104 -65.198753 159.21497 -12.010012 101.80701
16740000000 -4.100801 136.93501 -59.179985 139.22734 -66.279968 137.94691 -11.841239 98.770332
16750000000 -3.9208493 135.55458 -58.549721 108.78928 -64.740479 93.993233 -11.758361 95.952446
16760000000 -3.7820621 134.20657 -60.467247 64.523979 -67.266685 31.746473 -11.772301 93.531586
16770000000 -3.618964 132.8587 -66.56411 47.056129 -82.878555 -108.00388 -11.86059 90.938271
16780000000 -3.4857385 131.68755 -65.877777 13.291889 -73.653214 -122.04252 -12.04143 87.889595
16790000000 -3.3431828 130.43074 -69.705467 2.8199651 -68.594513 164.62241 -12.3139 83.969604
16800000000 -3.2138038 129.1333 -68.100853 17.51652 -66.459763 107.82925 -12.613118 79.422058
16810000000 -3.0837994 127.69456 -65.381195 -21.05481 -65.663582 50.396366 -12.825744 73.793137
16820000000 -2.9983921 126.19975 -63.627987 -72.291206 -65.914955 11.471827 -13.016153 67.591354
16830000000 -2.8851142 124.71337 -64.105339 -115.6553 -65.906143 -49.976608 -13.078052 61.504284
16840000000 -2.7769477 123.33939 -62.228924 -159.27823 -66.781494 -114.63866 -13.088677 56.042278
16850000000 -2.632551 121.79603 -64.10096 142.03192 -69.454872 133.53178 -13.117253 51.629433
16860000000 -2.5034606 120.27953 -65.853096 95.153496 -69.97818 58.720039 -13.265979 48.110893
16870000000 -2.3612125 118.70006 -69.830177 58.82655 -70.979004 -54.048355 -13.655534 45.002281
16880000000 -2.2472503 117.20461 -77.387802 30.731216 -70.887833 -129.29117 -14.295076 41.601418
16890000000 -2.1389406 115.72668 -76.866974 7.1646233 -70.9338 166.16962 -15.197834 36.221657
16900000000 -2.0482545 114.45613 -70.885574 61.624352 -70.274261 114.62873 -16.201891 28.423384
16910000000 -1.9564145 113.08768 -66.790657 14.523521 -68.495407 63.2342 -17.15423 17.986437
16920000000 -1.8744546 111.80825 -63.623558 -44.297798 -66.342628 -10.755194 -17.902946 6.1875353
16930000000 -1.7698586 110.3063 -63.686607 -91.950996 -67.998276 -62.18177 -18.438017 -5.63134
16940000000 -1.6894377 108.67728 -66.886322 -129.50262 -69.839722 -110.60289 -18.959593 -17.071562
16950000000 -1.5956004 106.94682 -66.236656 -145.27647 -69.210457 -122.59258 -19.587431 -27.872566
16960000000 -1.5226636 105.24661 -67.920433 -167.59535 -70.14608 -144.18323 -20.313976 -38.808578
16970000000 -1.4324081 103.59422 -66.402428 -177.69434 -67.844055 -174.53285 -21.255621 -51.443214
16980000000 -1.3554144 102.0071 -65.623024 154.4894 -67.714668 159.55249 -22.347622 -67.813782
16990000000 -1.2637582 100.48315 -65.485405 127.728 -69.835403 139.2859 -22.972231 -88.893204
17000000000 -1.1771101 99.031822 -65.763023 80.811028 -66.554024 104.0269 -22.459248 -111.69148
