!Keysight Technologies,P9374A,MY57211807,A.19.30.04
!Date: Friday, May 08, 2026 15:17:33
!Correction: S11(C  2-Port  ) 
!S21(C  2-Port  ) 
!S12(C  2-Port  ) 
!S22(C  2-Port  ) 
!S2P File: Measurements: S11, S21, S12, S22:
# Hz S  dB   R 50
13000000000 -19.151516 63.407421 -41.061016 112.88121 -41.127117 111.16528 -10.768548 -14.073213
13010000000 -18.641954 63.884899 -40.271152 86.024818 -40.336109 84.933128 -11.134574 -14.88099
13020000000 -18.432384 61.469265 -40.065834 63.931042 -40.126392 62.488548 -11.4818 -15.407254
13030000000 -18.709772 58.750393 -39.702858 37.865864 -39.713982 36.295258 -11.769035 -15.763605
13040000000 -19.41078 56.551682 -40.258755 13.530964 -40.353233 11.916892 -12.09925 -15.793172
13050000000 -20.028244 58.305923 -40.555344 -8.1191301 -40.679184 -9.5255051 -12.448169 -15.533666
13060000000 -20.717417 60.837234 -40.809116 -25.019821 -40.895931 -25.657085 -12.917558 -15.581033
13070000000 -20.509092 65.509903 -40.020016 -45.866703 -40.056522 -47.061211 -13.412102 -15.229836
13080000000 -19.952894 67.175461 -39.570366 -70.898949 -39.549988 -72.384857 -13.804836 -15.448392
13090000000 -19.22386 64.993263 -39.523487 -96.285759 -39.619453 -97.32016 -14.097802 -15.94209
13100000000 -19.053591 61.319935 -39.947708 -120.25578 -40.00317 -121.34998 -14.311049 -16.278111
13110000000 -18.911535 59.31424 -40.105751 -139.1665 -40.199928 -140.07635 -14.599759 -15.676739
13120000000 -19.214281 56.600857 -40.068077 -164.23129 -40.029133 -164.84947 -14.925972 -14.632393
13130000000 -19.708942 56.14415 -40.225258 174.57915 -40.153389 173.38615 -15.355844 -13.2308
13140000000 -20.025368 60.224812 -40.224155 150.77296 -40.257145 150.19299 -15.700389 -12.095519
13150000000 -19.787792 61.601826 -40.857883 128.9744 -40.883102 127.35551 -15.965782 -11.666069
13160000000 -19.865217 64.323814 -41.524101 111.54166 -41.529778 110.88865 -16.1695 -10.430678
13170000000 -19.349989 63.17305 -40.856098 92.985527 -40.916096 92.556427 -16.359184 -8.7203598
13180000000 -19.313314 61.957153 -40.366211 70.73629 -40.426651 70.374596 -16.672762 -5.9851332
13190000000 -18.806967 59.990932 -40.22337 44.722736 -40.235485 44.46706 -17.104294 -2.6970959
13200000000 -18.674982 54.134548 -40.485958 20.802921 -40.390156 20.285553 -17.53186 0.34400284
13210000000 -18.99324 51.204067 -41.45689 -0.0269855 -41.269085 -0.24966674 -17.89904 2.3181229
13220000000 -19.285408 48.613655 -41.282352 -16.881739 -41.084915 -18.114151 -18.036901 3.6891065
13230000000 -19.737675 48.593605 -41.302158 -39.207466 -41.201965 -40.831993 -18.008774 5.4889002
13240000000 -20.10993 51.473122 -41.046383 -58.231743 -40.964893 -60.187355 -17.857134 8.7663288
13250000000 -20.042109 54.381905 -41.227776 -81.073288 -41.305031 -81.981895 -17.703781 13.780796
13260000000 -19.574102 57.991463 -40.966629 -101.25096 -40.788902 -102.04394 -17.664015 19.630175
13270000000 -18.657429 55.563194 -40.913464 -123.24884 -40.776283 -124.51916 -17.560778 25.001305
13280000000 -18.450872 50.013439 -40.444939 -146.86354 -40.350056 -148.75903 -17.487667 29.01786
13290000000 -18.531546 44.547379 -40.84586 -171.99236 -40.82338 -173.42667 -17.281584 31.518906
13300000000 -19.004496 38.423954 -41.422703 169.90257 -41.293545 168.65758 -16.922741 33.370052
13310000000 -19.976326 34.201996 -41.024418 149.32506 -40.890831 147.25714 -16.283579 35.70425
13320000000 -20.841021 34.86451 -40.909729 125.24355 -40.878357 123.08673 -15.645802 38.184662
13330000000 -21.472052 40.443752 -40.9967 104.46955 -40.961967 103.07591 -14.975033 40.557781
13340000000 -20.765797 47.249653 -41.253529 80.215637 -41.121098 78.511749 -14.452168 42.163872
13350000000 -19.857763 45.716347 -41.31773 59.725628 -41.235729 57.0704 -13.958425 43.019238
13360000000 -19.174768 43.117344 -41.280544 37.04369 -41.22488 35.068783 -13.384648 42.220711
13370000000 -18.842541 36.820351 -41.368656 15.469368 -41.49123 12.957326 -12.688522 40.678116
13380000000 -19.024914 29.098885 -41.620796 -8.8251553 -41.590698 -10.799861 -11.892919 39.19725
13390000000 -20.212536 23.662949 -42.325321 -28.574083 -42.276588 -30.794281 -11.093233 37.836647
13400000000 -21.235573 22.81781 -42.694302 -49.163597 -42.823967 -51.16787 -10.404358 37.018013
13410000000 -22.442488 23.085447 -42.745308 -68.342918 -42.770294 -69.513557 -9.8349934 35.967449
13420000000 -22.787598 31.653913 -42.632488 -87.924644 -42.626926 -89.832489 -9.3934727 33.851654
13430000000 -22.383867 31.727524 -42.722141 -110.90797 -42.740646 -112.34994 -9.0223389 30.865799
13440000000 -21.741945 33.989212 -42.837208 -132.17641 -43.079784 -134.42113 -8.6378508 27.19302
13450000000 -20.741961 30.399336 -43.680378 -149.80745 -43.889206 -150.37213 -8.2004204 23.083401
13460000000 -20.615744 22.120722 -42.956875 -170.39861 -43.122574 -170.67874 -7.7739425 19.070143
13470000000 -21.045931 15.627562 -43.4324 170.78294 -43.44598 170.65785 -7.4336257 15.357023
13480000000 -21.762489 12.352571 -43.090668 150.03468 -43.19252 150.16319 -7.186131 11.607191
13490000000 -23.148722 7.327508 -43.053169 133.44109 -43.091991 132.68697 -7.0497293 7.7915001
13500000000 -24.146576 10.670483 -42.922577 111.1578 -42.969913 111.2172 -6.9940271 3.7682593
13510000000 -25.676687 15.897535 -42.62278 89.436897 -42.555862 89.957344 -6.9659739 -0.30014554
13520000000 -25.083614 26.862963 -42.546917 71.175835 -42.459427 70.757111 -6.9872222 -4.3665404
13530000000 -24.475128 24.46833 -42.308628 50.313858 -42.185062 49.857719 -7.05477 -8.3430271
13540000000 -23.418188 23.380486 -41.594944 30.114954 -41.514427 28.927217 -7.2012453 -12.459988
13550000000 -23.104496 16.051821 -41.400558 5.4026837 -41.29488 5.1610947 -7.4228506 -16.371559
13560000000 -22.960836 7.6929617 -41.57579 -18.44528 -41.432175 -18.805412 -7.6726537 -20.275286
13570000000 -24.142212 -0.63827235 -41.623936 -38.424065 -41.392933 -39.284679 -7.8781896 -23.923519
13580000000 -25.333134 -5.9396315 -41.405636 -59.627647 -41.204536 -60.757805 -8.0814342 -27.44973
13590000000 -29.168406 -3.0441282 -41.059082 -78.404015 -40.937584 -80.223122 -8.317441 -30.696377
13600000000 -28.9739 18.500242 -40.629326 -103.2573 -40.448296 -105.07932 -8.6246119 -33.510433
13610000000 -28.571371 35.994377 -40.322254 -125.97254 -40.116947 -128.43446 -9.0130692 -35.917843
13620000000 -26.082022 34.209194 -40.649036 -152.53003 -40.440918 -154.52928 -9.4483538 -38.334728
13630000000 -25.069149 28.284391 -40.397903 -174.11479 -40.32568 -175.69971 -9.8900661 -40.880203
13640000000 -24.469858 12.710135 -40.538368 163.41136 -40.3787 161.36633 -10.347589 -43.907898
13650000000 -25.949356 -1.4854493 -40.434612 140.00639 -40.301056 136.88391 -10.829084 -46.808216
13660000000 -27.690199 -7.9025035 -40.971584 117.36549 -40.977066 114.68128 -11.286754 -49.389854
13670000000 -31.157938 -8.914669 -40.874931 97.01889 -40.9314 94.948799 -11.757753 -51.385723
13680000000 -33.670959 13.508749 -40.728737 75.186104 -40.704426 72.750999 -12.199797 -52.891682
13690000000 -30.789085 44.769547 -40.456581 51.172958 -40.533092 49.33704 -12.710701 -54.530888
13700000000 -27.435631 43.437801 -40.517757 26.088184 -40.567268 23.765482 -13.370645 -56.011829
13710000000 -25.547335 34.544502 -41.084545 3.3490973 -41.278076 1.0418487 -14.037431 -57.32716
13720000000 -25.196339 20.000559 -41.039379 -16.830069 -41.226402 -19.568853 -14.747543 -58.868649
13730000000 -26.546648 12.911412 -41.371883 -41.874302 -41.710335 -43.46862 -15.468695 -59.878166
13740000000 -27.507111 4.9081621 -41.532761 -62.14249 -41.773567 -62.180466 -16.199768 -60.593155
13750000000 -30.726198 0.64636326 -41.898434 -84.095726 -42.012524 -85.506485 -17.087784 -60.624718
13760000000 -32.330696 16.110598 -41.586285 -105.88787 -41.919338 -107.23425 -18.218977 -59.730339
13770000000 -32.988018 32.202782 -42.110363 -131.04649 -42.328777 -130.3833 -19.461668 -59.020096
13780000000 -29.563795 40.910561 -42.323544 -154.85312 -42.614342 -153.85069 -20.790665 -59.261787
13790000000 -27.641523 32.71347 -42.96701 -170.5878 -43.096378 -169.03432 -22.219614 -59.857864
13800000000 -26.915474 22.694809 -43.03455 168.96133 -42.902264 169.71484 -23.462175 -57.899609
13810000000 -26.113789 18.570686 -42.505875 148.34204 -42.490486 149.01642 -24.679321 -51.820187
13820000000 -25.645353 3.4041102 -42.743885 121.22354 -42.83326 122.55099 -25.976976 -39.380554
13830000000 -27.157108 -0.72239339 -43.097706 102.06643 -43.112297 102.86464 -26.88018 -20.970421
13840000000 -27.296175 -12.783371 -43.49078 83.157967 -43.302303 85.116348 -27.032501 1.6068926
13850000000 -31.599672 -7.9670539 -43.492702 63.339741 -43.200207 63.878738 -25.92304 20.602129
13860000000 -31.178238 0.32774642 -42.906368 44.808273 -42.604931 43.839275 -24.517149 31.395092
13870000000 -32.151836 19.179489 -42.38776 17.893196 -42.183945 18.017195 -22.977154 38.449402
13880000000 -29.315876 24.461439 -42.717899 -5.6817808 -42.357109 -5.6433592 -21.183199 42.927731
13890000000 -26.554098 16.240656 -42.847061 -27.401316 -42.444504 -28.262514 -19.511473 44.833729
13900000000 -25.382826 -3.1965597 -42.72525 -51.377068 -42.384811 -52.969803 -18.098049 45.630802
13910000000 -25.625063 -13.305963 -43.162792 -73.246193 -42.763943 -75.557121 -16.964165 45.923019
13920000000 -25.382246 -31.519796 -42.94709 -96.529404 -42.746407 -98.660667 -15.996245 44.995617
13930000000 -28.041529 -47.264339 -43.155437 -118.57923 -42.911011 -120.68969 -15.051219 42.681511
13940000000 -30.578331 -56.631969 -43.349022 -140.96111 -42.970177 -143.15178 -14.104305 39.65147
13950000000 -37.367996 -51.418083 -42.798 -164.74722 -42.617279 -168.88393 -13.179351 36.346371
13960000000 -36.014122 3.664916 -43.148979 170.13919 -43.137226 165.85715 -12.310353 33.360905
13970000000 -30.630621 0.42022619 -43.681324 144.25595 -43.562363 140.72122 -11.511137 30.728247
13980000000 -28.472 -16.682573 -43.836197 119.61871 -43.712898 116.34285 -10.81729 27.639006
13990000000 -26.664284 -35.302742 -44.438396 96.862625 -44.667576 92.488258 -10.283536 24.043217
14000000000 -25.893328 -56.010326 -44.803036 70.791397 -45.082333 67.904182 -9.8637981 20.247419
14010000000 -25.790646 -73.450935 -46.002949 49.415958 -46.132637 47.015652 -9.5028534 15.938629
14020000000 -26.811388 -90.494759 -45.832497 31.178768 -45.712032 26.591051 -9.1530132 11.264082
14030000000 -29.769928 -100.67973 -45.691044 3.0418811 -46.340584 -2.7652802 -8.8818722 6.2677312
14040000000 -32.921078 -92.18351 -46.584618 -22.914984 -47.178005 -23.934631 -8.7064867 1.2436182
14050000000 -33.575924 -77.00634 -47.466351 -46.434162 -47.658371 -47.889816 -8.5666389 -3.5981538
14060000000 -33.452755 -62.186607 -47.680298 -69.600235 -48.135696 -74.056953 -8.4864712 -8.5785131
14070000000 -30.600515 -57.470757 -48.599339 -99.156662 -49.714088 -106.6446 -8.4609737 -13.783173
14080000000 -29.243282 -74.288399 -50.571224 -126.72488 -52.406685 -128.43788 -8.5107918 -18.964184
14090000000 -28.569681 -87.064384 -53.015007 -148.63681 -54.162361 -141.50504 -8.5922689 -23.701567
14100000000 -27.434944 -106.2754 -54.099358 -162.21748 -54.92347 -159.935 -8.689455 -28.297585
14110000000 -28.176279 -119.35551 -55.871502 178.55852 -58.275467 179.42891 -8.8497877 -32.560875
14120000000 -27.350273 -129.62537 -57.997261 164.13901 -60.030823 -176.70963 -9.1187 -36.761524
14130000000 -27.819036 -143.76984 -61.471359 133.19818 -62.116627 176.0144 -9.5152292 -40.888165
14140000000 -29.266085 -151.21008 -62.810974 130.91895 -61.12867 163.43971 -9.9243593 -45.077641
14150000000 -32.232349 -149.45213 -63.159615 142.92857 -60.214622 162.80966 -10.308419 -49.669651
14160000000 -32.036541 -133.75935 -63.088467 133.56836 -58.245182 139.97809 -10.697578 -54.177498
14170000000 -31.736687 -120.46495 -63.918144 151.88058 -59.520252 128.42244 -11.108752 -57.941139
14180000000 -29.083635 -118.37219 -59.694389 140.08669 -59.06852 120.61658 -11.583329 -61.085041
14190000000 -26.993406 -128.8223 -56.868412 106.90897 -55.119045 102.57986 -12.165596 -64.355309
14200000000 -25.296282 -143.48801 -56.80085 97.174194 -55.381474 77.521606 -12.877871 -67.904427
14210000000 -25.367254 -161.71677 -55.137604 68.173027 -54.513817 48.344231 -13.63205 -72.165535
14220000000 -26.002853 -173.19255 -55.198696 47.095345 -56.060169 27.712379 -14.372047 -76.611824
14230000000 -26.813074 174.8784 -54.375359 28.239435 -55.796276 19.065914 -15.074413 -80.773239
14240000000 -29.721855 170.55255 -54.548347 8.5075579 -54.751247 -0.90221006 -15.819318 -84.597343
14250000000 -31.948723 -173.75363 -53.402534 -13.429216 -55.176304 -29.085108 -16.715343 -88.547668
14260000000 -31.310478 -145.8634 -53.995609 -37.761208 -56.337921 -45.816925 -17.829893 -93.31514
14270000000 -27.229132 -143.76842 -52.527225 -55.957626 -54.993126 -56.796417 -19.009912 -98.881622
14280000000 -25.770184 -158.48695 -53.265221 -77.887947 -55.315098 -71.771523 -20.140772 -105.31739
14290000000 -25.210646 -168.30328 -53.015499 -100.88973 -54.422649 -97.680061 -21.295691 -111.71903
14300000000 -25.337515 176.802 -52.378139 -109.64851 -52.976963 -102.68781 -22.687801 -117.71092
14310000000 -26.166546 167.13885 -51.222702 -147.06242 -52.894062 -141.38994 -24.69026 -124.03664
14320000000 -27.923161 154.39745 -51.023125 -169.58194 -51.706081 -160.25002 -27.421715 -135.3399
14330000000 -30.382755 164.25249 -53.440479 165.59612 -54.097176 175.11969 -30.355114 -160.09714
14340000000 -31.039953 176.91776 -54.151703 155.23523 -54.173538 169.55084 -30.74959 160.18143
14350000000 -28.917028 -167.16501 -53.389042 152.30844 -52.367287 158.39734 -28.22052 133.48836
14360000000 -27.802246 -173.41765 -50.658691 127.7459 -50.211895 132.02539 -25.733976 118.87315
14370000000 -26.384497 -172.83086 -50.254829 98.234535 -49.321606 102.59852 -23.9715 109.28384
14380000000 -26.198503 175.44958 -50.655777 69.877747 -49.712353 76.539871 -22.584703 101.071
14390000000 -26.327967 170.71077 -51.734364 50.401638 -49.856934 50.950363 -21.358219 93.095253
14400000000 -27.179102 161.65762 -52.133186 32.641838 -50.944572 26.153923 -20.143305 85.187988
14410000000 -28.408024 160.20183 -52.87978 17.054909 -52.260822 16.029623 -18.971689 78.779137
14420000000 -29.600554 160.24626 -53.343449 9.3226671 -51.894299 8.9106712 -17.811802 74.007576
14430000000 -29.987631 165.55606 -50.772881 -4.7143955 -49.546402 -6.8147092 -16.725067 69.950287
14440000000 -30.687582 179.0654 -48.844795 -33.604115 -47.764629 -39.569111 -15.841794 66.207207
14450000000 -27.85944 -170.68768 -48.030655 -59.118492 -47.465828 -65.645645 -15.060512 62.710079
14460000000 -26.483503 -176.14307 -48.90633 -87.564507 -48.697571 -92.796921 -14.357171 58.879173
14470000000 -25.365894 177.14621 -48.914757 -108.18981 -48.646137 -115.20222 -13.724351 55.154598
14480000000 -25.470678 172.90974 -49.389309 -123.58931 -49.416336 -130.31758 -13.167047 51.789249
14490000000 -25.554853 162.96689 -48.60709 -140.51135 -48.703823 -147.27998 -12.706421 48.422237
14500000000 -27.609621 159.94403 -47.710361 -162.14369 -47.684566 -168.24962 -12.348515 44.899384
14510000000 -29.486643 161.0083 -46.853069 174.06586 -47.41674 166.21736 -12.025776 40.682556
14520000000 -30.260674 -166.83202 -46.962452 154.44672 -47.857262 150.03828 -11.664557 35.813599
14530000000 -27.531437 -168.26062 -45.426369 133.33369 -45.910233 131.57813 -11.257895 30.813665
14540000000 -25.791204 -166.42276 -44.562508 106.95157 -44.800377 103.41715 -10.85739 26.419714
14550000000 -23.928869 -176.93333 -44.269039 77.01651 -44.759449 71.720596 -10.544365 22.760796
14560000000 -23.763363 176.00946 -44.947121 48.7118 -45.974087 44.277912 -10.328271 19.447027
14570000000 -23.321938 163.73657 -46.217346 27.160126 -47.616318 28.087875 -10.23171 15.750299
14580000000 -25.119705 160.45541 -46.167519 16.109184 -46.350727 19.62549 -10.255201 11.520844
14590000000 -26.391451 163.51839 -44.421425 -2.1071937 -44.692772 -3.0782318 -10.295957 6.9876065
14600000000 -26.409733 -178.98218 -43.141628 -28.449675 -43.581966 -29.519314 -10.372493 2.4088271
14610000000 -25.116055 -178.66939 -42.532726 -61.313461 -43.217823 -61.041615 -10.484352 -1.8461052
14620000000 -23.877251 -172.96202 -43.483833 -92.701424 -43.992508 -91.626595 -10.677133 -5.9085679
14630000000 -22.577295 -179.83652 -44.648731 -115.52351 -45.075794 -112.67875 -10.88344 -10.069207
14640000000 -22.025991 174.03152 -45.407703 -130.72183 -45.759686 -126.27724 -11.13202 -14.837868
14650000000 -22.041012 165.41498 -44.34861 -145.7738 -44.130974 -141.86389 -11.423999 -19.274874
14660000000 -22.327547 163.1694 -43.455315 -172.85103 -43.034725 -170.81406 -11.714079 -22.859581
14670000000 -22.985243 160.37991 -43.086464 160.01297 -43.191582 161.11848 -12.051916 -25.207853
14680000000 -22.732143 162.20634 -43.679718 134.02142 -43.538326 139.20554 -12.437974 -26.975811
14690000000 -23.19651 163.56758 -43.593422 114.3783 -42.913406 117.42188 -12.988906 -28.854996
14700000000 -22.479437 168.75374 -43.517082 88.714661 -43.013012 89.985527 -13.699558 -30.736074
14710000000 -21.937988 168.08139 -43.846508 64.27961 -43.266224 66.478287 -14.488164 -33.03582
14720000000 -21.135517 166.55724 -43.67907 43.643173 -43.029041 44.783237 -15.360623 -35.441975
14730000000 -20.957533 162.56699 -44.196426 19.757444 -43.185661 20.240864 -16.290117 -37.788017
14740000000 -20.345543 159.01137 -43.91729 -0.50965786 -43.088577 -3.3869958 -17.138798 -39.102749
14750000000 -20.337563 151.67809 -43.726665 -25.203434 -42.917747 -27.735437 -17.84519 -39.833008
14760000000 -20.549063 146.88507 -43.369717 -47.35437 -42.748611 -51.625568 -18.438721 -39.746281
14770000000 -21.47294 142.87602 -43.29565 -71.529465 -42.743042 -75.453865 -19.049753 -37.975567
14780000000 -21.655674 146.75282 -42.932392 -97.011086 -42.327202 -101.85607 -19.726818 -33.894737
14790000000 -21.781893 147.71111 -43.081375 -124.44493 -42.867306 -129.22343 -20.45335 -27.930408
14800000000 -21.177856 152.87439 -43.775463 -149.89111 -43.482155 -154.51891 -21.168825 -21.047272
14810000000 -20.367357 153.70331 -44.024395 -166.79193 -43.750107 -173.77283 -21.756842 -14.045622
14820000000 -19.228512 150.20081 -43.74588 166.89075 -43.551922 160.31102 -22.150232 -6.8333082
14830000000 -19.068533 141.47081 -43.855629 144.93011 -44.365063 138.11096 -22.106289 -0.071725644
14840000000 -19.370192 135.33849 -43.398792 120.49761 -43.648056 116.3381 -21.76054 6.2831392
14850000000 -20.332125 129.506 -43.804523 93.224144 -43.860313 88.157722 -21.364073 11.24656
14860000000 -21.234365 128.71988 -43.807095 71.866615 -44.251457 64.810402 -21.020657 15.27822
14870000000 -22.298855 129.92235 -43.675571 43.908386 -44.324104 38.495945 -20.738352 17.551872
14880000000 -22.371445 136.01138 -44.007038 19.492552 -44.614075 16.659952 -20.28413 17.558067
14890000000 -21.24143 140.55553 -44.646164 -4.3138266 -45.229668 -9.0251179 -19.477028 16.30611
14900000000 -19.984718 134.76184 -45.380241 -25.800928 -46.172428 -29.75502 -18.478933 15.140103
14910000000 -19.702677 129.35152 -44.323231 -43.880489 -45.120838 -46.44841 -17.535734 14.825491
14920000000 -19.592052 122.15457 -43.904678 -72.693649 -44.622852 -72.475555 -16.935356 15.925947
14930000000 -20.232018 118.36237 -43.881561 -101.63449 -44.475086 -102.74761 -16.631693 17.583036
14940000000 -20.915106 114.00327 -44.575871 -129.73058 -45.315369 -130.55479 -16.459999 17.888105
14950000000 -22.08758 117.57839 -45.797314 -154.74281 -46.844154 -153.05 -16.386665 15.818368
14960000000 -22.534359 120.71185 -45.662624 -173.10248 -46.115421 -170.56041 -16.370321 12.468451
14970000000 -22.365782 127.89092 -45.073311 160.80429 -45.457043 162.17767 -16.314243 9.7341633
14980000000 -21.931528 122.89292 -45.305069 132.57254 -45.856613 134.54108 -16.171425 8.372303
14990000000 -21.960257 124.4332 -45.922997 106.29727 -46.317287 111.81498 -16.020594 6.5097222
15000000000 -21.691679 117.75857 -46.315403 85.874588 -46.181866 89.187111 -15.999297 3.2284007
15010000000 -21.910292 115.78995 -45.270573 59.797871 -45.576931 60.715103 -16.139889 -0.80523264
15020000000 -22.411453 108.6717 -45.946167 26.564404 -46.379475 31.159218 -16.097589 -4.1497593
15030000000 -23.015295 110.63652 -46.367744 1.5037898 -46.653679 7.2887774 -15.939028 -5.8755589
15040000000 -23.457994 107.47859 -47.25275 -21.460751 -47.06226 -14.576478 -15.753887 -5.6962271
15050000000 -24.126444 112.46337 -47.306252 -46.479076 -46.744595 -42.920391 -15.811219 -4.932817
15060000000 -24.81473 115.6123 -46.460281 -76.492874 -46.261108 -72.831917 -16.172564 -4.3090043
15070000000 -24.262957 124.42534 -48.055931 -111.39233 -47.918369 -107.24908 -16.750349 -5.3719792
15080000000 -23.744398 125.48671 -49.943069 -128.54576 -49.23806 -120.50331 -17.393578 -7.4804239
15090000000 -23.034786 123.71083 -49.242855 -143.13123 -48.198925 -142.14458 -17.806253 -10.041125
15100000000 -23.207363 118.67592 -48.014938 -171.6425 -47.489719 -168.61108 -18.008627 -12.047641
15110000000 -23.417704 114.98726 -47.614277 153.76102 -46.906258 157.49597 -18.093363 -12.98778
15120000000 -24.749554 110.67863 -49.44492 119.75436 -48.247635 126.01241 -18.205297 -13.339914
15130000000 -25.617277 111.24864 -50.441002 94.895897 -48.500927 100.13213 -18.498779 -13.269734
15140000000 -27.31101 124.36995 -51.404343 84.379349 -49.331646 80.514404 -18.633566 -12.28578
15150000000 -25.118683 133.98782 -49.193348 59.460117 -47.842445 53.782585 -18.54229 -11.271107
15160000000 -24.352863 133.36093 -48.948105 22.696814 -47.837128 16.270489 -18.47612 -10.429785
15170000000 -23.011471 131.29181 -50.459717 -15.920715 -49.226486 -19.374487 -18.616714 -8.6585855
15180000000 -22.686089 126.22548 -55.060116 -29.483099 -53.325363 -34.132545 -18.92445 -6.2511358
15190000000 -22.354263 119.71493 -52.41544 -26.157253 -51.012016 -37.205528 -19.166103 -4.7877173
15200000000 -23.769371 115.48102 -49.092003 -52.9519 -48.425091 -64.914436 -19.431278 -5.890079
15210000000 -24.425852 118.17428 -47.892639 -90.927361 -47.186199 -102.00353 -19.658915 -8.5056562
15220000000 -25.381441 126.78842 -48.060406 -131.15332 -47.639675 -141.54614 -19.79999 -11.452849
15230000000 -24.091133 131.90144 -48.819267 -168.72015 -48.740944 -176.12758 -19.779634 -13.829099
15240000000 -23.91642 133.71397 -51.61282 165.11897 -51.102665 157.4093 -19.66354 -15.320181
15250000000 -22.61882 131.50089 -52.917187 148.13855 -52.280903 135.29153 -19.43902 -17.78594
15260000000 -22.292456 126.33813 -51.870251 144.12971 -52.602131 130.66396 -19.447746 -20.022987
15270000000 -21.978315 120.71159 -50.074375 112.14561 -51.548527 104.65578 -19.53603 -21.091585
15280000000 -22.301985 114.89698 -50.456257 84.578445 -50.866192 79.222183 -19.868601 -20.449301
15290000000 -22.80801 113.65056 -49.769142 60.638065 -49.954639 53.913422 -20.257208 -20.52767
15300000000 -23.131403 112.03815 -49.182838 30.482954 -49.449078 21.642662 -21.079315 -22.508602
15310000000 -23.812111 113.66812 -49.773857 -2.8823946 -50.779167 -13.234099 -22.072441 -27.75503
15320000000 -23.787193 117.69862 -50.761078 -31.675573 -52.334736 -36.554031 -23.309095 -35.340942
15330000000 -23.316967 121.91711 -52.227154 -49.774303 -53.109573 -51.865749 -24.16353 -42.405041
15340000000 -22.487396 117.54342 -51.654934 -70.397537 -52.853245 -71.743309 -24.921265 -48.959961
15350000000 -22.406132 117.13721 -50.839859 -93.140282 -51.175209 -94.764885 -25.791857 -53.526627
15360000000 -21.991724 109.71996 -51.749962 -120.10161 -51.899876 -129.12221 -27.157341 -61.664219
15370000000 -22.467266 106.52509 -51.738014 -142.30843 -53.253162 -148.77638 -29.098942 -72.165047
15380000000 -22.392426 97.072136 -51.654102 -163.20326 -53.46069 -163.42204 -31.204533 -83.379768
15390000000 -24.399708 93.101212 -50.326519 178.65746 -51.369087 -178.80403 -33.578953 -93.988174
15400000000 -25.130011 96.442909 -49.66383 143.11551 -50.341808 145.187 -37.878365 -115.02013
15410000000 -25.663517 103.30038 -50.535397 108.81259 -51.337536 106.74412 -39.822872 167.39909
15420000000 -25.294552 104.49609 -52.615425 83.29232 -54.595047 85.077728 -32.272724 135.54161
15430000000 -24.661509 108.10531 -53.856503 71.852272 -55.780724 84.277916 -27.545345 130.75099
15440000000 -23.873613 102.52483 -53.051159 62.706009 -53.384926 74.691345 -25.063089 130.88824
15450000000 -23.713497 94.772881 -51.433395 32.050922 -51.301037 41.638401 -23.635315 130.99854
15460000000 -24.34985 85.006096 -51.064922 7.0649571 -50.629574 13.819098 -23.040901 128.07774
15470000000 -25.929863 81.319664 -50.170822 -24.463993 -50.282642 -19.058043 -22.501785 123.48538
15480000000 -26.95225 75.065765 -50.217495 -54.057518 -50.040257 -49.953571 -21.667809 116.70556
15490000000 -29.356937 78.726151 -51.385098 -87.78743 -51.845524 -81.062721 -20.572681 110.3399
15500000000 -30.428389 85.325455 -54.204891 -117.13749 -53.327309 -101.7858 -19.493101 105.27583
15510000000 -30.077198 96.000809 -55.428402 -117.96362 -53.411465 -108.50185 -18.565042 101.41789
15520000000 -29.529968 94.672531 -55.226463 -139.49776 -52.809925 -139.49818 -17.729553 98.167496
15530000000 -28.595465 90.771576 -53.520981 -157.68222 -52.56078 -159.42027 -16.943699 95.563087
15540000000 -29.485857 79.117943 -53.288509 177.44131 -52.102673 175.90575 -16.205872 93.410187
15550000000 -30.313435 76.560364 -52.407047 145.87894 -51.656807 150.52611 -15.560062 91.847389
15560000000 -31.527536 57.71014 -52.126453 115.60954 -50.451435 118.6368 -15.082716 90.03537
15570000000 -36.536251 52.832432 -53.689705 80.00074 -51.751934 78.581207 -14.800865 88.130852
15580000000 -41.924583 26.004206 -55.07935 60.898411 -52.98243 51.552227 -14.565684 85.94297
15590000000 -47.879089 143.24899 -55.983791 34.027386 -55.341587 28.286858 -14.347996 83.061432
15600000000 -48.420197 164.71423 -57.647125 11.072646 -55.917694 16.127558 -14.055969 79.472878
15610000000 -38.871288 176.51277 -58.331902 0.2759195 -55.322475 -11.798512 -13.732589 75.254379
15620000000 -40.826008 153.44496 -58.738533 -23.378023 -56.074219 -37.801903 -13.315268 71.221207
15630000000 -39.75975 152.8394 -56.74781 -50.201488 -55.561398 -65.272835 -12.862503 67.53186
15640000000 -64.567993 28.611105 -59.585346 -67.293304 -57.773796 -89.154808 -12.401639 65.007332
15650000000 -41.221687 -118.97585 -58.245777 -86.017273 -58.309643 -104.06419 -11.985882 63.233898
15660000000 -36.718426 -103.79984 -56.199543 -119.37895 -55.461082 -127.74542 -11.676606 61.600765
15670000000 -32.151409 -123.39931 -57.504772 -154.05396 -55.741756 -171.02422 -11.502099 59.487991
15680000000 -30.386669 -126.94286 -58.155769 174.38184 -57.242641 144.43254 -11.439837 56.601845
15690000000 -28.181351 -142.12125 -64.429001 140.88591 -63.58659 88.341698 -11.348282 52.84034
15700000000 -28.198092 -150.98695 -65.572945 -179.53116 -80.869667 125.66161 -11.235991 48.608665
15710000000 -28.768812 -157.78577 -59.293133 163.58595 -63.142109 160.43481 -11.072585 44.710793
15720000000 -29.020569 -153.06319 -57.643875 126.28632 -60.934906 116.0789 -10.886697 40.856831
15730000000 -29.664789 -146.5184 -56.52425 85.700829 -59.781162 73.172287 -10.746215 36.796822
15740000000 -28.229029 -137.68668 -55.731243 51.062763 -59.487114 43.703156 -10.577763 32.393921
15750000000 -27.069586 -135.24368 -57.527874 9.9538755 -62.378826 12.008398 -10.367714 27.900002
15760000000 -25.057905 -137.09981 -58.920341 -16.495108 -61.323826 -11.663122 -10.132722 23.943842
15770000000 -24.483967 -144.8876 -58.900337 -39.466206 -63.343254 -49.855835 -9.9526539 20.852358
15780000000 -23.937767 -151.07338 -58.679729 -57.709354 -66.818954 -49.010262 -9.937088 18.099289
15790000000 -24.06988 -155.69987 -57.88868 -81.991646 -61.568695 -59.089584 -10.138324 14.724606
15800000000 -24.069338 -159.15121 -57.222992 -115.07131 -58.652718 -98.184792 -10.473028 9.888051
15810000000 -24.772104 -158.98184 -55.206814 -142.87625 -56.491055 -135.76321 -10.822524 3.3891666
15820000000 -24.466459 -151.25169 -54.871166 -177.49063 -56.759933 -172.9418 -11.051855 -4.0846901
15830000000 -23.712337 -148.08328 -54.189217 144.7422 -56.787624 150.1859 -11.116492 -11.183734
15840000000 -22.478428 -146.93874 -55.686005 107.16717 -58.23877 123.04353 -11.175484 -17.364552
15850000000 -22.211927 -151.24071 -55.209267 94.298866 -56.896175 101.74136 -11.287993 -22.712372
15860000000 -21.613985 -152.00543 -52.804703 60.348999 -54.32148 65.190895 -11.48761 -27.838221
15870000000 -21.449854 -156.94788 -52.526009 19.74074 -55.242939 23.76292 -11.806488 -33.089268
15880000000 -21.930592 -158.14186 -54.50832 -13.752183 -56.593166 0.19899319 -12.274764 -38.35899
15890000000 -22.169847 -159.18231 -56.546219 -30.366335 -57.883785 -14.167739 -12.862318 -43.394535
15900000000 -22.068506 -154.69963 -55.125362 -56.500542 -56.870441 -37.947205 -13.630299 -48.976727
15910000000 -21.662249 -154.66054 -54.512665 -73.48362 -55.480923 -57.205769 -14.477838 -55.700348
15920000000 -20.939369 -154.72993 -54.395504 -100.55028 -54.038063 -83.23436 -15.351509 -64.29731
15930000000 -20.630224 -154.92102 -52.732357 -127.72729 -52.791702 -114.09634 -16.061892 -74.542175
15940000000 -20.068344 -154.86429 -52.964119 -154.43216 -52.524376 -142.06306 -16.544016 -85.664536
15950000000 -19.687321 -157.98306 -52.305668 166.06622 -52.287758 -176.62994 -16.823545 -95.888687
15960000000 -19.73818 -157.97008 -53.483215 134.12233 -52.889996 155.05359 -17.065094 -105.02464
15970000000 -19.630423 -156.96492 -55.851357 107.9596 -53.630856 130.66228 -17.413277 -112.88467
15980000000 -19.499355 -156.62241 -56.819851 100.17085 -53.881222 115.33884 -17.915897 -120.04074
15990000000 -19.231428 -155.38733 -57.881847 87.583 -53.774025 96.503555 -18.634859 -128.27786
16000000000 -19.305561 -155.35542 -54.97596 74.248604 -51.349319 71.596298 -19.470831 -138.92114
16010000000 -18.752045 -153.0439 -53.606644 49.056812 -50.197678 44.763599 -19.944012 -152.87242
16020000000 -18.351152 -154.93872 -52.787369 7.2919836 -49.981735 1.711495 -19.73658 -167.72452
16030000000 -18.035559 -155.13835 -54.700771 -12.943512 -52.352402 -20.396383 -19.035954 -179.84145
16040000000 -17.635118 -156.44159 -55.256348 -33.129631 -51.990997 -39.469894 -18.280075 171.54086
16050000000 -17.205759 -157.71912 -55.641479 -49.63438 -51.872749 -65.64859 -17.765062 165.21884
16060000000 -17.125204 -159.48824 -54.559753 -65.429405 -52.635918 -91.378052 -17.397491 159.18788
16070000000 -16.999569 -159.03352 -53.322109 -95.861206 -52.817471 -120.83369 -17.122232 152.98898
16080000000 -16.805691 -157.15646 -54.874958 -112.63744 -54.592964 -137.96576 -16.832956 146.82976
16090000000 -16.326521 -155.88811 -54.30584 -132.95584 -53.995419 -157.28613 -16.604372 141.20781
16100000000 -15.953037 -156.91537 -52.955334 -144.89902 -54.120453 -173.65164 -16.414438 135.64172
16110000000 -15.572648 -156.6378 -50.797165 -176.08145 -53.449684 163.6989 -16.224882 129.12259
16120000000 -15.154565 -158.23479 -51.077881 148.39243 -53.295517 128.31081 -15.943187 121.81264
16130000000 -14.910176 -160.77686 -52.496628 122.6243 -55.550297 104.33167 -15.412411 114.60606
16140000000 -14.884521 -161.69714 -53.114681 103.81221 -56.586613 91.462975 -14.75636 109.49907
16150000000 -14.772153 -162.53383 -53.366669 80.483955 -57.164139 69.894112 -14.153672 106.35123
16160000000 -14.419887 -161.84995 -53.419254 72.939949 -57.393421 81.298515 -13.801791 104.21089
16170000000 -13.965771 -162.65701 -51.645248 49.467243 -54.330868 56.149784 -13.711885 101.67406
16180000000 -13.652066 -163.08263 -51.240898 14.952926 -54.196342 24.786581 -13.782476 98.198997
16190000000 -13.177862 -164.31216 -52.244164 -12.183011 -55.05508 9.0982952 -13.819084 93.370781
16200000000 -13.010452 -165.04237 -52.770283 -33.567348 -54.224117 -8.4670181 -13.768571 88.153946
16210000000 -12.770842 -167.03531 -52.695423 -49.563221 -52.515694 -28.17886 -13.657312 82.997841
16220000000 -12.710734 -166.2606 -52.917812 -76.334457 -52.776714 -61.156475 -13.573281 78.179955
16230000000 -12.373284 -167.34929 -53.17931 -95.53907 -52.393421 -76.404289 -13.425094 73.263367
16240000000 -12.183947 -167.68729 -54.685837 -115.42868 -52.580257 -97.041611 -13.226494 67.955933
16250000000 -11.876799 -170.01906 -54.363422 -131.58311 -52.15023 -120.82548 -12.956333 63.208874
16260000000 -11.75836 -170.77556 -53.75985 -144.12584 -51.335121 -136.60239 -12.730963 59.350723
16270000000 -11.400357 -173.18742 -53.889206 -168.91695 -50.49477 -165.58487 -12.663553 56.592182
16280000000 -11.356326 -174.72716 -53.181114 178.23462 -50.571255 172.34236 -12.765686 53.547123
16290000000 -11.118582 -175.38576 -52.026993 157.82819 -50.02935 147.77443 -13.096621 49.290638
16300000000 -10.9467 -175.36795 -51.74971 126.45898 -50.22522 119.96954 -13.450778 43.386135
16310000000 -10.479046 -176.61061 -52.077259 110.70972 -50.705704 103.61566 -13.783994 35.95219
16320000000 -10.330465 -177.53001 -51.681709 91.550079 -49.838245 79.947937 -13.993666 28.498896
16330000000 -10.028358 -178.90062 -50.245293 72.90744 -49.589127 57.39455 -14.201724 21.247238
16340000000 -9.9683933 -179.93124 -49.936211 44.260757 -49.893284 36.288139 -14.44856 14.177152
16350000000 -9.7665224 178.25862 -49.386242 21.828379 -49.283211 12.832977 -14.647679 7.3202782
16360000000 -9.8259373 177.45685 -49.994877 -0.50408167 -49.584415 -10.070894 -14.867448 0.71269739
16370000000 -9.6350698 176.81268 -49.121639 -19.368649 -49.448296 -32.245228 -15.163841 -5.3278084
16380000000 -9.4280844 175.71295 -48.33823 -45.462204 -49.00481 -53.479336 -15.756208 -11.016574
16390000000 -9.1687822 173.80984 -48.568672 -67.333313 -48.56757 -73.710274 -16.642302 -18.255602
16400000000 -9.0569248 172.59866 -47.156082 -91.633919 -47.451355 -101.38863 -17.697716 -28.427111
16410000000 -8.8518934 171.36484 -47.565388 -121.40862 -48.399147 -131.41675 -18.471107 -41.877735
16420000000 -8.6517878 170.37233 -47.775494 -145.25098 -49.000996 -150.96379 -18.80422 -56.331711
16430000000 -8.4781017 169.13506 -48.330898 -165.74886 -49.059982 -168.68878 -18.878946 -69.193092
16440000000 -8.3596325 168.70236 -47.466652 173.40475 -47.837013 166.89456 -19.077679 -80.856407
16450000000 -8.1412697 167.54852 -47.301243 150.04263 -48.30534 142.85709 -19.258255 -92.316521
16460000000 -8.048315 166.58157 -46.514965 122.53139 -48.019585 115.63818 -19.233521 -104.20103
16470000000 -7.9826312 165.34834 -46.637939 96.310318 -48.279213 96.339073 -19.053465 -114.63713
16480000000 -7.8977571 164.67119 -47.164284 68.396576 -48.593273 70.062141 -18.873352 -123.99157
16490000000 -7.7764254 163.62531 -47.230099 48.498222 -48.360146 49.585026 -18.920942 -134.19185
16500000000 -7.6313915 162.83527 -47.278534 22.061951 -48.623543 23.593744 -18.852074 -146.22607
16510000000 -7.3852472 161.49937 -47.840984 -3.8392477 -49.104378 -0.63630188 -18.362722 -159.29449
16520000000 -7.2365642 160.25867 -48.588528 -24.800373 -50.209297 -17.970598 -17.42944 -169.43889
16530000000 -7.0104475 158.32216 -48.828335 -44.67337 -49.863834 -31.96006 -16.521402 -175.52267
16540000000 -6.9994588 157.54855 -48.866154 -69.521469 -48.956741 -54.054932 -15.940161 -179.22514
16550000000 -6.8961601 156.66988 -48.262455 -90.500191 -47.700199 -82.453979 -15.634212 177.37093
16560000000 -6.7631278 156.6731 -48.109226 -118.42559 -47.957504 -111.48019 -15.445564 172.65665
16570000000 -6.5799403 156.0023 -49.19429 -150.27299 -48.966259 -137.54172 -15.23174 166.93143
16580000000 -6.4476562 155.29204 -50.467865 -170.72258 -49.696098 -158.10577 -14.94504 161.0683
16590000000 -6.2080317 154.06841 -51.657791 170.19052 -49.88636 -177.59674 -14.657454 155.98029
16600000000 -6.1008925 152.60114 -51.818314 159.00598 -49.336521 161.90906 -14.411957 151.26541
16610000000 -6.0192881 150.71814 -50.884106 137.1082 -48.928516 137.28107 -14.171939 146.52089
16620000000 -5.9798074 149.85146 -51.693989 112.11021 -49.494827 113.76513 -13.878083 141.56752
16630000000 -5.7942019 149.06929 -51.434425 97.594597 -49.006901 93.487213 -13.432934 137.53842
16640000000 -5.6548791 148.11253 -51.167126 71.879532 -49.052967 66.065651 -12.924074 134.52785
16650000000 -5.4056153 147.27277 -52.282082 51.712284 -49.690704 41.62611 -12.577056 132.35524
16660000000 -5.2305226 146.29036 -51.482315 30.5888 -49.511406 17.479031 -12.444809 130.34932
16670000000 -5.0131407 144.97336 -51.703724 3.4880207 -50.028397 -13.15365 -12.548526 127.77234
16680000000 -4.9114757 143.64555 -51.672108 -17.839621 -50.400097 -37.157135 -12.681149 124.26588
16690000000 -4.8111482 142.90651 -53.290916 -45.78521 -52.207436 -63.920326 -12.762014 119.64698
16700000000 -4.7069721 141.97163 -54.388603 -55.027214 -53.998409 -79.161385 -12.693242 114.88583
16710000000 -4.508646 140.88409 -52.644985 -68.243294 -53.252064 -90.682068 -12.502031 110.44294
16720000000 -4.3878374 139.68985 -51.607521 -96.468742 -53.311337 -114.53339 -12.242179 106.74942
16730000000 -4.206408 138.27121 -51.772034 -125.59777 -53.807121 -142.06236 -12.026628 103.32455
16740000000 -4.0642338 136.71034 -51.871174 -147.34222 -53.742168 -161.75146 -11.871077 100.46706
16750000000 -3.9138572 135.3622 -52.025814 -178.19168 -54.255264 165.57472 -11.783309 97.808189
16760000000 -3.8167651 133.98683 -53.56982 157.03291 -58.084263 141.7937 -11.794268 95.39003
16770000000 -3.6361036 132.84915 -54.541672 145.41795 -58.934933 140.32664 -11.910245 92.884209
16780000000 -3.488924 131.80659 -54.57856 120.41418 -59.380302 130.99615 -12.091022 89.936958
16790000000 -3.3456204 130.43193 -55.529869 103.31662 -59.188084 123.03354 -12.359056 86.012672
16800000000 -3.2115664 129.12715 -54.543751 85.291367 -56.247616 101.84045 -12.690747 81.146339
16810000000 -3.0945766 127.7906 -54.135067 59.791805 -56.290363 79.061424 -12.95035 75.571938
16820000000 -2.993834 126.28748 -55.089447 31.819735 -56.540947 60.464066 -13.133457 69.405365
16830000000 -2.8721213 124.76852 -55.84507 8.0294914 -56.243164 32.941875 -13.179945 63.362888
16840000000 -2.7579224 123.38233 -57.660301 -16.572771 -56.673336 11.45677 -13.186985 57.881538
16850000000 -2.6117218 121.65733 -60.329281 -19.919004 -56.799934 7.1991792 -13.211638 53.436337
16860000000 -2.4963846 120.07736 -58.100105 -21.593142 -54.582256 -13.317359 -13.380315 50.053246
16870000000 -2.3864875 118.51707 -56.266602 -44.066971 -53.430172 -40.028828 -13.752063 47.027767
16880000000 -2.2811561 117.19507 -55.816162 -76.354012 -52.239208 -71.805847 -14.440338 43.452946
16890000000 -2.159291 115.89559 -55.734921 -95.897591 -52.688072 -100.50751 -15.343164 37.996677
16900000000 -2.0482323 114.70311 -57.086578 -125.57797 -53.399536 -129.9142 -16.401653 29.854649
16910000000 -1.9336796 113.24438 -57.985477 -143.06522 -54.57156 -154.3399 -17.386547 19.181938
16920000000 -1.8385109 111.83783 -57.378193 -154.94164 -55.419411 -171.38113 -18.166483 7.0961976
16930000000 -1.746129 110.15706 -56.03392 -171.12123 -55.058437 170.28528 -18.668253 -4.8645396
16940000000 -1.6901103 108.48667 -55.060131 159.69606 -54.140343 143.33995 -19.128145 -16.78463
16950000000 -1.6199107 106.81001 -54.776745 135.8925 -54.386951 117.23946 -19.735659 -28.141779
16960000000 -1.5503035 105.29089 -54.584408 109.98611 -54.351471 93.160606 -20.549522 -39.279747
16970000000 -1.4510189 103.71201 -54.436287 83.881828 -54.466759 66.084488 -21.491426 -51.764236
16980000000 -1.3560009 102.16496 -54.869877 52.39801 -55.297916 35.652168 -22.484419 -68.999146
16990000000 -1.2448003 100.5761 -55.439964 26.185373 -56.23962 12.273099 -22.896402 -90.703209
17000000000 -1.1608869 99.019592 -56.411266 2.0050707 -56.81612 -15.601928 -22.216175 -113.21648
