!Keysight Technologies,P9374A,MY57211807,A.19.30.04
!Date: Friday, May 08, 2026 15:21:49
!Correction: S11(C  2-Port  ) 
!S21(C  2-Port  ) 
!S12(C  2-Port  ) 
!S22(C  2-Port  ) 
!S2P File: Measurements: S11, S21, S12, S22:
# Hz S  dB   R 50
13000000000 -19.022617 54.373142 -41.858196 69.196236 -42.597347 79.150322 -8.4320717 -58.177044
13010000000 -19.601433 56.675255 -41.720364 44.107182 -41.833923 54.624199 -8.6173763 -62.941265
13020000000 -19.876925 62.116512 -42.035645 21.671171 -41.764992 30.973982 -8.8263721 -67.630775
13030000000 -19.49227 64.546524 -42.233215 -4.039412 -42.064487 5.3608093 -9.034339 -72.172424
13040000000 -19.450315 65.425514 -43.169247 -25.882992 -42.522137 -14.203826 -9.2624292 -76.820724
13050000000 -19.156599 63.836048 -43.734585 -43.405647 -42.406277 -33.778416 -9.5036745 -81.767662
13060000000 -19.413935 61.893475 -43.579533 -60.407814 -41.865337 -54.223366 -9.7769613 -87.220772
13070000000 -19.525209 59.779675 -43.20829 -82.191833 -41.258556 -80.158417 -10.042873 -92.946938
13080000000 -19.941345 59.516594 -43.332088 -105.84441 -41.40987 -105.5508 -10.221973 -98.429352
13090000000 -19.887459 59.841366 -43.567326 -128.45937 -41.734123 -130.00153 -10.364775 -103.62117
13100000000 -19.907476 60.826969 -43.900154 -145.78458 -42.193848 -152.13603 -10.536989 -108.58174
13110000000 -19.585438 61.023548 -43.640617 -165.73087 -42.227875 -173.02667 -10.786529 -113.69408
13120000000 -19.674728 60.719837 -43.584198 171.03084 -42.329712 163.67755 -11.0734 -119.41744
13130000000 -19.54241 61.800823 -43.561909 150.09706 -42.542137 140.95882 -11.329545 -125.80875
13140000000 -19.434673 62.834236 -43.619629 129.79134 -42.792259 119.06946 -11.527964 -131.98511
13150000000 -19.282951 61.892509 -43.702118 108.16024 -43.295155 95.972672 -11.674899 -137.92361
13160000000 -19.19665 62.490147 -43.624943 90.268669 -43.532402 79.656815 -11.845402 -143.68167
13170000000 -19.053995 59.362869 -42.905544 67.833984 -43.394127 57.754585 -12.069895 -149.9185
13180000000 -19.216545 56.770847 -42.694462 44.07415 -43.38134 38.659897 -12.270219 -157.01402
13190000000 -19.478216 55.03511 -42.389122 19.431334 -42.433659 17.153366 -12.355769 -164.75014
13200000000 -19.591757 53.576328 -42.395191 -3.6207631 -42.183964 -11.480284 -12.344494 -172.02155
13210000000 -19.961737 54.81789 -42.754295 -26.251911 -42.917194 -36.765965 -12.268899 -178.43161
13220000000 -19.53842 55.899769 -42.413242 -48.819756 -43.13649 -57.227394 -12.269881 175.67471
13230000000 -19.438826 55.528263 -42.667728 -73.347076 -43.574963 -79.578377 -12.370586 169.26195
13240000000 -18.899145 55.066261 -42.55822 -94.396049 -43.619934 -99.883217 -12.467078 161.8071
13250000000 -18.86441 51.385708 -42.629398 -119.02741 -43.410328 -122.87112 -12.4036 153.71652
13260000000 -18.940205 49.844936 -42.550785 -144.91702 -43.618103 -148.96309 -12.142567 145.8647
13270000000 -19.22711 47.838451 -43.339436 -169.77664 -44.327297 -173.45993 -11.826193 139.02974
13280000000 -19.376286 46.774254 -43.674896 169.70425 -45.325264 166.84312 -11.571331 133.10094
13290000000 -19.757324 44.888874 -43.906895 146.54608 -45.003788 147.71408 -11.432884 127.22021
13300000000 -19.834972 44.574062 -44.180405 125.56187 -45.61274 125.35561 -11.349922 120.90219
13310000000 -20.172987 42.581177 -44.052361 102.93957 -45.615433 107.4037 -11.201133 114.09879
13320000000 -19.900387 43.505554 -44.311783 77.782593 -45.548046 86.092461 -10.909649 107.30619
13330000000 -20.033375 40.624817 -44.641308 52.148773 -45.528988 63.997746 -10.567944 100.96658
13340000000 -19.835901 42.190113 -45.71843 28.356968 -45.729992 39.991531 -10.290108 95.275856
13350000000 -19.638325 38.786079 -46.929379 12.061456 -45.949242 22.430481 -10.099469 89.943146
13360000000 -19.434715 37.424129 -46.716148 -1.5839801 -45.484863 1.5866463 -9.974741 84.336586
13370000000 -19.645096 31.650629 -46.047611 -26.876797 -45.440639 -26.347048 -9.8032694 77.964981
13380000000 -20.230469 29.892385 -46.155006 -51.777054 -45.767181 -51.231701 -9.5474882 71.275894
13390000000 -21.102064 28.112631 -47.094578 -77.968239 -46.803051 -74.736938 -9.2371092 65.095482
13400000000 -21.53072 31.447765 -48.550713 -94.571793 -47.461903 -95.682991 -8.8938198 59.577465
13410000000 -21.730173 31.399794 -48.516918 -109.71924 -48.212372 -110.58837 -8.655201 54.539543
13420000000 -21.432018 34.456184 -47.17543 -133.65535 -47.26368 -136.31372 -8.5324287 49.330246
13430000000 -20.979309 28.574318 -48.0835 -159.67006 -48.110287 -159.83443 -8.4565926 43.738438
13440000000 -20.969587 25.967024 -49.207603 173.70117 -49.345974 176.39322 -8.3731833 37.702206
13450000000 -21.036854 19.832899 -50.568085 160.83536 -50.637005 165.38268 -8.2160978 31.348763
13460000000 -21.656935 16.689327 -50.300907 147.70293 -50.008446 149.87477 -8.0089912 25.398132
13470000000 -22.622622 14.030112 -49.721451 123.66479 -49.472324 127.46569 -7.8471203 19.744411
13480000000 -23.097879 19.496086 -50.381927 97.774864 -49.339043 107.29053 -7.7674403 14.261766
13490000000 -23.462484 18.705873 -51.176247 81.659882 -49.096237 84.543602 -7.7720947 8.82623
13500000000 -23.390802 21.743233 -51.951778 69.842316 -49.811432 61.504345 -7.8144422 3.1976321
13510000000 -23.610956 20.513456 -51.373764 51.585915 -50.83004 42.860092 -7.8316722 -2.7103989
13520000000 -23.325504 19.241772 -50.956425 27.674011 -50.36652 22.553696 -7.8681326 -8.7256155
13530000000 -23.847904 13.305344 -52.236935 5.6818385 -50.500309 0.58027989 -7.93572 -14.697372
13540000000 -23.94252 12.163096 -51.550789 0.85234475 -50.825851 -19.964451 -8.0565243 -20.63372
13550000000 -24.694086 7.8121066 -49.772709 -26.051788 -51.207256 -42.25515 -8.2222805 -26.55274
13560000000 -24.744946 8.3681555 -49.905525 -53.143139 -51.637531 -61.878284 -8.4072933 -32.692028
13570000000 -26.013439 6.4612231 -50.836823 -78.473984 -52.186436 -80.167412 -8.569293 -38.828499
13580000000 -25.930593 11.0106 -51.565804 -98.972702 -52.014507 -103.59084 -8.731926 -44.821007
13590000000 -27.284067 12.058098 -51.920715 -108.32616 -53.774136 -115.60665 -8.9109688 -50.640518
13600000000 -26.534389 21.638559 -50.074242 -131.87149 -53.169601 -130.69568 -9.1543941 -56.346333
13610000000 -26.215158 23.505116 -50.006203 -160.74292 -52.58968 -148.46097 -9.4723539 -62.094734
13620000000 -25.47085 16.932121 -51.028221 171.48012 -53.217518 -170.13007 -9.8313131 -68.266319
13630000000 -26.580208 11.476913 -52.376141 151.49609 -51.65826 176.07742 -10.172249 -74.620537
13640000000 -26.838947 6.5070243 -53.399136 138.60307 -51.091621 152.53746 -10.456985 -81.251945
13650000000 -28.97793 0.67674989 -52.493145 118.26321 -51.267757 127.9385 -10.713502 -87.726997
13660000000 -30.147774 11.715738 -53.181236 92.546745 -51.648422 108.13701 -10.96123 -93.927132
13670000000 -30.41213 19.673475 -55.284767 79.927513 -51.089287 87.232788 -11.253269 -99.952911
13680000000 -29.10705 29.855431 -55.724579 70.43618 -51.246815 67.684898 -11.593488 -105.86214
13690000000 -27.487879 27.429325 -53.916008 61.86013 -50.94899 46.266857 -11.967256 -112.30961
13700000000 -26.749666 24.645912 -51.965759 31.243908 -49.383263 23.794743 -12.346235 -119.31731
13710000000 -26.618933 16.96283 -53.384254 5.7841597 -50.392925 -10.366334 -12.670823 -126.66592
13720000000 -27.62315 12.197966 -53.439606 -2.7322593 -51.256657 -31.631279 -12.895933 -134.0556
13730000000 -29.164999 14.533505 -52.372173 -19.840187 -52.436546 -51.540695 -13.081011 -141.17671
13740000000 -29.750227 20.469814 -51.326077 -44.62524 -52.429523 -68.379021 -13.275933 -148.16054
13750000000 -30.454987 26.371071 -50.872929 -71.901863 -52.66634 -89.647476 -13.476432 -155.49947
13760000000 -29.341238 29.831757 -51.536125 -95.308762 -54.039635 -116.05257 -13.652451 -163.62692
13770000000 -29.374092 26.541061 -51.832047 -111.18133 -54.903984 -117.23255 -13.710661 -171.89597
13780000000 -28.46563 26.756216 -51.318703 -130.39687 -53.440319 -131.63031 -13.612694 -179.70087
13790000000 -27.578596 19.728281 -50.092297 -154.05501 -52.493816 -153.76349 -13.476512 173.34134
13800000000 -27.939936 13.512584 -50.317165 178.71062 -51.636272 -174.34029 -13.400007 166.7411
13810000000 -27.439436 13.305824 -51.139324 155.86554 -51.03056 159.08325 -13.405381 159.82574
13820000000 -27.157797 3.366241 -51.723885 141.49207 -51.835758 137.04674 -13.414407 152.23209
13830000000 -28.254503 3.6458898 -50.388954 121.00242 -51.117424 116.64902 -13.287328 144.07343
13840000000 -28.454847 -2.9915259 -49.84267 94.459312 -50.937954 91.418472 -13.02422 136.33131
13850000000 -30.888098 5.5407271 -50.455093 66.278168 -51.414108 68.466927 -12.7224 129.43185
13860000000 -29.718317 14.380099 -50.932594 45.414791 -51.507107 45.196735 -12.446815 122.986
13870000000 -28.696329 15.842933 -51.067505 25.286371 -50.999069 26.819803 -12.222345 116.5489
13880000000 -27.370375 9.1940546 -50.749886 5.3412666 -51.220043 -5.2378974 -11.9979 109.72185
13890000000 -26.750856 -0.67356622 -50.689571 -24.980005 -52.585991 -35.275665 -11.729445 102.83533
13900000000 -26.523712 -15.284483 -52.134926 -53.787937 -54.963409 -52.132004 -11.434967 96.282852
13910000000 -27.747578 -23.049904 -54.091061 -71.355171 -56.170727 -57.370659 -11.160637 90.212303
13920000000 -28.593872 -29.087156 -54.384945 -80.662605 -54.292721 -74.912262 -10.93291 84.321579
13930000000 -30.549696 -31.710554 -53.693802 -93.443192 -54.024376 -88.804321 -10.755888 77.911072
13940000000 -31.630028 -23.436039 -53.643631 -118.28819 -54.639893 -110.04066 -10.574056 71.172531
13950000000 -30.963984 -16.94878 -54.232227 -135.37546 -53.267483 -127.80317 -10.35484 64.339676
13960000000 -30.377953 -23.71781 -54.037357 -143.10182 -52.476463 -146.70387 -10.099855 57.740643
13970000000 -29.881897 -27.640175 -51.439816 -165.16774 -51.337227 -175.68962 -9.8567476 51.633648
13980000000 -29.382175 -37.696831 -51.326527 164.56995 -52.039684 153.92824 -9.6711082 45.711834
13990000000 -28.844042 -46.990826 -50.987015 138.80772 -52.600761 138.87558 -9.5611734 39.707825
14000000000 -28.097105 -58.686241 -51.535896 118.80974 -51.588116 116.28732 -9.514327 33.60537
14010000000 -27.952829 -69.456673 -51.102406 95.355316 -51.351421 83.346428 -9.5199308 27.138582
14020000000 -28.410328 -78.850433 -50.060379 72.829269 -52.061115 56.812634 -9.5360708 20.463751
14030000000 -29.65428 -84.280533 -50.656345 37.599312 -53.82082 30.000046 -9.5716333 13.72501
14040000000 -30.810488 -84.532516 -51.180023 14.267604 -55.08884 12.348325 -9.6498919 6.7254763
14050000000 -31.68368 -76.277847 -51.657356 -7.4595108 -54.711884 0.065459929 -9.7485371 -0.33466148
14060000000 -32.109409 -72.560883 -51.380833 -33.006935 -54.532402 -32.088562 -9.9060955 -7.4707432
14070000000 -30.983101 -64.690308 -51.698093 -66.48452 -56.686264 -66.910286 -10.093337 -14.862504
14080000000 -29.281187 -79.61853 -53.01804 -96.357056 -58.726162 -77.815247 -10.29336 -22.285885
14090000000 -29.286572 -90.099686 -54.86166 -126.03603 -61.262047 -83.243134 -10.50754 -29.851633
14100000000 -27.655428 -106.72843 -57.897766 -139.95958 -58.919327 -94.38533 -10.747989 -37.421249
14110000000 -28.155455 -123.83607 -58.420647 -159.91809 -59.786739 -125.29672 -11.061581 -44.797924
14120000000 -28.344152 -136.16148 -57.879852 175.68715 -61.73756 -138.58336 -11.471195 -52.218399
14130000000 -29.998173 -142.91565 -59.541836 132.49486 -60.500813 -140.17223 -11.946261 -60.107265
14140000000 -30.515507 -137.54762 -63.595032 88.646912 -61.192513 -177.31961 -12.442816 -68.70652
14150000000 -31.302502 -132.8205 -68.677147 -8.884347 -63.324665 167.87022 -12.867973 -77.926895
14160000000 -29.399052 -124.37336 -66.076469 -97.304565 -64.884811 175.79877 -13.227115 -86.966644
14170000000 -28.998018 -132.04475 -64.387207 -135.54965 -64.127419 154.44452 -13.620009 -95.393204
14180000000 -28.500303 -136.39445 -58.153297 -161.58739 -64.312073 167.43845 -14.101025 -103.64786
14190000000 -28.203779 -142.87607 -56.681118 147.07222 -61.381073 119.19324 -14.643369 -112.7534
14200000000 -27.557474 -147.62079 -58.245617 106.84531 -63.443516 92.822876 -15.155386 -123.27612
14210000000 -27.264509 -157.08731 -59.905117 103.93631 -65.508354 109.38284 -15.464125 -134.45052
14220000000 -26.853889 -163.5721 -57.58577 82.477684 -62.946465 115.31952 -15.52024 -145.25673
14230000000 -26.858709 -174.41171 -57.883678 59.584099 -59.85136 102.40836 -15.521393 -155.27859
14240000000 -28.504662 179.32071 -57.324837 36.864948 -56.759106 71.444397 -15.559854 -164.64964
14250000000 -29.951628 -172.23947 -56.429306 13.540785 -55.140686 45.273289 -15.565392 -173.72865
14260000000 -30.063637 -157.39555 -57.175083 -9.9850445 -55.254612 16.981438 -15.400065 176.97397
14270000000 -27.516756 -151.85217 -58.610283 -23.605946 -54.969994 2.021204 -15.145093 168.30716
14280000000 -26.409988 -163.92372 -58.275871 -26.07243 -53.643394 -16.677462 -14.860717 160.61476
14290000000 -25.992041 -171.17151 -56.306454 -45.88369 -52.131767 -41.409023 -14.663636 153.91287
14300000000 -26.830914 175.67073 -53.708099 -58.774509 -50.371014 -66.595482 -14.537383 147.3141
14310000000 -27.646761 175.49475 -52.583496 -94.889328 -50.942154 -101.86488 -14.391726 140.38054
14320000000 -28.22864 169.18942 -52.776386 -115.61076 -51.599312 -120.13103 -14.128385 133.26627
14330000000 -28.355295 175.15437 -51.807751 -139.39548 -51.036911 -139.40373 -13.741242 126.33185
14340000000 -28.594604 169.89667 -51.163368 -162.25867 -49.872684 -167.19682 -13.303185 120.24958
14350000000 -28.863949 178.40071 -50.060307 173.76578 -49.876671 168.79692 -12.91711 115.18625
14360000000 -28.73764 179.90211 -49.859936 141.03452 -50.406712 139.65443 -12.618138 110.84908
14370000000 -27.820738 -173.37769 -50.161762 120.01012 -50.928024 123.70189 -12.354889 106.83887
14380000000 -26.630255 -179.13045 -49.939732 92.775871 -49.774441 95.85334 -12.153365 102.57718
14390000000 -26.265636 174.55441 -50.942287 68.362213 -50.817528 68.789078 -11.971617 97.89962
14400000000 -26.78113 162.83925 -51.096344 47.463665 -52.279202 50.365726 -11.770182 93.049423
14410000000 -28.634752 158.48457 -51.937729 27.789011 -51.294453 39.005146 -11.54577 88.31472
14420000000 -30.087961 166.05257 -51.246838 16.362074 -50.194336 11.812786 -11.270932 83.748848
14430000000 -29.442509 173.2361 -49.781162 -9.2704039 -50.744373 -14.921532 -11.047218 79.706627
14440000000 -28.835337 178.92516 -50.102642 -44.021427 -51.455647 -37.832253 -10.818369 75.989983
14450000000 -27.054749 177.88142 -52.047962 -64.024742 -52.107517 -54.514603 -10.610296 72.111229
14460000000 -27.391256 174.31966 -52.491756 -72.388031 -51.721828 -73.222267 -10.442926 68.086739
14470000000 -26.556688 175.69431 -50.810894 -94.00219 -51.586555 -93.900826 -10.280295 64.132874
14480000000 -26.527391 175.81229 -50.634647 -117.31452 -51.261639 -112.62727 -10.154925 60.218624
14490000000 -26.299091 168.51224 -51.033092 -138.02711 -50.751141 -135.81587 -10.094737 56.481842
14500000000 -27.561899 171.66541 -51.01453 -166.37798 -50.699627 -165.36047 -10.073817 52.723465
14510000000 -27.716499 169.44176 -52.722717 -176.90063 -52.433357 -177.50398 -10.069459 48.331367
14520000000 -28.8598 -175.10794 -51.052326 173.58589 -50.038322 166.63333 -10.075978 43.403873
14530000000 -26.783554 -177.39763 -48.934155 155.89424 -49.521046 137.84137 -10.047747 38.372246
14540000000 -26.380764 -174.23845 -47.811844 125.57375 -49.53194 116.38557 -9.9691687 33.944614
14550000000 -24.917446 178.0941 -47.041168 94.061951 -48.213371 92.836388 -9.9278526 29.857929
14560000000 -25.2176 175.8306 -48.82476 64.586891 -48.909595 65.776093 -10.007504 26.053619
14570000000 -24.535509 171.25046 -49.473034 50.63213 -49.014801 41.280991 -10.185425 22.104927
14580000000 -24.959393 171.19553 -48.631912 37.511391 -49.420307 25.076845 -10.462525 17.554762
14590000000 -24.964609 169.93417 -47.197262 7.3878245 -48.512894 6.9765186 -10.758015 12.565598
14600000000 -25.038832 176.2961 -47.162357 -17.976452 -47.306671 -14.213733 -11.117418 7.4526305
14610000000 -24.66923 174.30884 -47.609264 -45.279537 -46.744362 -46.699795 -11.521535 2.9505765
14620000000 -24.437384 -178.13048 -47.634254 -68.624718 -47.522694 -72.844879 -11.940184 -1.3545312
14630000000 -23.157082 178.45981 -48.261238 -94.707138 -47.887085 -92.254501 -12.454513 -6.3543663
14640000000 -22.615665 173.77293 -49.47599 -118.96499 -48.013512 -116.06554 -13.092514 -11.758161
14650000000 -22.403467 168.99777 -51.405781 -127.7737 -48.260746 -132.35263 -13.749331 -16.92869
14660000000 -22.309662 164.40274 -48.904457 -136.52267 -48.203728 -154.06221 -14.451422 -21.447363
14670000000 -23.184698 163.12386 -47.529469 -167.47993 -47.697319 -174.17424 -15.215232 -24.491053
14680000000 -22.410547 165.06158 -48.190285 165.67728 -48.035706 159.96277 -16.146009 -27.018246
14690000000 -22.864931 164.22618 -48.710354 145.60464 -48.098801 142.40613 -17.424891 -29.086321
14700000000 -22.010073 167.62328 -48.279423 129.52383 -47.649796 118.30272 -19.040527 -30.940685
14710000000 -21.872576 165.22021 -47.426781 107.46887 -48.899143 92.858963 -20.916664 -32.218277
14720000000 -21.133305 165.26318 -46.505859 79.518646 -49.487446 78.668922 -23.054506 -33.740814
14730000000 -21.023151 160.5334 -46.647354 53.581268 -49.530827 64.415474 -25.799175 -33.653667
14740000000 -20.567907 156.47614 -46.577194 25.515144 -48.513668 42.934021 -29.140924 -28.910521
14750000000 -21.12933 151.44141 -47.418526 -0.48102596 -48.260796 18.866789 -32.858643 -11.221234
14760000000 -21.023779 150.33597 -47.923107 -22.249002 -48.298321 -6.314908 -33.754425 21.807617
14770000000 -21.628836 148.05467 -49.076553 -42.534355 -49.759335 -24.929647 -31.306051 48.61031
14780000000 -21.112764 150.40822 -48.364262 -68.098557 -49.095764 -43.31144 -27.797016 62.695339
14790000000 -21.105707 149.26051 -49.416786 -88.250702 -48.374367 -62.697189 -25.021744 67.847572
14800000000 -20.285873 151.17265 -50.047215 -113.85982 -48.405342 -90.864655 -23.046856 71.309044
14810000000 -20.00889 146.5994 -51.491215 -132.82767 -48.88596 -115.16086 -21.574579 72.523438
14820000000 -19.663973 144.0379 -52.428596 -142.32396 -48.938393 -136.57005 -20.474548 72.346207
14830000000 -20.05324 138.59549 -50.303627 -155.00314 -48.633965 -161.40721 -19.607483 70.342308
14840000000 -20.469444 137.72241 -49.754276 179.58829 -48.395271 174.44827 -18.804884 67.991913
14850000000 -20.895369 137.32292 -49.38483 149.93915 -48.274101 145.26929 -18.087004 65.538979
14860000000 -20.770378 136.43671 -50.239662 121.64145 -49.023621 116.91528 -17.542713 63.62701
14870000000 -21.077858 133.77888 -51.635288 107.63318 -49.613712 95.827011 -17.145208 61.617165
14880000000 -21.073959 133.03853 -51.145283 91.039261 -50.024708 68.87529 -16.896444 58.407463
14890000000 -20.977526 132.01028 -50.035328 71.083221 -50.198624 52.192947 -16.569712 54.107018
14900000000 -20.579218 129.9532 -50.578396 45.372959 -50.165436 24.971029 -16.197485 49.324535
14910000000 -20.347584 127.86479 -50.655743 23.716408 -52.010536 2.8911667 -15.76157 46.214203
14920000000 -20.116564 122.41247 -49.023529 -4.1377611 -50.35387 -12.6269 -15.34435 44.670681
14930000000 -20.76676 120.14098 -50.368179 -42.349953 -50.240742 -45.390858 -15.047696 43.459507
14940000000 -21.090658 118.43272 -56.14991 -78.438148 -53.440811 -78.712708 -15.034961 41.48391
14950000000 -21.870737 121.26453 -55.755646 -44.93821 -55.900822 -84.994286 -15.245481 38.628193
14960000000 -21.944748 122.74275 -53.203793 -67.234406 -57.171028 -62.739899 -15.416254 35.267448
14970000000 -21.86511 127.36605 -53.174805 -99.545303 -53.581142 -83.692245 -15.48917 32.047104
14980000000 -21.20092 121.28099 -54.728039 -114.7286 -53.562012 -110.77752 -15.516784 29.515106
14990000000 -21.782032 117.32851 -53.458256 -128.71786 -52.454102 -129.04364 -15.603862 27.402441
15000000000 -22.233109 113.15129 -52.92165 -150.37717 -53.443375 -154.89572 -15.864192 24.924316
15010000000 -23.134726 113.26062 -53.163601 179.33928 -54.531597 -167.31125 -16.226278 21.754387
15020000000 -23.006371 114.03673 -55.804085 154.99583 -54.50782 170.80171 -16.437798 18.673346
15030000000 -23.191925 113.58096 -55.074432 167.62982 -56.525196 167.79512 -16.472145 16.042124
15040000000 -23.413286 112.48212 -51.757893 144.35692 -54.187843 160.23845 -16.468069 14.965792
15050000000 -23.790756 115.86668 -50.882057 116.56161 -52.625553 145.08844 -16.654154 15.791986
15060000000 -23.686178 117.85589 -50.82584 85.217682 -50.9007 115.75748 -17.041853 17.103899
15070000000 -23.501608 120.44719 -50.680397 62.966396 -51.43018 82.757957 -17.620512 17.453596
15080000000 -23.31612 119.42629 -50.88279 26.667303 -53.734982 55.243481 -18.303497 16.514101
15090000000 -23.617521 116.09361 -53.059464 0.66199231 -54.890064 46.805538 -18.887844 14.792793
15100000000 -24.196712 115.74789 -56.25581 -15.875904 -54.707001 35.229622 -19.21759 13.386948
15110000000 -25.118036 115.07333 -56.595016 -8.1554899 -54.436249 20.851313 -19.438589 13.505961
15120000000 -25.659199 123.32275 -54.348316 -15.321557 -52.331104 5.0454836 -19.521364 14.755924
15130000000 -25.081898 124.18889 -51.34304 -37.069569 -50.356483 -21.299917 -19.610197 15.346918
15140000000 -24.754036 128.23161 -49.69989 -67.404716 -49.334335 -59.504478 -19.779156 15.367651
15150000000 -23.805441 124.91087 -50.015705 -102.66451 -51.562519 -90.532509 -19.93021 15.40617
15160000000 -24.205814 123.6638 -49.896645 -128.2935 -51.807507 -108.67271 -19.918446 17.039232
15170000000 -23.670725 123.82398 -50.45084 -155.09367 -51.544174 -129.10408 -19.766996 18.886166
15180000000 -23.87569 122.56236 -52.533253 -175.80814 -51.804501 -147.16727 -19.763542 20.025867
15190000000 -23.637011 124.03232 -52.256073 166.04631 -50.675491 -178.62083 -20.10207 20.559824
15200000000 -24.112354 122.76183 -53.024071 146.63156 -51.756165 154.38722 -20.535776 20.283009
15210000000 -24.175274 125.46544 -51.292686 131.08423 -50.365673 135.98563 -20.982065 19.09589
15220000000 -24.309467 130.71382 -51.363892 108.76235 -49.76981 107.70288 -21.268326 16.240545
15230000000 -23.357248 131.17912 -50.592258 78.748199 -48.43972 74.803787 -21.527559 12.649682
15240000000 -22.985926 129.2019 -52.094597 49.683563 -48.862377 35.253723 -21.82477 9.3625422
15250000000 -22.553715 124.57339 -52.953426 32.237949 -50.057297 -0.17999838 -22.201574 6.2797456
15260000000 -22.867765 120.62775 -54.619442 18.93576 -52.418106 -15.975908 -22.560354 4.8382902
15270000000 -22.880417 119.50115 -52.542416 2.4857683 -51.072392 -31.857273 -22.910862 4.1545296
15280000000 -23.052284 116.92822 -52.024246 -13.336428 -50.327518 -52.08849 -23.410915 3.9808071
15290000000 -23.240885 117.89375 -50.682327 -48.168713 -49.266792 -84.249886 -24.68392 4.7341747
15300000000 -23.081039 116.7784 -51.248684 -81.280098 -49.606808 -107.40406 -26.754799 7.5891328
15310000000 -23.35449 118.75218 -53.354839 -108.82722 -49.643673 -132.36734 -29.820152 10.577803
15320000000 -22.727814 118.19534 -54.532928 -125.06611 -49.671661 -158.21788 -34.388569 17.954966
15330000000 -22.894667 117.80206 -55.106155 -147.36287 -51.432247 177.45726 -41.677834 38.456291
15340000000 -22.213911 114.95444 -57.770611 -165.55951 -53.364357 164.30197 -41.685085 119.36377
15350000000 -22.58667 111.9759 -57.654377 -161.94104 -53.843536 168.00443 -34.61684 139.66403
15360000000 -22.342098 107.02847 -54.715542 172.83777 -51.510731 153.45255 -29.903408 142.20757
15370000000 -23.531698 102.2564 -57.141582 125.32647 -51.12191 125.96432 -26.766186 141.50635
15380000000 -23.683699 102.65753 -63.234871 122.25571 -53.502979 107.64896 -24.627979 139.33502
15390000000 -24.538597 103.05478 -60.454967 153.80721 -54.395374 108.25733 -23.101645 135.11168
15400000000 -24.223289 104.08584 -56.441353 127.85426 -52.79604 100.19115 -21.718817 130.08989
15410000000 -24.393032 103.18132 -54.349525 94.082375 -51.984642 82.978012 -20.182058 125.29146
15420000000 -24.203854 100.99857 -54.479771 68.875557 -52.062065 66.433777 -18.666838 122.08385
15430000000 -24.439705 99.946625 -54.594398 39.188187 -51.681393 45.690041 -17.312656 120.12198
15440000000 -24.134619 96.039398 -55.28746 22.591648 -53.060364 30.338556 -16.405653 118.96883
15450000000 -24.8263 90.215599 -55.841274 0.54239279 -53.720284 17.798157 -15.794028 117.56464
15460000000 -25.438919 87.079216 -55.811928 -15.996952 -53.686081 8.3250465 -15.370083 115.13023
15470000000 -26.715462 84.141747 -56.273777 -39.318222 -53.536682 -11.763358 -14.934994 111.60056
15480000000 -27.507755 86.078072 -56.316788 -54.680031 -54.85955 -28.725283 -14.408417 107.33688
15490000000 -28.282595 87.26535 -58.379272 -63.258514 -55.002728 -28.716263 -13.847686 103.24069
15500000000 -28.532055 87.845772 -55.831215 -71.843048 -54.784721 -52.240028 -13.333318 99.888954
15510000000 -28.693333 89.382545 -52.961521 -89.771332 -54.319702 -59.801579 -12.844041 97.008423
15520000000 -29.072435 81.519997 -51.698635 -123.05971 -53.665546 -79.855698 -12.400623 94.101822
15530000000 -29.874907 84.623299 -51.24295 -152.99747 -53.696468 -101.74216 -11.959975 91.505653
15540000000 -30.328659 74.753258 -51.493061 -179.43735 -53.629963 -121.67667 -11.538541 88.861687
15550000000 -31.845932 77.429832 -52.187206 154.59079 -53.534809 -136.80255 -11.190387 86.483711
15560000000 -32.987663 61.634739 -52.660049 131.87323 -52.935249 -162.19763 -10.933549 84.280235
15570000000 -38.390446 67.941437 -53.022324 113.92581 -53.060478 168.99376 -10.74769 82.067398
15580000000 -41.840233 64.542221 -52.671314 90.482971 -53.447704 149.62279 -10.589129 79.511574
15590000000 -42.329353 127.23724 -53.895725 68.683479 -53.619244 125.56309 -10.452062 76.414124
15600000000 -44.134628 106.41142 -54.159782 50.185871 -53.336891 97.436401 -10.321404 72.900856
15610000000 -43.552925 148.10796 -54.689449 38.356068 -53.789383 71.183464 -10.152596 69.410538
15620000000 -52.995667 139.62634 -53.240604 28.625835 -53.326855 48.728062 -9.9274635 66.006424
15630000000 -41.916977 -154.2162 -51.140682 1.8660241 -52.957508 24.461325 -9.6684313 62.909111
15640000000 -45.192375 -139.97029 -50.846004 -31.166298 -52.274006 -8.2697573 -9.4428053 60.208267
15650000000 -38.887035 -132.845 -50.281578 -62.50658 -52.041451 -39.175316 -9.2606478 57.95406
15660000000 -36.986275 -119.44777 -51.628048 -94.502708 -52.836227 -69.347427 -9.1624355 55.753109
15670000000 -32.129898 -127.94742 -54.041103 -124.11861 -54.154102 -95.144173 -9.1326475 53.144745
15680000000 -30.803034 -136.45514 -58.821381 -131.18251 -55.393131 -115.77995 -9.1524534 49.938869
15690000000 -29.320976 -146.19676 -56.858318 -119.48314 -54.297146 -116.03131 -9.1617765 46.300701
15700000000 -29.77063 -151.12131 -54.842659 -142.64586 -51.911076 -138.66447 -9.1526728 42.580833
15710000000 -29.958923 -146.04576 -53.615517 -164.34229 -50.631775 -173.42847 -9.100935 39.140182
15720000000 -28.23859 -141.29671 -53.941959 175.83133 -51.7188 155.54004 -9.0610104 35.706635
15730000000 -27.69412 -143.80363 -53.056156 156.05447 -52.193245 138.43414 -9.0601387 32.04303
15740000000 -27.013447 -146.28717 -52.182274 131.31027 -53.148132 117.81542 -9.0576496 27.919636
15750000000 -27.442719 -144.50156 -52.367798 107.69102 -53.039314 102.59544 -9.0530519 23.759827
15760000000 -26.17548 -140.49931 -51.721283 79.831177 -52.006821 83.699577 -9.0370798 20.043453
15770000000 -25.118183 -142.23184 -52.850601 57.091972 -51.813843 66.029121 -9.0547485 17.047148
15780000000 -23.969093 -148.22949 -53.341644 34.547897 -51.205761 39.699875 -9.2007895 14.248219
15790000000 -24.144091 -156.26073 -54.191807 14.78163 -51.655354 19.230194 -9.4998541 10.805502
15800000000 -24.457468 -156.69083 -56.3074 9.6369715 -51.400173 1.0170382 -9.9084501 6.0400996
15810000000 -24.594784 -153.77834 -54.442062 -4.5512347 -50.86977 -24.082825 -10.342768 -0.16941299
15820000000 -23.695374 -149.12573 -54.026718 -18.617737 -51.855663 -44.815964 -10.683091 -6.8917465
15830000000 -22.696651 -151.59761 -52.293972 -40.134716 -51.834091 -64.320625 -10.924379 -13.218019
15840000000 -22.6138 -154.45119 -50.931175 -60.021259 -51.123573 -79.753098 -11.154008 -18.770882
15850000000 -22.923073 -155.32288 -49.931004 -86.997322 -49.868843 -102.20771 -11.488041 -24.085058
15860000000 -22.675945 -150.09137 -48.916973 -112.72164 -49.801609 -128.875 -11.983021 -29.265135
15870000000 -21.798105 -150.99417 -48.975376 -143.30498 -49.981701 -147.06284 -12.594679 -34.943264
15880000000 -21.4219 -153.66154 -49.619492 -168.89188 -49.670078 -169.76901 -13.352752 -41.030285
15890000000 -21.380312 -158.3484 -50.622112 168.62149 -49.212933 169.57098 -14.233279 -47.283783
15900000000 -21.828102 -158.98376 -50.257763 152.35628 -48.676064 146.18224 -15.294325 -54.546577
15910000000 -21.702944 -156.35783 -50.745632 127.68227 -48.600864 122.3369 -16.512571 -63.550087
15920000000 -21.092155 -154.70453 -50.819786 110.55953 -48.644356 104.06544 -17.829979 -75.297516
15930000000 -20.530918 -156.47054 -50.290642 91.606087 -48.028194 80.89045 -19.016907 -89.573006
15940000000 -20.407476 -156.91354 -50.696262 69.336861 -48.426556 57.227501 -19.87464 -105.36563
15950000000 -20.092337 -156.75809 -49.940731 51.136555 -47.919155 36.701679 -20.351131 -120.62136
15960000000 -20.038307 -155.41745 -49.14679 25.903742 -47.636013 18.468899 -20.595547 -135.23537
15970000000 -19.324139 -153.23805 -48.822639 3.8621936 -46.708164 -3.1271923 -20.659679 -149.77266
15980000000 -19.001425 -156.26294 -48.041988 -23.321974 -46.388145 -29.373196 -20.676689 -165.25388
15990000000 -18.947296 -157.10272 -48.663204 -48.997787 -46.76614 -50.629047 -20.499918 178.71362
16000000000 -19.24334 -158.25105 -48.969494 -75.884087 -46.959213 -71.402527 -19.887186 162.83128
16010000000 -19.10342 -154.31413 -49.980644 -97.681129 -46.59935 -90.874321 -18.889643 149.88647
16020000000 -18.556013 -154.19031 -49.742336 -111.479 -46.021362 -111.95529 -17.71352 140.77496
16030000000 -18.019615 -154.59901 -49.339973 -139.30966 -45.953281 -136.73051 -16.680252 134.27907
16040000000 -17.64728 -157.20595 -51.33437 -162.27177 -46.28883 -158.92094 -15.924106 128.9175
16050000000 -17.586702 -157.59015 -51.486629 -175.40326 -46.114525 179.64616 -15.460284 123.78441
16060000000 -17.190752 -156.1767 -50.964188 170.2034 -46.144268 159.18929 -15.062134 118.80696
16070000000 -16.628717 -156.51926 -49.997086 144.1824 -45.67775 136.23311 -14.631069 113.50162
16080000000 -16.263742 -158.45338 -50.205223 116.50504 -46.031242 109.23795 -14.194355 108.6394
16090000000 -16.240118 -159.08194 -50.725929 101.92139 -46.750202 93.188896 -13.834147 104.08915
16100000000 -16.130388 -159.19987 -50.153114 79.231758 -46.155365 68.903915 -13.550401 99.614021
16110000000 -16.048513 -157.5513 -49.486897 57.259583 -46.560539 46.10199 -13.286134 94.898491
16120000000 -15.418341 -156.68391 -49.481853 25.819792 -46.667778 26.661699 -12.972936 90.057869
16130000000 -15.045548 -158.66295 -51.606693 4.7087808 -46.660076 4.5849757 -12.529076 86.078682
16140000000 -14.719039 -159.75259 -51.246403 -6.9713407 -46.930676 -15.677075 -12.078505 83.081993
16150000000 -14.47059 -161.86305 -50.728012 -34.79274 -46.668705 -39.95166 -11.768864 80.800682
16160000000 -14.213824 -162.19463 -53.010872 -56.855625 -47.433128 -64.610947 -11.635993 78.590775
16170000000 -13.794618 -163.7823 -52.819962 -65.959892 -48.169464 -83.819084 -11.655446 75.749084
16180000000 -13.598606 -164.7433 -51.626904 -85.422043 -48.230373 -101.56808 -11.704395 71.932053
16190000000 -13.383081 -165.92596 -51.88327 -103.32471 -48.067791 -122.5456 -11.67929 67.744095
16200000000 -13.336871 -165.48645 -51.695213 -123.6791 -48.085083 -145.41324 -11.559237 63.566227
16210000000 -13.005766 -164.91975 -50.498734 -142.31555 -48.677288 -165.2466 -11.451596 59.886894
16220000000 -12.64125 -164.4677 -50.231731 -167.37059 -49.036823 176.27264 -11.353677 56.361126
16230000000 -12.161383 -166.44135 -49.314663 170.17477 -48.431084 159.85823 -11.290181 52.614723
16240000000 -11.977599 -168.10143 -49.121059 133.45284 -48.16729 133.96379 -11.219977 48.803036
16250000000 -11.779117 -170.78258 -51.35878 107.61073 -48.936546 111.4648 -11.09973 45.254341
16260000000 -11.738058 -172.07741 -52.632305 99.614525 -49.26387 97.856194 -11.022091 42.432571
16270000000 -11.563102 -173.83649 -52.41309 77.706581 -48.673214 76.036537 -11.071384 40.012978
16280000000 -11.443912 -174.21315 -52.418743 56.613735 -48.622883 56.236706 -11.237313 37.211014
16290000000 -11.12044 -175.22237 -54.391582 42.080563 -48.808826 33.377842 -11.533091 33.215672
16300000000 -10.991825 -175.84465 -53.137066 34.456928 -48.741718 13.403362 -11.850523 28.205673
16310000000 -10.644279 -175.79918 -51.316216 16.825642 -49.285847 -6.437098 -12.059682 22.583183
16320000000 -10.299658 -176.44699 -51.226192 -6.865612 -49.269001 -23.190701 -12.251877 16.972242
16330000000 -9.9137812 -178.01781 -50.208698 -20.606323 -48.772484 -41.121685 -12.475506 11.707307
16340000000 -9.7713566 179.72754 -48.654663 -49.414932 -47.746132 -64.262688 -12.773377 6.5186782
16350000000 -9.7087803 177.81972 -48.684437 -77.412392 -48.352367 -90.100853 -13.090767 1.2863997
16360000000 -9.7628965 176.11507 -48.823612 -102.06664 -48.429115 -109.17887 -13.452437 -3.9430828
16370000000 -9.7994938 176.01241 -49.28286 -126.1328 -49.000729 -129.75011 -13.896137 -8.5918026
16380000000 -9.5899296 175.52205 -49.483562 -143.59792 -48.727169 -143.09822 -14.573908 -13.088658
16390000000 -9.3551502 175.02049 -48.749226 -166.61871 -47.733376 -163.95395 -15.532297 -18.246042
16400000000 -8.9948587 173.72217 -48.461582 170.85707 -47.172092 170.81345 -16.68045 -25.963524
16410000000 -8.7684698 171.8761 -49.111431 143.45552 -47.703171 144.48282 -17.868059 -35.764656
16420000000 -8.5536575 170.53062 -49.321175 127.54545 -47.970821 126.51409 -18.814779 -46.745861
16430000000 -8.382493 169.18976 -49.234966 103.29453 -48.325626 102.89777 -19.750753 -57.642544
16440000000 -8.2157383 167.98969 -49.631752 87.801445 -48.327721 90.088684 -20.813681 -68.178932
16450000000 -8.1814823 166.44637 -48.851006 71.065681 -47.281925 69.355057 -22.134798 -81.44178
16460000000 -8.199194 165.89565 -47.751064 44.784615 -46.792191 42.731857 -23.288242 -97.823799
16470000000 -8.1535015 165.70601 -47.813271 20.816174 -47.181988 18.207701 -23.904564 -115.77347
16480000000 -8.012742 165.64508 -47.591106 -1.600811 -47.684345 -2.6079926 -24.362225 -133.72531
16490000000 -7.716651 165.06993 -47.339081 -26.444059 -47.09811 -19.967253 -24.715677 -153.70255
16500000000 -7.4401946 163.34117 -47.559658 -47.326778 -46.72036 -43.932938 -24.196949 -175.7874
16510000000 -7.2533422 160.89632 -46.607399 -70.380745 -46.669373 -67.151093 -22.40489 166.15671
16520000000 -7.1922526 159.18553 -47.029804 -96.499413 -46.818127 -91.852257 -20.523514 156.34068
16530000000 -7.1443024 157.93736 -46.622887 -120.44572 -47.10297 -113.83511 -19.200142 151.45668
16540000000 -7.0803137 157.75499 -46.906784 -148.21754 -47.104641 -135.48305 -18.440289 147.68007
16550000000 -6.8727102 157.16476 -47.380383 -173.28667 -46.956356 -158.74333 -18.034014 142.3239
16560000000 -6.7542462 156.50713 -47.435097 165.36824 -46.816372 176.22478 -17.681007 135.72839
16570000000 -6.6122479 155.81039 -48.476208 135.99916 -47.500374 151.81352 -17.183298 129.29002
16580000000 -6.493731 155.45898 -49.437511 124.38306 -47.575699 133.0791 -16.541916 124.23929
16590000000 -6.2332802 154.64069 -48.947403 99.805099 -48.011127 106.02737 -16.008457 119.80662
16600000000 -6.0636272 152.86189 -49.313965 78.069054 -48.341106 87.392982 -15.580108 115.89331
16610000000 -5.9133325 151.08763 -49.354301 59.135651 -48.459229 67.791573 -15.145466 111.27588
16620000000 -5.8944993 149.19919 -48.679291 42.77433 -48.330795 45.145702 -14.662389 106.94588
16630000000 -5.8395782 148.49806 -48.155979 14.154291 -47.954144 20.902397 -14.094381 103.7057
16640000000 -5.7160563 147.91512 -48.413799 -10.247152 -48.542671 -6.4629951 -13.643663 101.69762
16650000000 -5.4745293 147.47435 -49.181641 -35.000313 -49.364155 -24.624645 -13.35008 100.40788
16660000000 -5.2470527 146.39581 -49.14246 -53.403996 -49.846603 -46.148029 -13.290426 98.562561
16670000000 -5.0438561 145.31158 -48.761368 -77.906044 -49.951546 -66.173401 -13.341937 95.55072
16680000000 -4.9150858 144.09055 -48.929661 -107.5587 -49.878654 -89.616417 -13.334279 91.1353
16690000000 -4.7492828 143.30197 -50.281097 -133.39261 -49.910583 -112.6898 -13.214721 86.384605
16700000000 -4.6122742 141.82098 -51.962688 -152.83228 -50.753895 -137.86893 -12.968072 82.223923
16710000000 -4.4726663 140.64458 -51.45676 -164.89912 -50.773556 -153.83781 -12.672484 79.094032
16720000000 -4.3842936 139.02161 -51.346722 173.10857 -50.817387 -178.86195 -12.401114 76.363731
16730000000 -4.2863498 137.99384 -51.487717 150.82808 -51.138916 158.32924 -12.199608 73.928879
16740000000 -4.1616836 136.85992 -52.518074 132.27301 -51.996582 137.67242 -12.059759 71.452637
16750000000 -3.9621313 136.02872 -50.95702 120.46684 -51.16433 118.16 -12.012395 69.239006
16760000000 -3.7479651 134.4386 -49.410427 86.343689 -51.464684 93.368591 -11.987117 67.041855
16770000000 -3.5920255 132.93942 -50.309906 56.548485 -51.511833 66.483185 -12.038385 64.354721
16780000000 -3.4625256 131.58662 -51.262836 29.541935 -52.814793 41.653301 -12.14223 60.931026
16790000000 -3.3411784 130.31946 -52.088478 4.823473 -53.339901 18.827656 -12.316596 56.688965
16800000000 -3.2223177 129.09813 -53.117741 -17.448805 -54.587147 6.1280303 -12.435295 52.042156
16810000000 -3.0936439 127.74338 -54.254417 -39.88282 -53.503742 -8.0302029 -12.480754 47.054237
16820000000 -3.0003929 126.23825 -55.362637 -59.329224 -53.180378 -35.099758 -12.464522 42.294098
16830000000 -2.8888476 124.81638 -56.478252 -80.77861 -53.616497 -59.305767 -12.380716 37.748913
16840000000 -2.7773476 123.35822 -56.534874 -100.66495 -54.52837 -88.956512 -12.316605 33.822567
16850000000 -2.6275616 121.89904 -59.359226 -121.08463 -56.020618 -108.7649 -12.316627 30.538408
16860000000 -2.4981191 120.24581 -61.449085 -118.76142 -56.506458 -127.64147 -12.435962 27.726152
16870000000 -2.3622952 118.69904 -59.035522 -112.84504 -58.405575 -136.06818 -12.760527 24.521191
16880000000 -2.2587578 117.17211 -54.639782 -141.68307 -56.199291 -147.71547 -13.308869 20.817696
16890000000 -2.1446354 115.84609 -53.843437 -176.52637 -55.154388 -174.03691 -13.929343 15.273067
16900000000 -2.0447533 114.54061 -54.744286 152.01839 -56.414886 157.50777 -14.523343 8.5002708
16910000000 -1.9405955 113.16105 -56.052158 132.98668 -56.984417 141.57422 -14.965855 0.38602421
16920000000 -1.8656869 111.74178 -55.274708 115.07064 -56.909779 122.04951 -15.316569 -7.6965466
16930000000 -1.7765187 110.25679 -55.411968 85.218102 -56.630772 105.34579 -15.686882 -14.999068
16940000000 -1.7043276 108.69374 -56.340973 65.910988 -55.087059 80.976822 -16.214497 -21.794338
16950000000 -1.6042566 107.07284 -56.79158 42.048168 -56.166752 53.957542 -16.886156 -28.265503
16960000000 -1.522478 105.33531 -57.08379 21.908272 -56.393742 34.491684 -17.79315 -35.230045
16970000000 -1.4268255 103.71269 -58.082073 6.1869316 -55.702888 16.318535 -18.932911 -43.344341
16980000000 -1.3438441 101.99593 -57.495838 -10.557741 -55.174194 -10.087837 -20.379354 -54.046188
16990000000 -1.2596895 100.47243 -57.042828 -36.043839 -55.203857 -39.694221 -21.97876 -68.158249
17000000000 -1.1785492 98.973747 -56.925407 -55.044788 -56.248749 -66.094994 -23.177303 -87.369621
