!Keysight Technologies,P9374A,MY57211807,A.19.30.04
!Date: Friday, May 08, 2026 15:22:47
!Correction: S11(C  2-Port  ) 
!S21(C  2-Port  ) 
!S12(C  2-Port  ) 
!S22(C  2-Port  ) 
!S2P File: Measurements: S11, S21, S12, S22:
# Hz S  dB   R 50
13000000000 -18.683378 54.494076 -51.877056 15.56054 -51.825489 19.830711 -8.5103064 -60.590923
13010000000 -19.557467 55.626068 -50.467968 -4.6638546 -49.532658 -1.3586061 -8.7088776 -65.468361
13020000000 -19.875267 60.119625 -49.835339 -26.709364 -50.159286 -25.825758 -8.9157915 -70.306618
13030000000 -19.813337 64.7593 -49.598057 -59.467979 -49.614109 -54.686783 -9.130022 -75.069664
13040000000 -19.607937 65.625854 -51.659836 -89.616417 -50.719231 -85.478081 -9.3645258 -79.871964
13050000000 -19.313824 66.565842 -53.867077 -105.20551 -53.293503 -110.10024 -9.6261425 -84.996315
13060000000 -19.056202 62.737411 -54.028873 -111.99643 -54.13287 -108.32469 -9.8950443 -90.425468
13070000000 -19.409565 59.546799 -53.09623 -130.52197 -52.544476 -128.16083 -10.156096 -96.225983
13080000000 -19.706913 58.430698 -52.101265 -157.35213 -52.596466 -152.19495 -10.346095 -101.79593
13090000000 -19.971375 57.77784 -52.202442 170.37573 -52.22187 -179.19588 -10.52192 -107.10687
13100000000 -20.179804 60.323746 -54.271919 137.23395 -53.553371 143.94965 -10.734921 -112.13802
13110000000 -19.883636 62.885033 -59.087952 133.06085 -58.085293 134.65276 -10.992414 -117.34777
13120000000 -19.556581 62.607544 -56.009178 113.37239 -56.663002 122.17054 -11.285728 -123.20066
13130000000 -19.340816 62.706348 -56.419086 94.234283 -56.35788 115.54489 -11.509747 -129.60963
13140000000 -19.08436 62.557838 -56.666683 59.645489 -55.097996 82.475677 -11.684961 -135.94398
13150000000 -19.029701 59.688717 -58.620804 25.886086 -57.019287 48.118279 -11.826884 -141.92072
13160000000 -19.462793 59.957954 -66.700775 -36.130562 -62.533142 29.793613 -12.010618 -147.68381
13170000000 -19.379776 59.339081 -72.785332 45.194633 -59.25663 43.476761 -12.249839 -153.79289
13180000000 -19.560606 58.698654 -69.949814 105.29006 -61.299622 26.761393 -12.456179 -160.87399
13190000000 -19.252405 58.055134 -63.361622 55.274979 -59.590233 17.094912 -12.534555 -168.49893
13200000000 -19.298061 53.729576 -64.106117 32.296616 -57.648949 -9.9132938 -12.479579 -175.83212
13210000000 -19.587072 54.394001 -62.816807 48.765385 -59.77224 -43.868515 -12.427844 177.67732
13220000000 -19.47942 52.956566 -58.700687 31.428108 -64.052956 -37.608055 -12.440333 171.85184
13230000000 -19.597185 53.353336 -56.785496 14.684079 -62.522758 -30.971863 -12.543859 165.60268
13240000000 -19.45578 54.632896 -52.852982 -17.096048 -58.321747 -47.55587 -12.585047 158.31038
13250000000 -18.994537 53.958897 -53.084694 -44.701492 -61.337616 -72.868027 -12.501279 150.20975
13260000000 -18.86989 51.790825 -51.658894 -72.902863 -56.74086 -80.724899 -12.238833 142.68425
13270000000 -18.764517 48.565483 -52.516632 -94.510063 -57.637806 -105.45955 -11.932816 136.19139
13280000000 -19.182718 44.766571 -51.233017 -108.87113 -56.491848 -104.42322 -11.694279 130.53345
13290000000 -19.683622 42.627365 -49.656433 -133.09224 -53.831764 -132.50409 -11.567436 124.78343
13300000000 -20.221233 42.228085 -48.224804 -158.10326 -52.401287 -152.81856 -11.497799 118.49587
13310000000 -20.580803 44.543831 -47.604633 170.30386 -51.748257 -178.52449 -11.325913 111.73952
13320000000 -20.067842 45.349159 -47.709679 140.11115 -51.943722 159.25908 -11.014865 105.03888
13330000000 -19.836412 43.215672 -48.458359 118.61182 -50.076027 139.68684 -10.647251 98.980209
13340000000 -19.414137 42.516331 -48.564629 102.4085 -50.007465 115.01584 -10.35268 93.511307
13350000000 -19.284603 36.382122 -47.41367 83.664413 -49.405861 99.454681 -10.164126 88.335373
13360000000 -19.657896 34.429237 -46.021698 57.570061 -47.238911 77.124405 -10.050462 82.848816
13370000000 -19.958385 31.100378 -46.019863 28.862246 -46.837074 46.859718 -9.8828192 76.651375
13380000000 -20.654572 30.407507 -46.885082 5.8131118 -46.785034 21.233204 -9.6183434 70.148232
13390000000 -21.315947 31.43084 -46.872597 -10.349181 -47.169434 5.1520128 -9.2967434 64.052376
13400000000 -21.147236 34.102943 -45.512878 -32.748283 -45.246159 -15.259223 -8.952239 58.531872
13410000000 -21.235777 31.366333 -45.336544 -60.5755 -44.395302 -43.921974 -8.7213697 53.563866
13420000000 -21.15489 31.734398 -45.748314 -84.82872 -44.409367 -73.146065 -8.5917606 48.454231
13430000000 -21.073627 26.059187 -45.410862 -104.01785 -44.225544 -94.601013 -8.4916754 42.946545
13440000000 -21.321007 23.81245 -45.638992 -127.4406 -44.280434 -117.76676 -8.3860655 36.923557
13450000000 -21.47669 20.565933 -45.365044 -145.33388 -43.904007 -139.64633 -8.2251291 30.627901
13460000000 -21.912962 19.325481 -44.418011 -169.4214 -43.099247 -162.59888 -8.0278988 24.707621
13470000000 -22.405741 17.020088 -44.289989 166.37692 -42.70668 171.73041 -7.8818498 19.157089
13480000000 -22.773418 19.941689 -44.461861 143.11224 -42.757652 147.43681 -7.7960267 13.769299
13490000000 -23.094229 17.815647 -44.108101 119.15246 -42.469471 121.31864 -7.7831473 8.322135
13500000000 -23.306007 18.84049 -44.609665 98.472473 -43.08746 98.00489 -7.8148465 2.6293375
13510000000 -23.731695 20.002851 -44.174988 77.686081 -42.650677 78.198326 -7.8263769 -3.3153582
13520000000 -23.645664 18.600142 -43.815609 55.358677 -42.462692 54.336098 -7.8652701 -9.3279009
13530000000 -23.964216 15.150236 -43.759468 30.62492 -42.264233 29.70005 -7.9348788 -15.188665
13540000000 -24.00684 12.89056 -43.39957 10.24771 -42.13517 8.3138981 -8.0485325 -20.99194
13550000000 -24.415497 8.5304127 -42.910477 -12.753661 -41.636948 -15.487276 -8.2110529 -26.779924
13560000000 -24.896149 8.0669899 -42.878315 -38.656654 -41.68528 -41.869209 -8.3975039 -32.856232
13570000000 -25.824604 9.5531263 -43.199657 -62.089787 -42.016239 -65.713196 -8.5637779 -38.893913
13580000000 -25.955307 9.037694 -43.211357 -83.944054 -41.974453 -88.744766 -8.7295218 -44.866516
13590000000 -26.971584 14.346118 -43.019943 -103.65876 -42.051758 -110.37619 -8.921174 -50.574291
13600000000 -26.325029 18.553673 -42.738163 -127.96194 -41.790386 -131.76262 -9.1497011 -56.177265
13610000000 -26.144901 20.888046 -42.423561 -150.56847 -41.52285 -156.31773 -9.4596748 -61.766018
13620000000 -26.204926 15.630045 -42.595345 -176.48425 -41.526417 179.98427 -9.8047037 -67.742966
13630000000 -26.842987 14.676303 -42.682652 163.28882 -41.232891 155.85153 -10.146539 -73.890656
13640000000 -27.154631 8.4619265 -42.554092 139.99269 -41.493999 129.76141 -10.436247 -80.233879
13650000000 -28.652155 7.851336 -42.599308 118.34677 -41.847069 107.60922 -10.690107 -86.406067
13660000000 -28.960484 9.9989433 -42.639965 95.319344 -41.846718 85.399689 -10.922895 -92.368042
13670000000 -29.931095 13.428851 -42.443878 74.362389 -41.931061 63.537411 -11.2061 -98.18338
13680000000 -29.817955 24.193827 -42.136539 51.980206 -41.495499 39.32914 -11.551322 -103.92303
13690000000 -28.090508 28.998285 -42.054836 28.296289 -41.983093 14.78425 -11.921715 -110.13194
13700000000 -27.213362 24.81052 -41.69117 4.2848554 -41.833267 -7.7256341 -12.296749 -116.83689
13710000000 -26.923132 23.656782 -41.870995 -18.898075 -42.018848 -30.815571 -12.602077 -123.97929
13720000000 -26.910547 15.553282 -41.723045 -42.996029 -42.107498 -54.938267 -12.83615 -131.14609
13730000000 -28.114862 14.054847 -41.95369 -65.666283 -42.22057 -79.762344 -13.039323 -137.97554
13740000000 -29.181097 12.756426 -41.707981 -87.391808 -42.726849 -102.21394 -13.265038 -144.62778
13750000000 -31.379667 19.394808 -41.350163 -110.23396 -42.574024 -122.5499 -13.490469 -151.62077
13760000000 -30.329201 30.711386 -41.118904 -136.45293 -42.514713 -147.56354 -13.674823 -159.46342
13770000000 -29.809111 33.285976 -41.198177 -162.76915 -42.652374 -174.1658 -13.762394 -167.79265
13780000000 -28.134138 31.294424 -41.502514 173.80003 -43.487003 163.18993 -13.710001 -175.77563
13790000000 -27.137877 22.786007 -41.552761 149.20844 -43.489986 142.72076 -13.616178 177.22585
13800000000 -26.938349 12.238386 -41.659389 126.45538 -44.13195 120.00117 -13.571426 170.71295
13810000000 -27.212933 8.1692181 -41.556267 101.49944 -44.014198 98.851463 -13.604911 163.8884
13820000000 -27.533972 -2.1638489 -41.920734 76.302917 -44.23756 73.290794 -13.643667 156.32794
13830000000 -29.162157 5.0251775 -41.832619 51.647388 -44.592812 50.278473 -13.559989 148.09866
13840000000 -29.051817 -0.49306709 -42.245831 26.932709 -45.130325 28.923153 -13.297086 140.1823
13850000000 -30.406956 13.709385 -42.617676 2.1496315 -45.738365 5.4813943 -12.98926 132.79614
13860000000 -28.661018 12.994684 -42.977554 -23.557617 -45.853333 -13.63083 -12.744231 125.98163
13870000000 -28.460152 13.014218 -43.537373 -48.666664 -46.291096 -35.609722 -12.543085 119.28242
13880000000 -27.518253 5.3707242 -44.067276 -71.750771 -46.345779 -55.115791 -12.338455 112.30494
13890000000 -27.212713 -1.3294377 -44.60252 -95.604393 -46.204563 -78.788429 -12.072806 105.18201
13900000000 -26.948744 -14.936913 -44.929047 -121.75272 -46.749878 -104.66792 -11.774353 98.44178
13910000000 -27.826042 -17.115005 -45.82275 -146.56686 -47.769398 -124.39075 -11.480076 92.06633
13920000000 -27.745728 -29.667036 -46.223797 -169.87907 -47.177212 -141.98882 -11.25411 85.799332
13930000000 -30.596569 -31.783716 -47.763947 166.32993 -47.280079 -164.66704 -11.080143 79.122787
13940000000 -30.898424 -28.219807 -48.791229 140.65523 -47.807739 165.99008 -10.897722 72.064133
13950000000 -32.250153 -22.297241 -49.6451 121.9795 -49.134212 146.61986 -10.667868 65.046333
13960000000 -31.073938 -19.061356 -51.013332 100.63548 -48.937252 133.93973 -10.384523 58.166759
13970000000 -30.108601 -19.800488 -51.758263 75.065971 -48.489487 106.7835 -10.126214 51.817497
13980000000 -28.63242 -33.946194 -55.133198 54.291889 -49.55928 84.110672 -9.9230366 45.754875
13990000000 -28.031851 -47.413818 -55.612221 49.430824 -49.429939 61.270931 -9.7971888 39.532734
14000000000 -27.564575 -62.118046 -56.265129 35.291267 -50.491516 41.636757 -9.7466698 33.240318
14010000000 -27.851402 -74.24807 -56.93071 11.803123 -50.972511 17.968941 -9.7365532 26.558853
14020000000 -28.487232 -82.476845 -60.812649 2.9532471 -52.215786 -4.2161813 -9.7176924 19.617229
14030000000 -30.687712 -88.647514 -59.45787 19.58024 -52.889843 -15.248618 -9.7351675 12.597707
14040000000 -31.719105 -81.807991 -56.030083 -0.20979196 -52.729408 -38.107204 -9.788352 5.4209752
14050000000 -32.007175 -68.651291 -54.955029 -17.21998 -53.234425 -51.704498 -9.8663054 -1.7615752
14060000000 -30.940256 -64.833282 -54.236748 -45.486736 -52.949703 -71.817482 -9.9946346 -8.9752817
14070000000 -29.995808 -70.986031 -55.310707 -60.212734 -53.775539 -94.776283 -10.136977 -16.444368
14080000000 -29.160715 -82.208755 -54.41256 -72.961479 -54.393959 -109.28564 -10.306272 -24.026369
14090000000 -28.788002 -94.382744 -52.840939 -93.165726 -55.050514 -118.31762 -10.491138 -31.66728
14100000000 -28.051847 -113.25887 -52.298615 -115.13313 -53.65514 -134.92714 -10.707175 -39.232059
14110000000 -29.02718 -125.61329 -51.79245 -134.00673 -53.199696 -152.07945 -10.969593 -46.585155
14120000000 -29.137238 -133.93489 -50.810307 -157.06024 -52.230274 -173.74776 -11.329443 -54.011608
14130000000 -29.969097 -138.91196 -50.267288 -175.59387 -51.901531 166.59918 -11.739568 -61.918671
14140000000 -30.21854 -135.33241 -49.432938 151.9041 -51.819748 138.23567 -12.158317 -70.50914
14150000000 -30.80368 -131.33423 -49.579277 127.864 -51.342251 119.76144 -12.519426 -79.387817
14160000000 -29.499073 -128.55948 -50.1577 104.0407 -51.830315 94.945984 -12.817824 -87.85717
14170000000 -29.413069 -128.91072 -50.523064 86.516716 -51.83572 76.799934 -13.147008 -95.676376
14180000000 -28.158142 -134.61748 -49.734081 68.275322 -51.987961 57.518505 -13.56472 -103.48615
14190000000 -27.868546 -143.76848 -48.961918 43.445946 -51.22702 34.431389 -14.069188 -112.16382
14200000000 -27.294365 -151.58278 -49.07098 18.736702 -51.875832 17.651981 -14.528348 -122.02071
14210000000 -27.550508 -160.89937 -48.907375 0.25758988 -50.401508 -0.55557787 -14.804967 -132.53598
14220000000 -27.471886 -164.65982 -48.26223 -25.902367 -50.01992 -32.895748 -14.881757 -142.81873
14230000000 -27.858784 -172.95145 -49.056408 -50.268559 -51.253872 -55.16576 -14.913258 -151.99239
14240000000 -28.780926 -170.26273 -48.136295 -74.167572 -50.506264 -75.789398 -14.975391 -160.63304
14250000000 -28.484745 -166.65941 -48.962234 -100.55351 -51.646839 -101.78459 -15.036845 -169.11201
14260000000 -28.96327 -164.45299 -49.238632 -119.29765 -51.687138 -114.96068 -14.983622 -177.84488
14270000000 -27.834389 -159.11005 -49.053856 -144.42958 -51.729244 -137.63361 -14.83545 173.89352
14280000000 -27.433039 -165.67908 -49.000061 -164.00826 -51.30394 -155.30153 -14.633222 166.43382
14290000000 -26.490814 -167.32669 -48.639763 170.83568 -50.799492 177.66371 -14.479257 159.53493
14300000000 -26.857653 -178.80614 -49.580154 141.45416 -51.856785 156.54652 -14.418544 152.76543
14310000000 -26.758539 177.73956 -50.186459 123.65318 -51.236122 138.74222 -14.340974 145.79938
14320000000 -27.723732 166.26648 -50.190426 99.855705 -51.519371 112.34278 -14.146763 138.5298
14330000000 -28.18074 170.73529 -50.483994 82.403099 -52.013802 91.952858 -13.828848 131.50914
14340000000 -29.581415 169.92987 -50.867455 60.128773 -53.108963 76.039314 -13.44327 125.40388
14350000000 -28.748249 -177.75978 -50.949406 32.667629 -52.564762 58.125336 -13.07367 120.11287
14360000000 -28.384533 -176.77058 -52.004456 8.9333782 -52.258499 38.51033 -12.780445 115.47093
14370000000 -26.870211 -174.92424 -52.33445 -3.8055954 -50.687416 18.850365 -12.559366 111.05
14380000000 -26.676014 174.88109 -52.42366 -28.84341 -50.626007 -11.492305 -12.406138 106.49927
14390000000 -26.792418 173.007 -52.701881 -48.133869 -51.776768 -34.081413 -12.260279 101.62078
14400000000 -27.429562 163.16679 -53.074089 -73.41188 -52.002129 -49.120983 -12.072309 96.539757
14410000000 -28.771435 164.21974 -54.778004 -92.779625 -50.966549 -66.977768 -11.839153 91.586487
14420000000 -29.574745 164.24724 -55.139599 -100.18599 -51.202423 -92.53952 -11.562364 86.87645
14430000000 -29.648701 173.81081 -53.589775 -115.46348 -50.781151 -110.06181 -11.318478 82.551331
14440000000 -28.804386 177.01143 -52.28891 -143.44855 -49.284767 -134.85559 -11.131199 78.553719
14450000000 -27.398241 -179.51131 -53.675575 -165.87193 -49.80257 -162.27383 -10.931915 74.596519
14460000000 -26.689564 174.86107 -54.648521 170.95421 -50.071156 173.17392 -10.75124 70.342606
14470000000 -26.542477 172.67055 -54.815727 159.79596 -50.017624 150.25499 -10.610175 65.979759
14480000000 -26.638027 170.89738 -54.664539 145.3929 -50.842239 128.62016 -10.500726 61.923378
14490000000 -27.160501 169.70325 -52.158798 125.10159 -49.572525 111.83353 -10.432685 57.954498
14500000000 -27.847176 174.27983 -52.509445 97.596992 -49.759338 84.354935 -10.396319 53.833237
14510000000 -27.77594 176.27322 -51.685459 72.668304 -48.641949 59.052975 -10.407058 49.15461
14520000000 -27.799717 -176.13277 -51.909073 51.370392 -48.979908 31.665146 -10.397233 44.062592
14530000000 -26.718193 -178.75751 -51.836109 36.772774 -49.920734 7.3784151 -10.342083 38.871162
14540000000 -26.071627 -177.78006 -51.753563 7.747067 -50.655621 -15.096501 -10.268718 34.095413
14550000000 -25.447979 175.91107 -50.782078 -10.545638 -49.967426 -30.353966 -10.247363 29.803053
14560000000 -25.288773 177.19275 -50.622486 -37.215649 -49.558128 -58.747864 -10.33396 25.824537
14570000000 -24.660109 170.20009 -50.059219 -64.826286 -49.286171 -87.637337 -10.521854 21.509617
14580000000 -25.246902 172.25513 -50.426731 -93.61731 -50.084179 -115.14997 -10.814914 16.542999
14590000000 -24.981684 171.65799 -50.979588 -121.80883 -50.789936 -143.7056 -11.108629 11.294744
14600000000 -24.871082 178.61128 -52.056915 -143.64284 -51.790657 -169.25603 -11.429352 5.8933773
14610000000 -24.251719 175.98967 -51.292988 -158.11089 -51.649673 -178.93866 -11.774722 0.89360672
14620000000 -23.857256 178.66765 -50.748043 173.89584 -51.114632 148.74445 -12.204884 -4.039413
14630000000 -23.350508 174.80209 -50.542892 143.2973 -51.497272 111.75986 -12.754977 -9.2342587
14640000000 -22.860689 173.32832 -51.553467 115.86267 -53.443466 83.978516 -13.361416 -14.821922
14650000000 -22.802809 169.2505 -51.731312 87.689835 -54.335583 62.836636 -13.978447 -20.482101
14660000000 -22.514759 166.8248 -53.901279 60.722118 -56.063389 39.114361 -14.638116 -25.823307
14670000000 -22.904371 164.23241 -54.628826 44.067471 -54.659832 20.203209 -15.432902 -29.842262
14680000000 -22.472713 165.96564 -53.532906 25.399342 -56.433395 -21.935865 -16.363096 -33.343716
14690000000 -22.384079 164.57719 -53.608303 -2.9309897 -58.790604 -29.31757 -17.603266 -36.97271
14700000000 -21.912514 165.32962 -54.79565 -44.409473 -56.969044 -80.04023 -19.134819 -41.011681
14710000000 -21.895317 164.49141 -54.977585 -59.2099 -59.917526 -112.16386 -20.976397 -45.765839
14720000000 -21.260632 164.07451 -56.084831 -80.91655 -65.060593 -144.66583 -23.118111 -51.025814
14730000000 -21.124708 160.30318 -55.928051 -115.63251 -63.200142 -153.47066 -25.743351 -57.226021
14740000000 -20.843 156.41417 -56.16523 -141.94185 -62.66777 154.47459 -29.027628 -63.80666
14750000000 -21.191751 153.53271 -56.648987 169.58902 -62.670433 116.21071 -33.769855 -71.996376
14760000000 -20.874449 151.24329 -61.314381 142.98521 -65.615013 56.647282 -44.036358 -78.79715
14770000000 -21.340401 148.13065 -60.799568 128.48038 -68.01886 59.676708 -42.471855 95.107506
14780000000 -21.143818 148.92911 -61.337505 106.2073 -62.699375 27.811155 -32.691364 91.743233
14790000000 -21.120035 148.53157 -60.417892 71.164581 -58.936466 -29.516201 -28.105921 90.028725
14800000000 -20.561472 150.41211 -60.826508 32.421333 -60.000088 -79.184708 -25.227709 89.443298
14810000000 -20.114862 148.00522 -58.743595 1.9062749 -59.782299 -113.59792 -23.302588 87.807426
14820000000 -19.63335 144.86359 -60.14156 -45.60231 -62.602238 -144.90044 -21.989931 85.241936
14830000000 -19.958086 139.86641 -58.742226 -76.730133 -61.863209 -141.55469 -20.973089 81.50631
14840000000 -20.16951 137.31548 -59.521473 -102.25691 -60.496269 -161.28592 -20.07312 77.705269
14850000000 -20.781832 134.7643 -58.050678 -136.76721 -57.181786 151.76254 -19.210604 74.12339
14860000000 -21.123487 134.80904 -57.760895 -159.16304 -59.697674 119.70837 -18.560064 71.506538
14870000000 -21.621016 134.92128 -56.52829 171.65334 -60.021397 99.995331 -18.092051 69.03566
14880000000 -21.178049 136.98401 -56.449844 145.93126 -60.717144 80.620972 -17.849159 65.43692
14890000000 -20.579679 134.35526 -54.031734 116.3405 -60.393253 67.697159 -17.560768 60.556377
14900000000 -20.116886 129.72197 -54.388908 93.383438 -59.923843 66.761917 -17.191059 55.146671
14910000000 -20.055946 125.62916 -53.000172 63.526108 -57.327824 23.742201 -16.709646 51.278976
14920000000 -20.276857 120.10258 -51.178062 30.971981 -56.33189 12.243584 -16.239595 48.7966
14930000000 -20.972969 119.60233 -51.7645 -14.217204 -55.569405 -33.975689 -15.986629 47.200584
14940000000 -21.38098 119.21583 -54.365658 -31.817635 -57.527264 -62.103653 -15.995939 45.06245
14950000000 -21.883547 123.20863 -53.063084 -40.802006 -58.297958 -71.949112 -16.190353 42.042591
14960000000 -21.878729 124.1912 -51.324196 -68.167366 -60.269867 -90.863281 -16.367304 38.209316
14970000000 -21.519442 127.1987 -50.973358 -99.549789 -56.640663 -90.44767 -16.443951 34.684387
14980000000 -21.343901 121.28538 -50.655342 -124.66335 -55.030827 -126.18734 -16.434076 31.851208
14990000000 -21.436562 118.18848 -49.857174 -150.4789 -55.191723 -147.03674 -16.589575 29.435131
15000000000 -22.134346 111.06519 -50.332035 176.96193 -53.899326 178.94107 -16.907362 27.118254
15010000000 -22.722452 112.11105 -50.318562 153.12346 -54.186333 147.51227 -17.323238 23.864952
15020000000 -23.630001 109.28351 -50.529537 124.27375 -56.764935 124.31258 -17.576469 19.901657
15030000000 -23.676098 115.72461 -51.08543 96.436935 -55.269821 113.63902 -17.706951 16.719007
15040000000 -23.808596 116.5444 -52.130634 76.473923 -56.735023 85.33847 -17.692471 15.810252
15050000000 -23.039148 119.47118 -50.575405 55.16328 -54.083687 76.33271 -17.870852 16.474916
15060000000 -23.186119 117.47342 -51.35334 28.80551 -54.165462 36.851555 -18.282854 18.411863
15070000000 -22.973042 115.96655 -50.173958 -1.2035559 -54.165783 17.087059 -18.89563 18.460777
15080000000 -23.818275 114.76064 -51.126183 -30.487827 -52.678505 -15.151721 -19.744894 17.477612
15090000000 -23.947844 114.55991 -50.696861 -55.309727 -53.556717 -45.787701 -20.451519 16.201624
15100000000 -25.139694 117.43912 -51.805344 -88.610168 -55.159199 -71.625031 -20.740908 15.093731
15110000000 -24.924606 120.90331 -51.785542 -117.40393 -55.216892 -98.022919 -20.927578 14.666204
15120000000 -25.283293 124.70467 -53.494358 -142.43472 -56.880497 -119.19727 -21.139084 15.964941
15130000000 -24.560858 122.31779 -54.900379 -167.26764 -57.486519 -121.90999 -21.327288 17.423744
15140000000 -25.073587 124.88074 -54.51997 -179.00371 -54.777794 -158.03954 -21.46871 17.953556
15150000000 -24.169584 125.62144 -53.489117 148.91429 -57.179127 174.11382 -21.548676 17.792084
15160000000 -24.191839 126.38212 -53.909382 120.75709 -55.278023 153.5247 -21.508585 18.796871
15170000000 -23.471048 123.7808 -55.161076 83.19986 -56.071796 114.22135 -21.341978 20.463255
15180000000 -23.734035 123.28565 -55.945015 65.172966 -56.594986 81.544273 -21.348803 22.151834
15190000000 -23.502716 121.86285 -55.534668 36.119072 -58.265251 65.813057 -21.622993 23.048304
15200000000 -24.097738 122.91904 -55.967846 -4.6726398 -59.455536 30.009321 -22.223394 22.881092
15210000000 -24.157776 122.60783 -58.369701 -39.990143 -62.693424 8.6528587 -22.738501 22.030003
15220000000 -24.949673 131.13484 -63.016582 -65.642982 -62.75309 -7.0797701 -23.083899 18.023956
15230000000 -23.617153 132.9346 -63.68634 -67.869019 -64.189148 -11.3018 -23.384516 13.27248
15240000000 -23.062756 133.06097 -63.20438 -102.04904 -61.34029 -41.004162 -23.852703 8.2215576
15250000000 -22.192766 126.84614 -60.75742 -112.28073 -59.871773 -77.568512 -24.356743 5.0206027
15260000000 -22.287481 122.50034 -58.68536 -157.82474 -59.449638 -120.81335 -24.7794 2.6269701
15270000000 -22.19676 116.84821 -57.633533 167.55479 -58.724461 -168.90981 -25.182156 0.91896117
15280000000 -22.878794 111.74483 -56.046532 125.0816 -59.014519 127.9002 -25.966599 -0.35513026
15290000000 -23.760338 112.11012 -58.300156 70.652863 -68.395821 71.954651 -27.844824 -0.70385951
15300000000 -24.216213 118.93721 -59.036236 45.37711 -64.766922 62.093113 -31.092617 1.0334615
15310000000 -23.609596 124.19154 -63.343784 13.895666 -68.839401 12.400893 -37.372902 2.6431081
15320000000 -22.516146 124.01349 -63.669533 18.23835 -71.577164 47.213184 -67.699577 169.2907
15330000000 -21.892851 120.01045 -58.062214 -2.5474415 -63.501476 23.130522 -37.540413 -177.2099
15340000000 -21.61495 112.37308 -56.263908 -27.210152 -58.870075 -9.4344292 -32.261051 176.62277
15350000000 -22.116686 108.08531 -54.209042 -66.847168 -57.021927 -51.9193 -29.030872 169.47862
15360000000 -22.604744 100.85426 -53.467674 -100.05234 -56.747635 -94.427643 -26.337069 162.86679
15370000000 -24.212696 99.646225 -53.955528 -134.14568 -59.295258 -117.4857 -24.161524 158.42081
15380000000 -24.67675 103.76369 -55.343563 -159.05679 -57.680965 -145.58372 -22.434729 153.73912
15390000000 -24.757772 108.63006 -54.516331 -174.77608 -57.657887 -163.47318 -21.319304 148.18121
15400000000 -23.960497 107.76463 -52.823589 157.09293 -56.140827 175.89272 -20.282 142.69514
15410000000 -23.839165 106.14228 -52.954384 122.76178 -55.579128 140.47371 -19.026218 137.04832
15420000000 -23.363024 99.984009 -52.382393 103.25939 -55.497791 121.53771 -17.675068 132.35052
15430000000 -24.178244 95.361412 -52.578434 78.716751 -53.803764 106.49874 -16.489464 128.93544
15440000000 -24.394955 90.858429 -51.138359 57.108208 -51.906784 73.093536 -15.672925 127.26043
15450000000 -25.81362 89.767227 -50.897194 22.868876 -53.12426 39.542458 -15.066237 125.67003
15460000000 -25.877956 91.239677 -50.991524 -5.0266733 -51.985218 22.115875 -14.615379 122.81706
15470000000 -26.608189 90.089729 -51.615917 -30.274673 -51.772541 -7.7861032 -14.251119 118.59052
15480000000 -26.699604 86.012962 -51.333942 -55.696575 -51.943077 -31.142141 -13.826687 114.21225
15490000000 -27.757608 85.422447 -52.093613 -78.708359 -51.88039 -52.116108 -13.318377 110.01498
15500000000 -28.238491 82.138161 -52.723763 -100.35906 -52.107452 -76.167244 -12.808059 106.36628
15510000000 -29.581657 84.746857 -52.561935 -113.92639 -50.878796 -90.213684 -12.342449 103.09665
15520000000 -29.801699 84.153786 -51.290157 -139.31528 -49.887695 -122.06021 -11.938978 99.921349
15530000000 -30.316828 87.273857 -51.636871 -170.92896 -49.680786 -147.00294 -11.539479 96.948837
15540000000 -29.941519 81.723625 -51.947182 171.39091 -48.961456 -172.97516 -11.157969 94.140663
15550000000 -30.941463 75.425156 -52.336464 142.98132 -49.866093 157.52299 -10.811181 91.558273
15560000000 -32.87141 64.915985 -53.310471 127.48965 -50.562813 135.37331 -10.555654 88.945511
15570000000 -36.562817 54.798214 -53.538414 106.72615 -50.192684 118.84412 -10.407212 86.400185
15580000000 -44.390877 55.005901 -53.308353 90.878609 -49.297474 97.236832 -10.284761 83.717941
15590000000 -44.380741 114.76694 -52.891735 71.143051 -48.619003 66.627892 -10.143451 80.494736
15600000000 -48.144581 151.61107 -52.815063 48.797493 -49.275467 38.407291 -10.002365 76.839104
15610000000 -40.047523 159.3338 -53.202953 28.585083 -50.364616 19.58481 -9.8312922 73.057549
15620000000 -43.512146 140.82339 -52.9412 10.397976 -50.097126 -1.1793692 -9.632472 69.473587
15630000000 -48.722244 153.17529 -51.902912 -7.7533336 -49.732136 -23.538288 -9.4065428 66.275879
15640000000 -45.455555 -106.62184 -50.88549 -32.117207 -49.381706 -49.236992 -9.2046146 63.394066
15650000000 -39.142834 -116.75785 -50.64806 -57.557266 -49.577835 -70.963554 -9.0561237 60.93074
15660000000 -33.819912 -123.15327 -51.195583 -85.796722 -49.698475 -96.752937 -8.9692135 58.550816
15670000000 -32.922703 -137.75456 -51.808323 -102.73586 -49.978127 -121.7415 -8.951932 55.672672
15680000000 -30.580402 -134.93115 -51.875015 -119.34395 -51.810059 -141.51056 -8.9895706 52.166744
15690000000 -29.932589 -147.16348 -50.091526 -136.71817 -50.042778 -155.34561 -9.0140896 48.343327
15700000000 -29.257566 -147.29884 -49.654076 -162.78513 -50.401993 178.45409 -9.0171375 44.411346
15710000000 -29.871229 -150.97443 -48.744522 169.40825 -50.401737 160.09343 -8.980834 40.815735
15720000000 -28.468222 -142.84883 -48.762001 143.01312 -48.789227 138.44656 -8.9482536 37.350471
15730000000 -28.357327 -142.93405 -49.612759 117.66978 -49.601662 103.25399 -8.9618387 33.467876
15740000000 -26.950361 -142.593 -49.676117 100.16761 -50.883331 85.336571 -9.0049133 29.18709
15750000000 -27.001232 -143.55121 -49.060764 75.739182 -50.197735 67.224121 -9.0483942 24.970427
15760000000 -25.825581 -144.07874 -48.631592 54.810715 -50.454357 42.803513 -9.0676012 21.104698
15770000000 -25.516245 -144.75128 -48.741215 26.923016 -50.827141 22.83222 -9.1137781 17.826712
15780000000 -24.563011 -148.82996 -49.10656 3.3803012 -50.927166 -0.13632812 -9.2803774 14.617706
15790000000 -24.513075 -150.19386 -49.17239 -12.785839 -50.485641 -15.644732 -9.6141176 10.773895
15800000000 -23.7703 -153.05812 -48.267326 -37.346233 -49.88755 -45.602192 -10.069165 5.6601882
15810000000 -23.795729 -154.66281 -47.989468 -70.847321 -50.255714 -71.034988 -10.530175 -0.76270688
15820000000 -23.413031 -155.85677 -49.315598 -94.084229 -51.019253 -94.664429 -10.869844 -7.6384892
15830000000 -23.587133 -153.95485 -49.776455 -115.95951 -52.131588 -117.13176 -11.094313 -14.173488
15840000000 -23.14476 -151.98572 -49.645512 -134.19687 -51.805172 -128.5295 -11.366109 -19.934395
15850000000 -22.91811 -150.29724 -49.221107 -161.51816 -51.535137 -156.09402 -11.747892 -25.521933
15860000000 -22.144119 -150.67862 -50.131432 174.55684 -52.411121 -170.06619 -12.291127 -31.273603
15870000000 -21.853325 -151.42247 -50.798855 155.6284 -51.756199 171.26027 -12.961521 -37.726788
15880000000 -21.431082 -154.32578 -51.51017 136.2868 -51.708687 143.89682 -13.747688 -44.760605
15890000000 -21.433363 -156.10345 -51.057922 116.7019 -52.234215 126.23676 -14.632353 -52.068642
15900000000 -21.275261 -159.54132 -50.753094 89.963173 -51.716923 101.86224 -15.614693 -60.729042
15910000000 -21.669943 -158.51892 -51.670086 61.815372 -53.40638 77.176483 -16.7068 -71.582344
15920000000 -21.164473 -157.81358 -53.4893 45.86388 -53.114502 75.661324 -17.836542 -85.120705
15930000000 -21.238384 -156.2061 -52.797447 31.337471 -51.256187 48.131691 -18.70805 -100.67019
15940000000 -20.487423 -153.75296 -53.915878 10.743811 -52.071499 23.282473 -19.166462 -116.60974
15950000000 -19.998837 -153.80151 -52.773502 -8.5050993 -51.867378 1.5152899 -19.193193 -131.80678
15960000000 -19.439331 -155.85863 -53.592842 -31.147432 -51.987679 -17.521444 -19.036533 -146.04305
15970000000 -19.322245 -156.13118 -53.896427 -46.011852 -51.355629 -37.687916 -18.78158 -159.72467
15980000000 -19.225039 -157.05347 -53.977287 -61.844707 -51.940292 -58.40691 -18.510033 -173.31078
15990000000 -19.187094 -156.07181 -52.306824 -84.475067 -50.734196 -79.34539 -18.126293 173.63608
16000000000 -19.003328 -156.40813 -52.902679 -114.10985 -50.472374 -105.38132 -17.493414 161.17786
16010000000 -18.975836 -155.6396 -54.386211 -142.6942 -51.562374 -133.64687 -16.645882 150.74466
16020000000 -18.5084 -155.53557 -55.492714 -142.31334 -51.579884 -143.60579 -15.71136 142.67838
16030000000 -18.299875 -155.49602 -54.988636 -156.29898 -51.403812 -164.5972 -14.909808 136.23143
16040000000 -17.787706 -155.35709 -53.846478 -175.81427 -51.324787 173.67952 -14.305371 130.71515
16050000000 -17.4893 -156.65511 -53.212021 163.342 -50.753925 152.77625 -13.89808 125.43779
16060000000 -17.022758 -156.13966 -53.585754 139.96265 -50.613152 125.91916 -13.543849 120.23506
16070000000 -16.66441 -157.61568 -53.212757 122.0233 -51.451496 103.80788 -13.152899 114.94755
16080000000 -16.305344 -158.0065 -52.066395 103.63963 -51.244854 90.111435 -12.765415 110.23365
16090000000 -16.240318 -159.39075 -51.564117 83.776985 -50.682819 70.170845 -12.446116 105.78304
16100000000 -16.116653 -158.27657 -50.363388 58.388309 -50.037357 45.663212 -12.21831 101.44479
16110000000 -15.943595 -158.19154 -50.710201 34.915924 -49.816238 21.695211 -12.012 96.776611
16120000000 -15.49482 -157.47148 -50.589466 17.192642 -50.193272 -1.6697072 -11.747587 92.107971
16130000000 -15.154328 -158.3746 -49.886448 -3.2177966 -50.191574 -19.155783 -11.387166 87.942558
16140000000 -14.792809 -158.82718 -48.691013 -25.293661 -49.235287 -37.946251 -11.032458 84.558342
16150000000 -14.369648 -160.81354 -48.063046 -55.721432 -48.576366 -64.233124 -10.77917 81.943611
16160000000 -14.118288 -162.55168 -48.722385 -82.087189 -48.727596 -92.912926 -10.676527 79.436859
16170000000 -13.738896 -163.96858 -48.468079 -99.422073 -49.168144 -113.02352 -10.690016 76.423798
16180000000 -13.589919 -165.24583 -48.069538 -124.45773 -48.710979 -135.76074 -10.717769 72.607498
16190000000 -13.446155 -166.06331 -47.975182 -148.33461 -48.883553 -163.17363 -10.680972 68.390289
16200000000 -13.316239 -165.31682 -47.260654 -171.43977 -49.096283 178.75244 -10.60163 64.237091
16210000000 -13.01882 -165.41032 -47.165714 161.48494 -48.708382 157.33698 -10.542985 60.629082
16220000000 -12.75322 -164.68063 -47.298706 137.08948 -48.12273 130.20369 -10.512162 57.165649
16230000000 -12.26354 -165.59927 -47.118156 116.47398 -48.39101 109.38902 -10.501052 53.433411
16240000000 -11.915339 -167.05878 -46.639874 84.77269 -47.858574 79.646286 -10.4798 49.433865
16250000000 -11.644909 -170.35419 -47.151722 60.49815 -48.806973 53.519463 -10.411353 45.786442
16260000000 -11.588706 -172.6291 -47.075069 38.098862 -49.100803 32.459408 -10.374601 42.777935
16270000000 -11.502633 -174.58783 -47.148289 11.645594 -48.811081 8.230463 -10.423921 40.097977
16280000000 -11.519872 -175.31468 -47.598396 -12.354239 -49.301262 -15.512965 -10.615553 37.214836
16290000000 -11.33862 -175.08052 -47.453331 -39.73748 -49.700924 -41.610611 -10.933105 33.301586
16300000000 -11.018463 -174.77707 -48.016239 -64.717392 -49.894402 -63.331638 -11.275578 28.433512
16310000000 -10.572334 -175.30844 -48.240082 -91.64959 -50.079994 -88.961716 -11.552175 23.00145
16320000000 -10.213269 -176.71103 -49.272949 -119.46516 -50.503559 -118.88569 -11.807141 17.706621
16330000000 -9.9139128 -178.26155 -49.875179 -144.9678 -52.135979 -145.84924 -12.092158 12.565112
16340000000 -9.7831602 179.41718 -50.530361 -164.80934 -53.341854 -153.77829 -12.465269 7.5371461
16350000000 -9.7572441 177.78307 -50.52383 165.59245 -52.013073 178.1443 -12.852269 2.4243307
16360000000 -9.7595892 176.55629 -51.160046 141.3205 -52.656792 146.84879 -13.279384 -2.8880253
16370000000 -9.7426338 175.81129 -51.472603 109.77899 -53.826748 116.63492 -13.802512 -7.7203074
16380000000 -9.6099939 175.37857 -54.286976 82.459999 -57.062435 92.583359 -14.578368 -12.275681
16390000000 -9.3497381 174.80362 -55.394394 64.715111 -58.382816 82.072128 -15.662395 -17.228142
16400000000 -9.0591278 173.60995 -57.08379 37.267746 -60.23312 66.751389 -16.970747 -24.060459
16410000000 -8.787425 172.31998 -57.170513 10.240514 -59.866753 41.592396 -18.332167 -33.752869
16420000000 -8.5228863 170.66652 -60.186775 -29.270336 -62.384708 12.891726 -19.588242 -45.344509
16430000000 -8.3301573 168.97502 -65.433243 -53.286385 -66.320091 -13.565978 -20.868391 -57.386581
16440000000 -8.2827406 167.4789 -69.365273 -87.368256 -77.186302 -5.065134 -22.383108 -70.199104
16450000000 -8.2489576 166.8649 -69.53611 -131.20282 -72.442383 56.113682 -24.122622 -87.188789
16460000000 -8.1727972 166.35927 -69.902405 149.6709 -68.689865 40.027084 -25.388832 -110.24624
16470000000 -8.0748539 165.90233 -64.622849 98.403824 -63.013653 50.104568 -25.649014 -134.52843
16480000000 -7.9393477 165.16772 -62.043537 40.017696 -60.147156 10.556165 -25.290154 -157.11743
16490000000 -7.7597036 164.30542 -58.430794 14.42833 -57.81142 -9.3583565 -24.473663 -179.05774
16500000000 -7.5549374 163.22679 -61.548775 -12.522367 -58.686581 -41.513451 -22.862085 161.33987
16510000000 -7.3277521 161.51834 -55.906826 -21.1248 -55.928226 -44.879055 -20.749315 148.71271
16520000000 -7.1709847 159.88022 -53.872559 -63.1003 -53.655651 -80.429985 -18.917908 142.1004
16530000000 -7.0392113 158.23262 -55.081699 -95.654938 -53.811207 -109.41781 -17.725189 138.23686
16540000000 -6.999403 157.17574 -54.238991 -113.94431 -53.481079 -127.84544 -17.063753 134.60587
16550000000 -6.8974609 156.61537 -53.582893 -142.08324 -53.202202 -155.62534 -16.665661 129.78358
16560000000 -6.8401756 156.2803 -52.265041 -159.74998 -51.180168 -174.92178 -16.219509 123.74738
16570000000 -6.6774092 156.26674 -51.400604 167.74789 -50.91708 150.22264 -15.675881 117.72532
16580000000 -6.4447484 155.81767 -51.8358 146.36931 -51.599365 132.49362 -15.102611 113.25237
16590000000 -6.2079878 154.61728 -50.744251 121.95753 -50.25597 107.51424 -14.620731 109.50516
16600000000 -6.032239 152.76132 -50.761681 97.381363 -50.458679 79.526772 -14.200239 105.88171
16610000000 -5.9397416 151.01967 -49.564587 74.13166 -49.572308 57.846859 -13.804432 101.6227
16620000000 -5.8769302 149.39236 -49.668976 45.630543 -49.935043 26.672224 -13.367705 97.656136
16630000000 -5.8327155 148.3418 -49.599655 22.676935 -50.264191 6.7920651 -12.892192 94.763077
16640000000 -5.717401 147.77487 -49.75787 -4.329906 -49.376289 -19.867922 -12.531363 93.014214
16650000000 -5.5133586 147.44382 -49.782227 -22.046333 -50.12891 -45.681873 -12.314647 91.78627
16660000000 -5.26859 146.57211 -48.737541 -48.956409 -49.910683 -70.394287 -12.268448 89.732147
16670000000 -5.0398507 145.70879 -49.087601 -76.899239 -50.809368 -98.181732 -12.342932 86.354492
16680000000 -4.8397932 144.13045 -48.694145 -99.25383 -51.073627 -116.81628 -12.358658 81.987549
16690000000 -4.7215452 142.89728 -48.304893 -128.72211 -50.505772 -142.64238 -12.234155 77.717781
16700000000 -4.618959 141.48079 -49.152588 -154.20616 -51.405861 -169.25719 -11.95957 74.035011
16710000000 -4.5518823 140.56372 -49.689472 -177.37592 -52.15789 165.54982 -11.683796 71.025772
16720000000 -4.4085445 139.36945 -49.914204 164.32343 -53.56366 147.60397 -11.484538 68.626381
16730000000 -4.2738428 138.30113 -49.048595 139.55246 -52.719734 130.35391 -11.337542 66.502861
16740000000 -4.1026168 136.96278 -49.537037 113.15861 -53.475922 99.789688 -11.260904 64.212196
16750000000 -3.9426301 135.75539 -50.096992 87.768707 -55.191204 83.309586 -11.237795 61.895844
16760000000 -3.7563274 134.26689 -49.828583 68.578766 -54.728752 69.091728 -11.259609 59.647648
16770000000 -3.6271753 132.93053 -50.078735 42.222752 -53.878353 47.838398 -11.326469 56.939548
16780000000 -3.4601924 131.63071 -50.327423 14.256459 -54.714989 17.229784 -11.440205 53.7686
16790000000 -3.350389 130.41151 -51.609501 -12.183949 -57.088947 -2.6335273 -11.581194 49.694912
16800000000 -3.213644 129.08083 -52.908134 -29.350109 -57.534084 -8.5309887 -11.674684 45.24493
16810000000 -3.1005037 127.82989 -52.386753 -43.762192 -55.599186 -17.852175 -11.693373 40.533318
16820000000 -2.9861829 126.25863 -51.724575 -70.578636 -53.937283 -43.702435 -11.686283 36.139843
16830000000 -2.8893964 124.83144 -52.451939 -97.003563 -53.967167 -68.094719 -11.620221 32.323833
16840000000 -2.765069 123.33483 -52.354233 -123.37514 -54.139091 -94.053619 -11.57658 29.03801
16850000000 -2.6378467 121.8147 -54.428425 -144.96893 -54.973557 -113.04093 -11.604437 26.059195
16860000000 -2.5116119 120.23826 -54.776867 -155.50368 -54.499222 -125.51918 -11.801464 23.357063
16870000000 -2.3770847 118.79725 -54.407562 -177.3459 -53.170624 -148.21909 -12.13805 20.361399
16880000000 -2.2499855 117.28961 -54.737988 158.54602 -53.156841 -173.09326 -12.63926 16.663956
16890000000 -2.1312895 115.86315 -55.497002 146.03067 -52.988113 167.67432 -13.20486 11.298786
16900000000 -2.0329304 114.47575 -54.605389 122.5051 -51.919697 141.5639 -13.734932 4.982121
16910000000 -1.9456477 113.07094 -54.694389 96.78289 -51.686497 113.25429 -14.116878 -2.121455
16920000000 -1.8807724 111.74514 -55.796677 76.657516 -52.127224 89.0746 -14.443479 -9.302969
16930000000 -1.7859765 110.35121 -55.207169 55.524921 -52.016418 65.924004 -14.865274 -15.723526
16940000000 -1.6994051 108.78591 -55.021732 35.558758 -51.88958 42.068481 -15.428371 -21.391344
16950000000 -1.6028415 107.10757 -55.021263 14.831585 -51.789158 16.518429 -16.152761 -26.794256
16960000000 -1.5115839 105.39552 -55.44989 -12.377498 -52.361782 -7.1676698 -17.102331 -32.919086
16970000000 -1.419113 103.6551 -56.329891 -33.255283 -52.413307 -29.179535 -18.315567 -39.976986
16980000000 -1.3468858 101.95325 -55.632778 -47.057594 -52.116959 -50.82275 -19.881485 -49.290493
16990000000 -1.2664306 100.43774 -55.347095 -78.852982 -52.128719 -81.461243 -21.658834 -61.601048
17000000000 -1.1886408 98.99144 -56.22348 -96.096001 -53.117485 -103.67548 -23.343363 -78.699493
