!Keysight Technologies,P9374A,MY57211807,A.19.30.04
!Date: Friday, May 08, 2026 15:22:36
!Correction: S11(C  2-Port  ) 
!S21(C  2-Port  ) 
!S12(C  2-Port  ) 
!S22(C  2-Port  ) 
!S2P File: Measurements: S11, S21, S12, S22:
# Hz S  dB   R 50
13000000000 -18.893845 58.162273 -52.376888 39.712566 -51.764404 35.069126 -8.3915691 -59.591278
13010000000 -18.975718 58.763538 -49.583298 17.420801 -49.913177 10.482094 -8.5794535 -64.391846
13020000000 -19.302738 59.113861 -50.329174 -11.193752 -50.010395 -14.825725 -8.7840519 -69.107033
13030000000 -19.425175 60.877113 -50.389507 -38.217472 -50.055679 -45.129799 -8.9933891 -73.762383
13040000000 -20.006994 61.875202 -52.004536 -62.968334 -51.331585 -72.468048 -9.223217 -78.487267
13050000000 -19.759787 65.374405 -53.691559 -79.588867 -54.392082 -96.16922 -9.4922466 -83.493332
13060000000 -19.650845 64.822693 -53.333096 -86.555977 -55.389175 -90.579002 -9.7644777 -88.858299
13070000000 -19.3815 63.415829 -51.712471 -107.18709 -53.115807 -111.22781 -10.020227 -94.564781
13080000000 -19.403719 60.925972 -51.127987 -136.0332 -52.95829 -137.98299 -10.211896 -99.982216
13090000000 -19.388296 57.276638 -51.705868 -168.33632 -53.09362 -166.57127 -10.375093 -105.13032
13100000000 -20.012674 58.069908 -53.986263 160.26971 -54.749512 162.05597 -10.579148 -110.04932
13110000000 -19.84889 59.750278 -57.020954 167.21078 -57.768337 166.11064 -10.845156 -115.10712
13120000000 -20.090134 61.436275 -55.174194 136.942 -56.175926 134.44623 -11.150614 -120.85408
13130000000 -19.602598 64.245186 -55.04253 122.51057 -56.065956 124.04072 -11.399033 -127.17116
13140000000 -19.173031 64.197563 -54.479736 86.999619 -56.134388 91.841568 -11.591452 -133.38336
13150000000 -18.882011 61.034496 -57.570812 42.027565 -59.097622 53.731365 -11.748153 -139.2513
13160000000 -19.170132 60.528358 -66.062202 35.54351 -67.996292 91.895424 -11.94544 -144.98691
13170000000 -19.216211 57.236469 -64.461327 56.726059 -60.929607 80.679871 -12.191559 -150.97742
13180000000 -19.708809 57.863819 -62.97113 77.984344 -60.154678 62.26421 -12.397037 -158.1703
13190000000 -19.428818 57.114525 -59.26844 41.779724 -58.69593 38.028873 -12.508017 -165.7951
13200000000 -19.524544 55.482883 -58.378529 12.885499 -58.84536 23.355635 -12.492698 -173.0701
13210000000 -19.435715 55.080544 -62.218529 -2.2268882 -59.928459 1.2829313 -12.472065 -179.44707
13220000000 -19.457726 53.05014 -60.483738 14.012302 -59.554951 9.3312035 -12.511268 174.64766
13230000000 -19.393118 53.617622 -58.519642 16.300114 -56.316299 0.013656938 -12.632805 168.32314
13240000000 -19.362177 53.231411 -53.359093 -17.956924 -53.123207 -30.917459 -12.706781 160.92487
13250000000 -19.213266 53.452599 -53.736988 -47.963261 -53.87228 -53.379265 -12.64247 152.72527
13260000000 -18.946215 52.68848 -53.361732 -75.774895 -53.132633 -84.795822 -12.388047 144.95573
13270000000 -18.841473 48.760757 -53.69125 -83.224991 -53.864693 -88.407936 -12.075096 138.25696
13280000000 -19.21907 46.099777 -51.402157 -100.80994 -51.865685 -105.33244 -11.831881 132.42812
13290000000 -19.498314 43.05064 -50.038841 -131.78445 -49.937408 -135.52794 -11.70611 126.54939
13300000000 -20.126633 42.137543 -49.380283 -152.93546 -49.729485 -155.24808 -11.64275 120.20699
13310000000 -20.393253 43.109974 -48.667461 175.15102 -48.410919 173.40074 -11.482258 113.34402
13320000000 -20.240284 44.495598 -49.501049 156.20444 -49.52364 148.95062 -11.171321 106.53703
13330000000 -19.855164 43.438301 -48.460762 134.62292 -48.722431 130.46291 -10.79361 100.23445
13340000000 -19.539808 42.176937 -48.161343 110.78368 -49.056602 104.75443 -10.483244 94.509476
13350000000 -19.388094 37.342342 -47.943218 92.556007 -49.239929 90.414078 -10.282145 89.169258
13360000000 -19.520859 35.15546 -46.307747 68.272339 -47.368103 73.286224 -10.164794 83.542107
13370000000 -19.986435 30.342661 -46.41399 38.591919 -46.763012 43.962284 -9.9946051 77.252579
13380000000 -20.637962 30.924917 -46.927937 16.334087 -46.859844 20.874899 -9.7187119 70.710526
13390000000 -21.171551 31.313808 -47.574928 0.098640218 -46.948975 2.627893 -9.3846169 64.530251
13400000000 -21.146584 33.457676 -46.22834 -18.829529 -45.618156 -17.393373 -9.0262976 58.935879
13410000000 -21.173826 31.468952 -45.213955 -44.07354 -44.826904 -44.13979 -8.7846394 53.902187
13420000000 -21.168688 30.600174 -45.705467 -71.295906 -45.133808 -73.060562 -8.6484966 48.723457
13430000000 -21.195295 26.194447 -44.988247 -90.384354 -44.950867 -92.117241 -8.541851 43.099289
13440000000 -21.43384 23.564716 -45.259541 -115.29638 -44.85894 -112.22982 -8.4334736 36.971783
13450000000 -21.574036 22.05624 -44.956161 -134.38396 -44.166458 -134.80344 -8.2625761 30.610737
13460000000 -21.797667 19.868301 -44.161423 -156.6239 -43.568024 -158.97832 -8.0559807 24.67465
13470000000 -22.392128 17.874687 -43.533325 177.92259 -43.185272 175.31461 -7.894228 19.151285
13480000000 -22.522114 19.726871 -43.942852 154.18217 -43.493214 151.0443 -7.8017945 13.758826
13490000000 -23.020435 16.809292 -43.889011 132.57617 -43.308578 127.96737 -7.7836537 8.3133106
13500000000 -23.288218 16.622993 -43.367947 109.76473 -43.394108 104.70192 -7.8103552 2.594593
13510000000 -23.987249 19.46908 -43.214455 86.252747 -43.296188 83.937347 -7.8175378 -3.3710086
13520000000 -23.908102 18.629679 -43.032963 62.113815 -42.814754 61.446621 -7.8550668 -9.388238
13530000000 -24.0275 17.624731 -42.976707 40.755947 -42.695946 36.763832 -7.9214878 -15.250973
13540000000 -23.747372 13.29877 -42.368908 17.369314 -42.387272 14.680945 -8.0245543 -21.027914
13550000000 -24.299 9.2564182 -42.28656 -6.6086965 -41.938965 -9.276865 -8.1730433 -26.794304
13560000000 -24.610905 6.2917671 -42.196064 -32.857132 -42.066723 -36.022823 -8.3495035 -32.820148
13570000000 -26.178307 7.1236601 -42.591942 -56.161999 -42.403885 -59.60696 -8.505434 -38.764366
13580000000 -26.107538 9.4702072 -42.644714 -76.51252 -42.397499 -80.636719 -8.6613083 -44.668507
13590000000 -27.312347 15.414331 -42.197487 -96.936272 -42.338779 -103.46134 -8.8465014 -50.350033
13600000000 -26.050623 19.825056 -41.982914 -122.71913 -42.272472 -127.75651 -9.0754719 -55.896389
13610000000 -26.025091 21.592947 -41.753029 -145.88422 -42.233276 -149.81215 -9.3717394 -61.451122
13620000000 -25.917404 14.707398 -41.968758 -170.93689 -42.371178 -174.26688 -9.7043848 -67.376877
13630000000 -26.856533 12.344417 -41.51799 166.50261 -42.050613 163.39717 -10.039491 -73.495483
13640000000 -27.280334 5.3171759 -41.916805 142.00713 -42.412815 139.16788 -10.321192 -79.759827
13650000000 -29.537022 9.6166925 -41.715614 117.68207 -42.304718 117.70294 -10.561593 -85.827957
13660000000 -29.031523 13.50212 -42.181499 94.599396 -42.51852 93.055779 -10.780015 -91.616776
13670000000 -29.729624 18.686474 -42.01672 73.186974 -42.516983 73.369019 -11.051546 -97.351524
13680000000 -28.77124 23.597754 -41.707726 49.383606 -42.24485 48.861198 -11.394109 -102.92084
13690000000 -27.83057 24.660316 -41.969822 23.491341 -42.536758 25.780369 -11.771673 -109.00813
13700000000 -27.410311 21.251543 -42.010479 0.48830876 -42.407951 3.5952792 -12.135684 -115.65136
13710000000 -27.255819 22.644861 -42.397415 -24.969032 -42.512955 -20.654297 -12.44739 -122.72807
13720000000 -27.527037 15.231563 -42.588203 -46.707352 -42.452251 -43.454742 -12.684268 -129.84169
13730000000 -28.760204 19.243389 -43.066856 -71.876427 -42.781517 -67.993378 -12.881141 -136.51437
13740000000 -28.83003 17.406231 -43.339748 -91.540466 -42.882656 -88.899704 -13.105915 -143.0511
13750000000 -30.383217 21.472485 -43.116257 -113.58321 -42.457142 -111.11329 -13.333098 -149.88037
13760000000 -29.676048 25.078741 -43.248013 -138.17717 -42.627327 -136.76721 -13.535643 -157.59857
13770000000 -30.28042 29.536238 -43.727619 -162.86621 -42.781017 -161.75746 -13.643773 -165.86465
13780000000 -28.582529 28.836346 -44.352592 175.99342 -43.224651 174.20064 -13.617081 -173.80205
13790000000 -27.398796 24.925318 -44.31815 157.16959 -43.551167 152.01166 -13.550941 179.18053
13800000000 -27.138344 13.015905 -44.584557 134.24786 -44.066746 130.48059 -13.532123 172.68126
13810000000 -27.177794 10.491142 -44.387661 114.36617 -44.037228 111.04456 -13.575322 165.81546
13820000000 -27.251396 -1.1169879 -44.542984 92.624886 -43.701008 87.924004 -13.616363 158.14087
13830000000 -28.940899 3.3165691 -44.215393 70.50988 -43.919777 62.678501 -13.54642 149.86946
13840000000 -29.069601 -2.8641672 -44.202908 44.720287 -44.044083 40.252556 -13.301488 141.88197
13850000000 -30.869812 14.098971 -44.608105 20.236464 -44.41375 14.781431 -13.010238 134.43217
13860000000 -28.918261 15.396672 -45.016495 -0.23758335 -44.663273 -8.0591383 -12.781477 127.53642
13870000000 -28.076632 15.115697 -44.88187 -21.591658 -45.031742 -29.767666 -12.602281 120.7275
13880000000 -27.103312 4.2567172 -44.622375 -44.160751 -44.998447 -54.043755 -12.413472 113.63809
13890000000 -27.018322 -3.5805264 -44.68811 -69.905907 -45.353958 -79.071793 -12.147475 106.41989
13900000000 -27.026054 -17.09696 -44.921146 -96.867195 -45.748386 -104.21689 -11.838793 99.53672
13910000000 -27.884718 -19.954363 -45.526363 -117.8683 -46.729088 -124.52721 -11.538096 92.951942
13920000000 -28.687319 -30.626665 -45.358646 -141.8499 -46.851349 -145.92227 -11.309258 86.601387
13930000000 -31.093195 -28.650192 -45.58717 -166.45656 -47.291134 -165.44176 -11.13585 79.82988
13940000000 -30.978264 -22.080984 -46.102283 164.39662 -47.377838 165.4649 -10.9491 72.724525
13950000000 -31.340729 -19.360775 -47.002922 142.02625 -48.590141 145.69212 -10.716158 65.629921
13960000000 -30.431799 -19.269667 -47.597546 120.44141 -49.098331 126.85303 -10.439417 58.668007
13970000000 -29.439554 -25.218618 -48.126198 94.817253 -49.039902 105.36596 -10.177677 52.18903
13980000000 -28.889299 -38.875813 -49.447163 72.160049 -49.335327 83.058983 -9.9735184 45.986298
13990000000 -28.468801 -50.399437 -49.887348 51.17152 -49.872555 55.209587 -9.841711 39.705933
14000000000 -28.422729 -63.430649 -50.578773 29.794249 -51.260353 38.964104 -9.7843246 33.374359
14010000000 -28.080051 -69.996696 -51.71542 0.26779553 -51.472809 12.683902 -9.7571306 26.663815
14020000000 -28.747051 -80.51133 -53.473942 -19.467594 -52.612465 -6.3005667 -9.7280951 19.696226
14030000000 -30.244978 -84.062988 -55.312416 -37.266331 -53.65369 -24.535315 -9.7438583 12.618229
14040000000 -31.432501 -81.096268 -56.545532 -45.301113 -54.236267 -41.174751 -9.7941046 5.4216456
14050000000 -31.381113 -70.111404 -57.100796 -50.823959 -54.634903 -53.797123 -9.870163 -1.7717704
14060000000 -31.216486 -68.632019 -55.685326 -71.083565 -53.696712 -72.04142 -9.9944201 -9.0251265
14070000000 -30.133936 -69.777504 -56.856678 -101.31221 -54.973946 -102.95434 -10.135812 -16.538477
14080000000 -29.356531 -82.043961 -59.499023 -109.02837 -56.038464 -114.10677 -10.290823 -24.131891
14090000000 -28.747231 -92.857582 -58.073517 -104.84644 -56.185654 -130.36224 -10.461973 -31.803949
14100000000 -27.98732 -112.06345 -56.787346 -122.2109 -56.699589 -143.13504 -10.660548 -39.316872
14110000000 -28.566809 -125.03496 -55.462242 -140.68745 -56.229782 -153.19469 -10.911253 -46.590977
14120000000 -29.053825 -136.5508 -55.133476 -164.85645 -55.10532 178.23981 -11.248825 -53.933147
14130000000 -30.393585 -138.57556 -53.731682 -178.84554 -56.082554 167.35004 -11.63753 -61.787045
14140000000 -30.27177 -136.25041 -53.210102 151.33186 -54.384224 143.97066 -12.053396 -70.372604
14150000000 -31.12586 -129.14421 -52.871651 129.72186 -54.16161 120.81941 -12.418525 -79.243866
14160000000 -29.312006 -124.92449 -52.921982 101.13908 -54.941868 94.050896 -12.717101 -87.572304
14170000000 -28.949787 -128.20935 -53.710045 79.200546 -56.431721 74.666237 -13.027138 -95.325294
14180000000 -27.97909 -135.25922 -53.931389 64.529305 -55.909489 70.967445 -13.41406 -103.13989
14190000000 -27.362835 -144.47862 -52.729515 44.145588 -54.256927 48.071274 -13.895687 -111.6424
14200000000 -27.249157 -155.0414 -52.631699 19.884829 -54.004559 29.388304 -14.343286 -121.30908
14210000000 -27.616333 -162.47107 -52.198238 -1.2060963 -53.018589 9.0130243 -14.628285 -131.55052
14220000000 -27.973682 -167.11137 -51.886379 -28.540575 -52.05241 -22.145554 -14.722005 -141.58208
14230000000 -28.170525 -171.05315 -53.015808 -59.360226 -54.546349 -50.420494 -14.763464 -150.61342
14240000000 -28.909859 -168.88766 -53.725029 -80.66066 -54.085022 -68.073616 -14.826621 -159.20842
14250000000 -28.399427 -164.65662 -55.593472 -104.59507 -55.384533 -88.511627 -14.895904 -167.68333
14260000000 -28.70718 -162.48138 -55.98275 -108.15141 -53.933857 -98.942513 -14.851757 -176.43391
14270000000 -27.200251 -160.33011 -56.150024 -135.38229 -54.723816 -128.60396 -14.712511 175.29091
14280000000 -27.44178 -168.89345 -56.324471 -147.00224 -54.478664 -142.13084 -14.514119 167.87691
14290000000 -26.598383 -169.94818 -56.332153 -166.5056 -53.359543 -168.47905 -14.366609 161.08868
14300000000 -27.17617 179.51767 -56.921627 -179.10464 -55.877869 172.38268 -14.31472 154.37462
14310000000 -27.226904 177.66997 -55.450016 159.95679 -53.793121 157.23454 -14.25732 147.41634
14320000000 -27.992954 167.77602 -56.33881 140.01289 -54.72908 134.14674 -14.082672 140.14394
14330000000 -28.229038 173.12633 -56.419308 128.18703 -54.759327 111.44006 -13.785327 132.9664
14340000000 -29.330952 171.55937 -54.990345 122.02923 -55.589634 108.73927 -13.408272 126.6626
14350000000 -28.5534 -177.91428 -52.652344 93.578697 -52.295677 89.247879 -13.044353 121.26286
14360000000 -28.188528 -178.6188 -52.145992 66.546349 -51.199562 57.720016 -12.747252 116.59708
14370000000 -27.140209 -177.18097 -51.330898 48.225521 -51.773216 32.653988 -12.517625 112.13089
14380000000 -27.037228 174.84254 -50.85062 17.516167 -51.384144 9.9351969 -12.360345 107.60553
14390000000 -26.87957 175.12448 -50.531136 -3.5979052 -50.608124 -15.112864 -12.222189 102.58508
14400000000 -27.190567 164.34175 -50.389359 -30.817957 -51.512062 -38.756546 -12.046214 97.453278
14410000000 -28.656698 163.8275 -49.755169 -55.795082 -50.922939 -61.035507 -11.834214 92.422127
14420000000 -29.337864 164.03415 -50.350555 -80.14801 -51.213421 -84.228943 -11.562602 87.646095
14430000000 -29.716873 170.65369 -49.849796 -103.25394 -51.009357 -105.228 -11.317728 83.224945
14440000000 -29.200323 177.51088 -48.784012 -128.29207 -49.412048 -134.30972 -11.131141 79.133522
14450000000 -27.514418 -177.65125 -49.111008 -160.32735 -50.743031 -164.28778 -10.929537 75.185959
14460000000 -26.594259 176.93716 -50.769981 177.545 -51.910248 -178.56963 -10.744919 70.858345
14470000000 -26.253641 173.96512 -49.61747 152.85974 -50.579182 154.15889 -10.595227 66.467476
14480000000 -26.370382 171.03166 -50.700462 129.17015 -51.518566 129.58675 -10.485727 62.376137
14490000000 -26.833136 167.54022 -50.479565 105.88203 -51.333881 107.50776 -10.423018 58.41563
14500000000 -27.997656 171.83765 -50.602345 83.204514 -51.76733 83.304413 -10.399415 54.248974
14510000000 -28.136354 174.40579 -49.502522 49.040859 -50.868942 56.321564 -10.41509 49.560528
14520000000 -28.107704 -173.43167 -51.629818 22.549334 -51.823784 27.055326 -10.416325 44.404301
14530000000 -26.644258 -178.10233 -52.715511 1.9560471 -53.199509 8.3353662 -10.3613 39.159012
14540000000 -26.191563 -174.88843 -52.62738 -16.229349 -54.097614 -9.7288313 -10.278078 34.320473
14550000000 -24.935606 176.78041 -52.450687 -33.405144 -52.006165 -22.952572 -10.243256 30.00473
14560000000 -25.176369 176.5455 -52.436359 -66.692184 -51.610264 -57.981983 -10.339873 25.973839
14570000000 -24.478155 169.51706 -51.96698 -91.258751 -51.635727 -90.165031 -10.519232 21.683201
14580000000 -25.203159 170.35533 -52.709232 -121.15783 -53.061375 -118.56385 -10.808743 16.758083
14590000000 -25.136368 169.94952 -53.849968 -149.52663 -54.211136 -139.86302 -11.105041 11.486759
14600000000 -25.213219 178.22395 -55.035351 -177.14734 -54.548168 -166.08833 -11.445731 6.0036111
14610000000 -24.555374 176.08353 -55.360973 171.94141 -54.532467 179.36136 -11.801023 1.028214
14620000000 -24.033991 -178.84174 -54.273693 145.10338 -53.506233 153.21724 -12.237462 -3.936183
14630000000 -23.259415 176.83051 -54.526924 104.87315 -53.76368 119.16459 -12.77299 -9.2199211
14640000000 -22.625965 174.49776 -55.887814 78.221199 -54.064171 87.677734 -13.351073 -14.831975
14650000000 -22.3584 168.28923 -55.043247 54.239777 -54.595947 58.333553 -13.946142 -20.614147
14660000000 -22.375586 164.78912 -56.458427 10.538699 -56.801453 28.436539 -14.626857 -25.996965
14670000000 -23.010317 161.82996 -58.407219 -20.831661 -56.025402 4.0504618 -15.419316 -29.95208
14680000000 -22.778982 165.00763 -60.480885 -45.102005 -56.628075 -26.865944 -16.347111 -33.467503
14690000000 -22.793468 165.37085 -61.598202 -46.950275 -57.144882 -42.62653 -17.591599 -37.087845
14700000000 -22.079294 168.08998 -56.223274 -97.901253 -55.321362 -87.868179 -19.1231 -41.166885
14710000000 -21.674629 166.80557 -57.587994 -144.36433 -56.2967 -120.01629 -20.985613 -46.163296
14720000000 -20.998226 164.40884 -60.805824 162.87976 -57.864944 -156.53323 -23.147999 -51.627426
14730000000 -20.912722 159.22243 -66.120224 174.508 -57.857952 -170.91936 -25.741825 -58.866013
14740000000 -20.786327 155.7141 -61.175697 153.71992 -56.248543 158.59731 -28.92379 -66.200203
14750000000 -21.174303 151.87401 -59.170097 121.01781 -55.212902 126.39853 -33.368374 -76.041115
14760000000 -21.148766 151.26955 -59.011642 75.254234 -55.34679 88.448647 -42.711716 -92.097626
14770000000 -21.412909 148.66377 -59.550716 49.171986 -55.38171 60.294655 -42.662807 106.57022
14780000000 -21.140764 149.48062 -60.312847 36.952507 -55.105083 34.724682 -32.693352 94.291191
14790000000 -21.101568 148.71777 -58.116589 0.089057669 -53.528816 -1.2955434 -28.152798 90.99263
14800000000 -20.517658 151.11719 -62.609634 -23.001032 -55.423805 -36.945789 -25.250933 90.6026
14810000000 -20.013599 148.10393 -57.784977 -34.12603 -55.599079 -47.035931 -23.282234 88.978027
14820000000 -19.546909 144.70341 -59.368206 -58.422985 -54.492043 -77.771309 -21.947786 86.314766
14830000000 -19.847816 139.17851 -55.928181 -74.533707 -53.11739 -103.11353 -20.953484 82.801407
14840000000 -20.227541 136.2881 -54.555576 -105.13737 -53.005821 -133.24884 -20.047068 78.912125
14850000000 -20.970928 134.08008 -54.298889 -140.7318 -53.090782 -165.41209 -19.199028 75.145927
14860000000 -21.278942 136.2813 -55.8148 -159.75868 -54.189529 176.80016 -18.552792 72.305511
14870000000 -21.424971 136.29401 -53.680325 -176.27577 -52.809559 154.882 -18.070993 69.559563
14880000000 -20.884691 136.72574 -52.029987 154.18483 -52.819267 125.13763 -17.817934 65.80014
14890000000 -20.461065 132.95746 -51.47047 125.09425 -52.815121 101.97882 -17.535265 60.889771
14900000000 -20.118385 127.9188 -51.009697 100.4493 -52.130009 81.564423 -17.156139 55.763882
14910000000 -20.335678 123.76262 -50.689888 70.347588 -51.700947 47.957081 -16.645605 51.895573
14920000000 -20.765478 120.79823 -49.193245 48.94442 -51.662834 29.416471 -16.180874 49.39986
14930000000 -21.207895 123.00891 -48.934769 4.1030192 -51.281754 -6.208591 -15.922112 47.721355
14940000000 -20.923689 121.6808 -51.188457 -22.791584 -52.32468 -31.993914 -15.937272 45.538818
14950000000 -21.397001 122.79214 -51.585274 -32.536526 -52.803577 -53.949837 -16.132921 42.489681
14960000000 -21.493902 121.17464 -50.19585 -54.044941 -54.418461 -69.127167 -16.325434 38.411972
14970000000 -21.749451 122.96274 -48.839211 -85.506828 -51.946918 -88.267906 -16.427505 34.923012
14980000000 -21.937777 119.31519 -50.196182 -119.01077 -51.983109 -120.93465 -16.40596 32.051617
14990000000 -22.162567 120.8799 -50.329243 -135.47958 -52.443233 -138.72293 -16.533762 29.580748
15000000000 -22.102959 115.43746 -49.924473 -164.7639 -51.393299 -167.5504 -16.818438 27.248405
15010000000 -22.487841 115.62874 -49.891796 166.23267 -51.838127 160.57304 -17.189753 24.060745
15020000000 -22.851425 109.94948 -51.178101 135.23721 -53.488777 136.69878 -17.473328 19.942228
15030000000 -23.303972 112.61036 -52.421299 117.61213 -53.865219 115.02429 -17.652311 16.748377
15040000000 -23.786142 110.99789 -53.636211 104.76581 -55.245567 101.08907 -17.653997 15.946507
15050000000 -23.861326 118.36284 -50.906212 82.988434 -52.826241 86.509262 -17.8274 16.61223
15060000000 -23.608231 119.17307 -51.71999 50.293121 -53.248745 53.278702 -18.242336 18.363123
15070000000 -23.212502 120.32171 -51.743111 27.938246 -52.961826 34.816311 -18.847137 18.361895
15080000000 -23.368872 117.79145 -51.841675 -0.059929714 -52.379951 7.3825221 -19.714329 16.997213
15090000000 -23.436659 115.6645 -51.799572 -28.332233 -52.901573 -26.680767 -20.457027 15.575485
15100000000 -24.614571 114.15895 -53.151493 -59.16993 -54.810516 -42.331539 -20.725201 14.780347
15110000000 -25.098274 118.24846 -55.407703 -85.279984 -54.888184 -66.428505 -20.848783 14.305538
15120000000 -25.49968 122.85822 -55.427654 -96.146683 -55.244289 -80.637199 -21.092392 15.652908
15130000000 -25.00704 123.22415 -56.039398 -116.27036 -55.273533 -94.786972 -21.286703 17.34388
15140000000 -25.090384 127.46706 -55.18681 -152.4687 -54.461254 -119.79221 -21.456001 18.07799
15150000000 -23.896788 127.43271 -59.516747 -172.30298 -54.473743 -143.47786 -21.529762 18.039846
15160000000 -23.747601 124.67381 -57.054928 177.0101 -53.291107 -169.63939 -21.50378 18.865196
15170000000 -23.484665 121.24767 -57.674282 149.30295 -54.810787 158.67384 -21.383341 20.585869
15180000000 -23.978613 120.92428 -58.129997 102.80046 -56.250019 137.13774 -21.393814 22.36562
15190000000 -23.956778 121.44746 -62.761631 63.38995 -56.394337 111.87233 -21.636169 23.284477
15200000000 -24.699799 126.20369 -76.928642 45.260345 -60.265976 87.559731 -22.184374 22.785778
15210000000 -23.942835 128.95572 -66.079269 137.96628 -60.638351 94.813271 -22.674797 21.642172
15220000000 -23.89502 132.06114 -63.631351 86.85891 -57.563885 74.068947 -23.010731 17.929377
15230000000 -22.8472 129.30058 -62.895908 55.964378 -55.890965 42.061462 -23.317924 13.371522
15240000000 -23.014462 126.15667 -65.803734 62.084522 -57.119759 4.513649 -23.745771 8.9112158
15250000000 -22.931902 122.74379 -61.463291 22.600761 -58.494827 -26.481613 -24.244066 5.495779
15260000000 -23.303259 122.56313 -62.873672 -31.343842 -60.826637 -65.236664 -24.710958 3.0990155
15270000000 -22.778009 122.08529 -76.798965 -67.288643 -67.298996 -112.90096 -25.121208 1.3923841
15280000000 -22.837929 117.38725 -68.746712 19.791328 -75.263412 -167.69789 -25.841221 -0.30209157
15290000000 -22.977209 116.55312 -63.514175 -8.2916632 -73.259109 -8.0473585 -27.802073 -1.3139182
15300000000 -23.219082 116.33322 -62.403126 -40.442318 -69.58007 -41.919151 -31.060308 1.1580163
15310000000 -23.279596 118.70288 -61.436371 -79.402962 -72.82373 -115.16872 -36.874641 2.4075816
15320000000 -22.94088 119.07618 -60.271206 -107.06602 -77.009064 -150.01703 -61.157516 -8.5778208
15330000000 -22.503563 118.79324 -66.390671 -156.93045 -70.474899 73.412346 -38.517155 -174.12572
15340000000 -22.262579 112.49234 -88.981064 -25.609064 -61.101368 0.55650371 -32.73822 177.42839
15350000000 -22.645996 112.2084 -63.298164 -99.515648 -59.244774 -59.573429 -29.324282 169.36797
15360000000 -22.61508 106.38048 -62.7411 -171.19669 -60.100975 -95.861259 -26.51943 162.56354
15370000000 -23.426554 105.56344 -73.565613 179.31142 -60.606777 -119.97536 -24.242451 158.21208
15380000000 -23.389423 101.05676 -67.829636 -163.83121 -60.498749 -139.13678 -22.51124 153.46732
15390000000 -24.519457 101.96037 -63.435249 -166.52963 -58.056614 -155.30856 -21.422926 148.29756
15400000000 -24.409277 102.32199 -62.274136 160.78482 -56.701107 177.54347 -20.365795 142.87067
15410000000 -24.776535 105.9986 -65.354149 138.42221 -56.047523 142.40312 -19.131819 136.90152
15420000000 -23.988611 103.46856 -61.864677 140.38033 -56.277161 116.39946 -17.803398 132.31554
15430000000 -23.93322 100.25674 -56.759609 125.91319 -55.476387 102.70657 -16.597458 129.01978
15440000000 -23.940956 92.442741 -54.603142 82.998917 -54.410732 77.143776 -15.737937 127.21141
15450000000 -25.092018 89.599991 -55.807713 49.52702 -54.123165 47.862309 -15.129416 125.58051
15460000000 -25.603216 85.821724 -55.211201 30.672935 -53.009499 24.25667 -14.692267 122.67013
15470000000 -27.190744 86.12294 -55.96191 8.6772413 -53.004261 -6.7855196 -14.317591 118.49407
15480000000 -27.537659 85.70472 -54.645138 -6.1089187 -53.237949 -27.193375 -13.893475 114.15447
15490000000 -28.358109 91.70694 -53.686676 -30.9464 -52.53957 -50.348076 -13.373944 110.13647
15500000000 -27.994167 89.154327 -54.866688 -51.348038 -53.724972 -75.915405 -12.868258 106.58244
15510000000 -28.20746 87.861366 -51.745937 -60.413338 -52.161423 -85.00518 -12.410669 103.30639
15520000000 -28.685394 79.911484 -49.522934 -94.026909 -50.751881 -115.79256 -12.005507 100.11436
15530000000 -29.80891 77.360847 -49.228481 -124.80894 -50.917904 -140.82016 -11.603612 97.038254
15540000000 -31.50551 71.860237 -48.677124 -153.48238 -50.041664 -160.40036 -11.207144 94.234634
15550000000 -32.547932 81.917412 -49.327881 176.13885 -50.269207 168.88493 -10.845428 91.606461
15560000000 -34.005077 73.533493 -49.761311 155.73135 -50.437599 149.2235 -10.596582 89.015816
15570000000 -35.349224 77.125816 -49.573032 133.26936 -50.551693 124.72345 -10.445244 86.535881
15580000000 -39.445404 53.098743 -48.249172 111.47826 -50.228401 109.83753 -10.313272 83.901123
15590000000 -44.174786 94.898537 -48.307739 81.749763 -49.011799 80.269035 -10.170151 80.720634
15600000000 -57.263847 139.67615 -48.41637 58.641258 -50.159348 55.273052 -10.023582 77.107216
15610000000 -40.588051 162.6933 -48.102592 35.210175 -50.086708 37.857643 -9.8507166 73.286133
15620000000 -45.551975 158.04935 -47.891788 9.7477303 -49.561657 13.216812 -9.6637573 69.628159
15630000000 -45.657631 155.98029 -47.824806 -13.309777 -49.426586 -13.416732 -9.4472609 66.410362
15640000000 -44.879498 -99.905708 -47.284924 -43.190453 -49.534439 -40.293102 -9.2359724 63.515686
15650000000 -38.276871 -127.56098 -47.555634 -68.045464 -49.420116 -62.791351 -9.0706396 61.053825
15660000000 -34.294357 -120.76249 -47.815849 -99.848289 -49.659649 -89.458961 -8.974391 58.646984
15670000000 -32.71059 -143.31413 -48.976307 -124.86508 -50.242191 -114.78081 -8.9499836 55.839504
15680000000 -31.415722 -131.92488 -50.579262 -147.86815 -51.38567 -130.39392 -8.9913645 52.351471
15690000000 -29.689676 -146.82175 -49.787472 -160.79201 -49.005268 -146.58461 -9.0094995 48.517742
15700000000 -29.652458 -145.00908 -49.375183 167.9203 -49.011955 178.48305 -9.0171471 44.532467
15710000000 -29.348679 -147.72266 -51.254742 139.65317 -50.126621 160.4247 -8.9807415 40.930962
15720000000 -28.17363 -143.57391 -51.535568 123.04395 -48.735275 139.60225 -8.9537888 37.445507
15730000000 -28.01173 -144.95512 -52.932774 95.742836 -49.258198 105.17848 -8.9702644 33.564098
15740000000 -27.239662 -144.95485 -53.88953 82.777779 -50.871479 88.371582 -9.0145054 29.266169
15750000000 -27.432718 -143.90337 -54.816589 56.892738 -50.858814 67.493721 -9.0490828 24.949207
15760000000 -26.022394 -140.51791 -57.363239 52.169018 -51.663689 49.511398 -9.0626183 21.086699
15770000000 -25.032991 -143.6895 -55.908619 52.98196 -51.574127 28.372993 -9.0879955 17.863062
15780000000 -24.085331 -148.93007 -53.541996 29.184429 -51.700554 4.1221299 -9.2565832 14.632345
15790000000 -24.333143 -156.08684 -53.123455 7.1150913 -52.516514 -20.275167 -9.6130276 10.838435
15800000000 -24.4573 -154.49829 -52.345596 -17.043253 -52.422878 -45.536381 -10.070926 5.8247643
15810000000 -24.284615 -152.95175 -51.758766 -48.976414 -53.571285 -71.213127 -10.525689 -0.66282338
15820000000 -23.431715 -151.85106 -53.32748 -62.361378 -54.525963 -86.02832 -10.865851 -7.6248374
15830000000 -23.208136 -152.23987 -52.428841 -83.134346 -55.02404 -108.14677 -11.099831 -14.220634
15840000000 -22.797365 -151.85124 -51.720421 -109.32549 -54.950279 -121.31021 -11.366879 -19.984005
15850000000 -22.716492 -153.30154 -52.06004 -139.25035 -54.582264 -148.01595 -11.742842 -25.594612
15860000000 -22.276955 -151.07436 -53.059368 -155.87627 -55.817577 -164.79892 -12.275747 -31.364372
15870000000 -21.904503 -153.28053 -52.911678 -175.93436 -56.639774 -173.77319 -12.941741 -37.726574
15880000000 -21.613241 -154.14293 -52.806885 161.69371 -55.350361 170.06425 -13.7055 -44.538216
15890000000 -21.688332 -156.65778 -53.380272 137.80565 -55.184475 151.94247 -14.594356 -51.776077
15900000000 -21.523247 -157.36235 -53.379093 115.22145 -54.013149 131.8994 -15.607744 -60.345364
15910000000 -21.532814 -157.42067 -55.483234 94.539528 -55.477631 110.25027 -16.715767 -71.216141
15920000000 -20.979597 -156.0822 -55.57766 86.040718 -54.351139 105.47327 -17.833609 -84.813652
15930000000 -20.842676 -156.82431 -55.393658 69.999863 -53.213013 77.641846 -18.67639 -100.24803
15940000000 -20.412212 -155.77049 -55.445122 50.561745 -54.427975 56.201439 -19.091221 -116.08729
15950000000 -20.130526 -155.86026 -55.626305 33.932755 -53.589298 35.601696 -19.134417 -131.10518
15960000000 -19.747677 -155.43759 -55.118336 24.668518 -53.01683 18.313547 -19.038986 -145.42928
15970000000 -19.446102 -154.94131 -53.179768 8.7638912 -52.192665 -5.7871022 -18.839245 -159.00386
15980000000 -19.097662 -155.33009 -51.850342 -15.407553 -52.271885 -26.745901 -18.58128 -172.34256
15990000000 -18.94503 -156.9826 -51.51619 -37.770996 -51.034195 -48.677887 -18.212166 174.53654
16000000000 -19.115459 -157.89235 -50.496227 -60.588165 -50.820358 -76.316147 -17.574451 161.78619
16010000000 -19.146225 -155.49611 -50.15073 -80.904671 -51.815403 -97.670418 -16.735571 151.04382
16020000000 -18.618397 -154.07417 -48.057201 -104.08393 -50.321125 -110.62584 -15.782976 142.87497
16030000000 -18.071863 -154.45828 -47.802677 -136.86992 -49.666885 -136.35953 -14.957808 136.55769
16040000000 -17.672907 -155.77994 -48.409748 -163.18277 -50.078709 -162.79596 -14.357851 131.21989
16050000000 -17.361631 -157.50827 -48.327789 175.8653 -49.505791 -177.57825 -13.956132 125.97797
16060000000 -17.135086 -157.47513 -47.920746 147.84911 -49.266106 155.65833 -13.611081 120.72055
16070000000 -16.797125 -157.31685 -48.140068 122.29819 -49.153309 131.19545 -13.231043 115.31554
16080000000 -16.379578 -157.56351 -48.094612 96.191658 -49.030338 108.54559 -12.842294 110.57367
16090000000 -16.200066 -158.63278 -48.905651 70.349625 -49.391098 86.475876 -12.515551 106.07479
16100000000 -16.025972 -158.63863 -49.006001 49.180534 -48.832344 64.534737 -12.273636 101.70367
16110000000 -15.96047 -158.91893 -49.463345 23.522898 -49.044037 40.881481 -12.062587 97.005081
16120000000 -15.606486 -157.19629 -50.738647 1.4804478 -49.01025 19.314499 -11.798058 92.247765
16130000000 -15.094655 -157.692 -51.488972 -16.147938 -49.140125 -1.5532053 -11.431934 88.084282
16140000000 -14.642455 -159.31714 -50.83147 -31.300257 -48.306416 -24.688749 -11.077868 84.819809
16150000000 -14.389677 -161.87566 -50.667 -58.556416 -48.326683 -55.476181 -10.828667 82.311058
16160000000 -14.202206 -162.80858 -51.816586 -76.609909 -49.456627 -75.584526 -10.734593 79.774025
16170000000 -13.883945 -163.94859 -51.348328 -91.026077 -49.034321 -92.996544 -10.758031 76.573433
16180000000 -13.583514 -164.41481 -50.773438 -110.76456 -48.510323 -122.05071 -10.795046 72.682892
16190000000 -13.449144 -165.92723 -51.0826 -137.40196 -49.80759 -147.1707 -10.756602 68.493988
16200000000 -13.275828 -164.77925 -49.885677 -150.28658 -49.429882 -166.55795 -10.661018 64.354065
16210000000 -12.939142 -165.53751 -48.872772 179.73581 -49.590767 168.25218 -10.59192 60.831284
16220000000 -12.710543 -165.00981 -49.387955 151.39082 -50.194862 144.62967 -10.563797 57.378891
16230000000 -12.264107 -166.28246 -49.185688 132.30023 -49.989227 126.69579 -10.551221 53.615936
16240000000 -11.964938 -167.25479 -48.627365 100.71545 -49.68317 95.806976 -10.529982 49.657372
16250000000 -11.678526 -170.46918 -50.112114 69.762054 -50.437035 70.177422 -10.457956 46.070938
16260000000 -11.6265 -172.66994 -50.969444 53.973671 -51.13588 54.410175 -10.428279 43.071098
16270000000 -11.586358 -174.22546 -50.587154 25.259752 -50.385067 28.016165 -10.49966 40.402569
16280000000 -11.492014 -174.60677 -51.611813 3.9514048 -50.887695 8.7862768 -10.696662 37.376534
16290000000 -11.231798 -174.98509 -53.156883 -24.149616 -50.800159 -19.679867 -11.017842 33.438034
16300000000 -10.965081 -175.205 -54.442726 -34.494244 -51.655823 -42.516262 -11.345856 28.561615
16310000000 -10.603933 -175.80981 -54.962044 -52.490486 -52.431705 -66.6017 -11.595237 23.178562
16320000000 -10.270219 -176.41032 -55.941422 -85.210808 -53.690823 -89.72522 -11.837541 17.949854
16330000000 -9.8949938 -178.33061 -58.354214 -69.197517 -55.799862 -97.952538 -12.134584 12.861382
16340000000 -9.7918539 179.53516 -53.820557 -94.396149 -53.799381 -116.311 -12.502481 7.8737979
16350000000 -9.7435741 177.78821 -54.111584 -124.81098 -55.226574 -149.12152 -12.888551 2.7247329
16360000000 -9.7402973 176.44475 -53.939247 -150.62338 -57.03767 -164.8224 -13.320763 -2.6139741
16370000000 -9.7516336 175.6716 -55.197929 179.38132 -58.712978 179.95801 -13.850465 -7.5010419
16380000000 -9.6073074 175.37202 -58.198662 176.76682 -60.337395 179.98904 -14.63699 -12.064849
16390000000 -9.366188 174.61911 -55.102684 158.96748 -56.893185 163.69156 -15.720901 -17.096357
16400000000 -9.1056137 173.94911 -55.794422 134.89224 -58.026119 144.83784 -16.995914 -24.169945
16410000000 -8.7610455 172.57355 -56.223679 113.95242 -57.053932 132.058 -18.319715 -33.997768
16420000000 -8.4925566 170.98878 -57.621025 83.502258 -55.800507 102.96657 -19.546785 -45.331966
16430000000 -8.2590647 168.80743 -60.655472 88.938438 -56.926208 82.349648 -20.831207 -57.058968
16440000000 -8.2434988 167.17648 -57.772934 84.441826 -56.911491 79.412254 -22.371965 -69.488884
16450000000 -8.2805443 166.08403 -57.387558 57.068871 -55.263165 60.872383 -24.180342 -86.337646
16460000000 -8.2697411 166.35701 -56.56271 47.791061 -53.803356 37.043606 -25.441067 -109.22334
16470000000 -8.1255093 166.21997 -54.13942 34.811733 -54.397823 15.557907 -25.606613 -133.51646
16480000000 -7.9072509 165.62128 -53.101139 2.3815451 -53.247906 -7.9863386 -25.262714 -156.23625
16490000000 -7.7284884 164.28885 -51.872169 -19.210424 -52.787033 -31.651199 -24.523338 -177.97232
16500000000 -7.5318031 163.50125 -52.337894 -48.444473 -53.967979 -56.914787 -22.972231 162.59604
16510000000 -7.2511735 161.34204 -50.754902 -61.725368 -52.570301 -64.618614 -20.861332 149.93173
16520000000 -7.1539464 159.58072 -49.949318 -95.913567 -51.569351 -97.956467 -19.020483 142.92831
16530000000 -7.0566564 157.73785 -50.172882 -124.31583 -51.547016 -124.84586 -17.867306 138.78658
16540000000 -7.0577655 157.17436 -50.89006 -150.06749 -51.626991 -150.60268 -17.201397 135.17593
16550000000 -6.9516888 156.60555 -51.631748 -175.37164 -52.242191 -175.01331 -16.771784 130.26103
16560000000 -6.854351 156.9077 -51.616055 169.85527 -51.496964 170.54877 -16.311897 124.25665
16570000000 -6.6188579 156.399 -51.383823 140.82985 -50.921528 140.65735 -15.749305 118.36173
16580000000 -6.3907523 155.79472 -52.734386 129.91736 -51.573311 119.84502 -15.179637 113.85532
16590000000 -6.186142 154.07039 -51.265987 107.5654 -51.307358 96.056633 -14.698319 110.1974
16600000000 -6.0870943 152.67223 -52.232327 82.566856 -51.785477 69.989281 -14.296393 106.49548
16610000000 -5.9541588 151.10744 -51.074146 67.954384 -51.771626 54.148483 -13.915848 102.25319
16620000000 -5.8693027 149.59151 -50.780972 43.538944 -51.090168 24.398682 -13.485909 98.335503
16630000000 -5.8119411 148.16937 -50.880573 25.234474 -52.734936 6.2625914 -13.006615 95.400536
16640000000 -5.7256618 147.83807 -49.871986 -1.9922823 -52.149418 -17.869919 -12.628738 93.555855
16650000000 -5.5043406 147.35141 -50.101257 -26.675737 -52.704082 -36.594143 -12.393618 92.314583
16660000000 -5.2767901 146.55406 -49.959023 -49.65102 -52.179443 -55.266396 -12.330385 90.219307
16670000000 -5.0614009 145.52391 -49.731953 -74.395096 -51.418636 -77.904099 -12.39072 86.936424
16680000000 -4.871963 144.39023 -49.654469 -102.2712 -51.565292 -102.84606 -12.397359 82.618683
16690000000 -4.694881 143.01711 -50.549053 -130.98633 -51.574162 -125.2532 -12.285463 78.306381
16700000000 -4.6078405 141.63559 -51.387424 -152.10423 -52.245342 -148.30305 -12.022901 74.530594
16710000000 -4.4993587 140.36832 -53.117004 -172.60237 -52.869102 -165.57777 -11.766165 71.471451
16720000000 -4.4147978 139.18735 -53.048897 -179.35155 -52.330055 -176.60414 -11.565124 69.075424
16730000000 -4.2847209 138.0148 -50.745327 160.1787 -51.199486 158.2527 -11.410523 66.852722
16740000000 -4.1628675 137.04158 -51.172749 132.86009 -52.037247 128.82951 -11.330324 64.509377
16750000000 -3.9523125 135.99612 -51.478683 111.45175 -52.254448 114.12676 -11.306422 62.203785
16760000000 -3.744576 134.48872 -50.786751 91.384254 -51.659794 91.69355 -11.320883 59.926346
16770000000 -3.6025891 132.90712 -50.27293 65.636597 -51.717907 67.406555 -11.377242 57.197063
16780000000 -3.455369 131.7247 -50.28014 34.08387 -52.580875 40.387035 -11.482783 54.067242
16790000000 -3.3104155 130.27573 -51.386524 6.9809217 -53.289665 22.555984 -11.621378 50.033401
16800000000 -3.2187011 128.86362 -52.679993 -12.696695 -53.983604 9.3263054 -11.731706 45.622066
16810000000 -3.1257455 127.60262 -52.187878 -28.332563 -52.51672 -9.5570688 -11.752858 40.815014
16820000000 -3.0168788 126.35096 -51.948566 -49.782707 -51.867489 -38.942368 -11.764125 36.288685
16830000000 -2.8928494 124.87543 -51.979214 -76.223389 -52.624695 -63.320412 -11.69505 32.364658
16840000000 -2.763128 123.48963 -51.85857 -102.63318 -52.428654 -88.435921 -11.654389 28.93981
16850000000 -2.6157947 121.88646 -54.236732 -129.66017 -54.24168 -113.97688 -11.686412 25.968023
16860000000 -2.4798899 120.20409 -54.704037 -134.26715 -54.855911 -128.98787 -11.868514 23.364815
16870000000 -2.3755219 118.60906 -53.803501 -150.3999 -54.593399 -145.18645 -12.200193 20.344093
16880000000 -2.2594852 117.22977 -52.446434 -173.11708 -53.31881 -169.01537 -12.704901 16.612097
16890000000 -2.1448376 115.8222 -52.247311 157.97438 -52.991352 166.30183 -13.261658 11.401874
16900000000 -2.0400188 114.50007 -52.736954 130.27829 -53.261913 136.33908 -13.790279 5.0637407
16910000000 -1.9520946 113.0762 -53.377308 106.48214 -53.325397 114.07288 -14.187095 -2.1374092
16920000000 -1.8758619 111.81586 -53.358173 87.568329 -53.536465 88.059044 -14.530515 -9.5606585
16930000000 -1.7752388 110.32643 -53.983734 67.390343 -53.979218 68.891876 -14.94601 -16.000961
16940000000 -1.6906487 108.74319 -53.47892 44.254326 -53.905811 44.399616 -15.498553 -21.778471
16950000000 -1.5989748 107.01859 -53.418335 18.059021 -53.662674 24.07069 -16.197149 -27.239836
16960000000 -1.518208 105.34627 -53.785446 -8.1413765 -53.541267 -0.61114872 -17.119081 -33.503784
16970000000 -1.4305609 103.65316 -54.709454 -27.473989 -53.998512 -22.130192 -18.328875 -40.533329
16980000000 -1.3505944 102.03335 -54.292435 -48.676739 -53.70665 -44.098778 -19.833492 -49.829456
16990000000 -1.2630732 100.47772 -54.960995 -78.189926 -53.885517 -69.701332 -21.608532 -61.945965
17000000000 -1.1811758 99.001373 -55.812878 -100.49889 -54.526875 -93.378517 -23.282772 -78.874168
