!Keysight Technologies,P9374A,MY57211807,A.19.30.04
!Date: Friday, May 08, 2026 15:21:24
!Correction: S11(C  2-Port  ) 
!S21(C  2-Port  ) 
!S12(C  2-Port  ) 
!S22(C  2-Port  ) 
!S2P File: Measurements: S11, S21, S12, S22:
# Hz S  dB   R 50
13000000000 -18.979485 57.769604 -40.341919 80.055458 -40.255684 78.659828 -8.3938379 -56.733597
13010000000 -19.195757 58.905048 -39.832676 53.395054 -39.937492 51.983662 -8.5738716 -61.31987
13020000000 -19.308624 60.517326 -40.199333 26.634478 -40.287815 26.684942 -8.7709007 -65.852592
13030000000 -19.415527 61.892014 -40.718952 2.7467055 -40.919399 3.4162011 -8.9790878 -70.263481
13040000000 -19.597479 62.277332 -41.233421 -17.473003 -41.308655 -15.254968 -9.206706 -74.780884
13050000000 -19.698294 63.383522 -41.263779 -36.190262 -41.015186 -34.358253 -9.4573393 -79.564323
13060000000 -19.743599 62.511902 -40.821259 -55.946697 -40.660889 -56.421257 -9.7408714 -84.911438
13070000000 -19.919491 63.094597 -40.243061 -81.929787 -40.350952 -81.895042 -10.01617 -90.49675
13080000000 -19.650391 63.078873 -40.483513 -107.14372 -40.703434 -104.65179 -10.199463 -95.905151
13090000000 -19.434126 60.688492 -40.681511 -131.23044 -40.691593 -128.50304 -10.351092 -101.06348
13100000000 -19.428522 59.730209 -41.080791 -152.20528 -41.026691 -149.44733 -10.531053 -106.01456
13110000000 -19.527809 58.33371 -41.105225 -173.69487 -40.900322 -171.07123 -10.780259 -110.97433
13120000000 -19.791004 58.976307 -41.367123 162.8744 -41.058239 163.16725 -11.068025 -116.51533
13130000000 -19.764654 60.354183 -41.093227 141.74464 -41.070984 143.575 -11.333774 -122.74537
13140000000 -19.75383 63.282639 -41.168888 117.00519 -41.155407 119.73416 -11.548364 -128.83833
13150000000 -19.348074 63.6073 -41.601299 94.2295 -41.37397 97.747368 -11.721521 -134.6857
13160000000 -19.229954 63.628136 -41.858948 73.941704 -41.553368 77.925919 -11.905792 -140.48466
13170000000 -18.890303 61.053928 -41.69664 53.34367 -41.2603 57.10825 -12.158004 -146.74277
13180000000 -18.962673 57.189327 -41.461281 30.275087 -41.189671 32.851402 -12.391618 -153.9259
13190000000 -19.235456 54.606911 -41.200577 5.3558617 -41.040127 9.0908594 -12.501837 -161.65314
13200000000 -19.458467 52.256508 -41.590805 -19.383486 -41.350063 -14.783284 -12.491521 -169.12727
13210000000 -19.907579 52.851265 -42.318127 -42.630016 -41.891541 -36.37653 -12.434849 -175.6463
13220000000 -19.799269 53.845665 -42.552521 -61.448814 -41.735111 -55.241337 -12.444686 178.34901
13230000000 -19.689436 55.161369 -42.499935 -80.735367 -41.70612 -78.489708 -12.565605 171.88129
13240000000 -19.27136 55.946693 -41.987259 -102.32066 -41.399998 -98.87603 -12.689565 164.31989
13250000000 -18.877773 54.219902 -42.109913 -130.05626 -41.588989 -125.08903 -12.650728 156.10446
13260000000 -18.758957 51.629379 -42.233845 -153.31856 -41.397343 -146.75246 -12.392382 147.94823
13270000000 -18.821566 48.121441 -42.819859 -176.21635 -41.759586 -171.67133 -12.063826 140.73557
13280000000 -19.164612 44.752686 -43.043556 162.45511 -41.90567 166.93753 -11.804183 134.58653
13290000000 -19.810591 42.869419 -43.056217 141.0412 -41.886868 144.15347 -11.656135 128.59264
13300000000 -20.010319 43.371281 -43.296761 120.6022 -41.980816 124.5945 -11.568909 122.2021
13310000000 -20.387157 42.874638 -43.016361 96.145309 -41.538616 99.873993 -11.407168 115.31872
13320000000 -20.083933 44.023941 -42.95097 73.810738 -41.359413 74.363892 -11.103689 108.38288
13330000000 -20.022905 41.767876 -43.122135 47.858868 -41.621502 49.372189 -10.743342 101.91246
13340000000 -19.728891 43.026051 -43.614651 24.776745 -42.126263 23.89444 -10.449286 96.100815
13350000000 -19.453754 38.006493 -43.739723 4.8385501 -42.79192 3.5738459 -10.255787 90.57338
13360000000 -19.557993 36.621216 -43.808464 -15.838386 -42.62294 -15.027374 -10.125098 84.825638
13370000000 -19.881708 32.379021 -43.443256 -42.425484 -41.888683 -40.249432 -9.9316292 78.340904
13380000000 -20.133865 31.539188 -44.099411 -63.932629 -42.228626 -66.455414 -9.653821 71.531334
13390000000 -20.931847 28.681744 -43.759266 -87.773819 -42.406181 -92.8032 -9.3254166 65.246407
13400000000 -21.086096 31.015238 -44.080872 -111.48894 -42.976612 -116.87768 -8.9650192 59.712772
13410000000 -21.646955 27.803545 -44.383629 -135.24217 -43.597164 -138.28378 -8.7189999 54.655586
13420000000 -21.784269 32.012676 -43.970451 -158.97673 -43.211422 -160.70253 -8.5859365 49.472633
13430000000 -21.506968 28.700876 -44.304752 174.64571 -43.260384 174.72638 -8.5015507 43.82999
13440000000 -21.39123 27.575695 -44.675156 150.09592 -43.079689 148.12927 -8.4152718 37.736618
13450000000 -21.205019 23.923923 -45.142941 124.29128 -43.849495 118.94131 -8.2511101 31.312904
13460000000 -21.258766 20.207792 -45.453278 103.12513 -44.707012 94.795052 -8.030549 25.329395
13470000000 -21.864363 15.421049 -45.511932 77.887024 -45.146484 74.078964 -7.860126 19.657213
13480000000 -22.481924 15.565495 -45.590771 51.630447 -45.256046 49.632183 -7.7766018 14.240912
13490000000 -23.509384 12.374809 -46.101704 26.363209 -45.335117 25.968889 -7.764545 8.909852
13500000000 -24.030266 18.496313 -46.604794 0.4263666 -45.504169 -2.0862496 -7.7908716 3.30215
13510000000 -24.387815 21.86158 -47.038719 -26.817446 -46.328243 -32.642235 -7.8047962 -2.6263747
13520000000 -23.828072 23.187023 -47.613941 -51.508427 -47.468243 -56.372498 -7.8493958 -8.6293116
13530000000 -23.656256 18.662046 -48.205593 -79.816399 -47.901253 -79.426796 -7.9203625 -14.511755
13540000000 -23.362379 14.282886 -49.743443 -103.45438 -48.722488 -103.29397 -8.0345907 -20.398386
13550000000 -23.926052 7.7509627 -50.01313 -122.62117 -49.072201 -127.96375 -8.1904144 -26.310577
13560000000 -24.378874 3.7356892 -49.664925 -147.10011 -49.44009 -152.94801 -8.3665104 -32.468166
13570000000 -26.270971 4.0159101 -49.408375 -179.25793 -50.285755 178.26653 -8.5208864 -38.562138
13580000000 -26.548761 8.816123 -49.937923 148.74226 -50.367687 151.81067 -8.6738081 -44.410385
13590000000 -27.65719 16.142639 -50.504021 113.89987 -51.164814 118.24011 -8.8489895 -50.097076
13600000000 -26.401028 22.970165 -51.909046 86.687256 -52.231697 96.02256 -9.0854893 -55.704903
13610000000 -25.816559 23.893787 -53.326813 57.658852 -53.22953 65.140732 -9.4057074 -61.455715
13620000000 -25.569654 15.402874 -53.865967 35.84613 -54.087269 36.624413 -9.7772493 -67.547058
13630000000 -26.585352 11.637874 -54.936874 12.844414 -55.967033 14.3966 -10.124594 -73.849854
13640000000 -27.051319 5.8591576 -53.063168 -16.693884 -54.727333 -8.4224768 -10.423544 -80.349564
13650000000 -29.107943 4.2711372 -53.515869 -48.091801 -54.852032 -37.773716 -10.66988 -86.777069
13660000000 -29.630503 11.92979 -53.58139 -79.584747 -54.295097 -66.807922 -10.906675 -92.93869
13670000000 -30.032841 18.51256 -53.166618 -107.5173 -53.057423 -99.223198 -11.194337 -98.881683
13680000000 -28.987667 26.831812 -52.59248 -136.53339 -54.187557 -138.67044 -11.54234 -104.78629
13690000000 -27.583708 26.044001 -52.58828 -166.85864 -55.433933 -159.12468 -11.931565 -111.08447
13700000000 -27.207617 21.946405 -52.842098 159.0508 -55.886997 175.40414 -12.315105 -117.88352
13710000000 -27.22435 19.451677 -53.635479 136.61084 -54.10257 155.93753 -12.646896 -125.16302
13720000000 -27.525023 15.572686 -53.262848 116.26123 -53.83847 120.81667 -12.902156 -132.57191
13730000000 -28.940563 16.367527 -52.300346 93.619751 -53.24308 104.19769 -13.102852 -139.76262
13740000000 -29.165295 20.438522 -51.392803 67.733986 -52.225536 73.73558 -13.314243 -146.91429
13750000000 -30.328617 23.109808 -50.895885 35.710041 -52.195461 45.08757 -13.542073 -154.26414
13760000000 -29.552229 27.826698 -50.773258 15.123453 -51.909454 24.739529 -13.724058 -162.23953
13770000000 -29.390308 28.113646 -50.19545 -12.699462 -50.707649 -2.5244339 -13.781619 -170.63901
13780000000 -28.472441 25.820202 -50.04631 -36.48349 -50.272064 -26.663992 -13.688211 -178.63893
13790000000 -27.465399 20.372639 -49.845573 -63.593349 -49.700394 -56.066467 -13.564488 174.17915
13800000000 -27.865257 10.98446 -49.559639 -82.254425 -49.871094 -78.003448 -13.531455 167.48911
13810000000 -27.562656 12.337253 -48.995445 -109.47467 -49.645416 -104.76349 -13.572174 160.61337
13820000000 -27.677261 1.1018093 -48.817181 -133.42268 -49.41412 -127.29681 -13.581333 152.90533
13830000000 -28.818295 9.0803032 -48.794529 -156.84407 -49.23415 -146.3241 -13.440495 144.74368
13840000000 -28.62652 1.6090518 -48.479599 -177.28064 -48.041691 -173.03801 -13.128404 136.81934
13850000000 -29.575893 13.291151 -47.527119 163.04347 -47.82217 165.93614 -12.808828 129.54013
13860000000 -28.295172 9.3362989 -47.014446 136.4464 -47.247002 138.58504 -12.554199 122.91451
13870000000 -28.188217 8.8626928 -46.213516 109.1156 -46.497196 113.67035 -12.346082 116.44456
13880000000 -27.984066 -1.8770798 -46.880394 82.621902 -46.807796 87.018806 -12.110797 109.71313
13890000000 -27.981733 -1.1408541 -46.930508 60.838886 -47.104862 64.164444 -11.822518 102.77421
13900000000 -27.658855 -15.610285 -46.718391 39.861153 -46.861313 44.51178 -11.511934 96.187256
13910000000 -28.491442 -13.882245 -46.282795 20.347874 -45.841461 25.399065 -11.227812 89.97007
13920000000 -28.31332 -22.667175 -45.473801 -4.90311 -45.236427 -6.3027191 -10.996348 83.965263
13930000000 -29.761576 -21.850893 -44.931953 -30.037096 -45.223763 -28.920691 -10.805606 77.578606
13940000000 -29.411531 -25.465345 -45.008209 -59.287716 -45.021057 -54.473579 -10.613573 70.863152
13950000000 -30.245584 -27.449173 -45.466179 -82.131195 -45.159431 -79.343651 -10.380816 64.06562
13960000000 -30.851849 -33.359905 -45.109699 -103.00571 -45.018997 -101.8856 -10.128512 57.447853
13970000000 -30.872849 -27.593994 -44.998493 -128.39743 -44.98814 -126.86876 -9.8832836 51.395157
13980000000 -29.816696 -41.484245 -44.78286 -151.4962 -44.816486 -149.70471 -9.6913328 45.585903
13990000000 -29.685213 -45.849464 -44.739357 -176.51337 -44.477844 -172.93271 -9.553257 39.637905
14000000000 -28.856703 -57.694836 -44.639885 160.29488 -44.148449 161.33978 -9.4966841 33.510628
14010000000 -28.38751 -62.942638 -45.161343 135.82642 -44.597595 136.31287 -9.4914503 27.076824
14020000000 -27.981503 -72.970528 -44.639629 114.66182 -44.444599 114.71225 -9.5001755 20.342855
14030000000 -28.774176 -80.862961 -44.824276 90.540749 -44.651165 88.827637 -9.5385742 13.683941
14040000000 -30.005775 -87.81237 -44.201626 66.289352 -44.1017 66.508598 -9.6122866 6.7982631
14050000000 -31.238102 -79.137794 -44.317371 38.963848 -44.135216 40.679363 -9.7047491 -0.046728179
14060000000 -31.787266 -79.747322 -44.636726 11.728403 -44.129124 12.748982 -9.848465 -7.0593901
14070000000 -31.835588 -71.873932 -45.543678 -8.5694256 -45.122917 -11.031841 -10.024517 -14.45515
14080000000 -30.449362 -80.106018 -45.245438 -31.380505 -45.09037 -32.754917 -10.233606 -21.978668
14090000000 -29.878607 -85.63224 -45.116882 -54.101311 -45.133221 -55.953632 -10.470448 -29.467649
14100000000 -28.066982 -104.25017 -45.123814 -79.492554 -45.285652 -79.214249 -10.716948 -36.795048
14110000000 -28.292841 -117.66055 -45.947376 -105.46649 -45.496418 -103.64637 -11.009865 -43.945057
14120000000 -27.735161 -132.97928 -46.028618 -128.0555 -45.573425 -128.89264 -11.409612 -51.240154
14130000000 -29.231737 -140.7114 -46.333233 -150.31535 -46.101898 -151.84885 -11.900642 -59.071445
14140000000 -29.674864 -144.15462 -46.405987 -175.90234 -45.967621 -179.81958 -12.422232 -67.559654
14150000000 -31.947601 -135.44923 -47.245018 158.04173 -47.191799 156.35147 -12.881948 -76.496925
14160000000 -30.034836 -128.09735 -48.404865 136.53673 -48.315796 133.26488 -13.281277 -85.303032
14170000000 -30.189184 -124.56321 -48.541527 122.65623 -48.784134 117.55172 -13.704244 -93.503822
14180000000 -27.870792 -129.99556 -48.252926 102.20435 -48.546516 98.938019 -14.196544 -101.57474
14190000000 -27.196955 -141.24358 -47.76263 72.479301 -47.987812 69.502197 -14.775711 -110.87772
14200000000 -26.605225 -153.81241 -48.602055 47.194702 -49.296947 43.052563 -15.345804 -121.31173
14210000000 -27.289026 -164.94791 -49.572502 19.913317 -50.340782 19.026134 -15.703953 -132.37682
14220000000 -27.913164 -169.62143 -51.381916 3.7080581 -51.633175 -0.3804445 -15.833832 -143.22711
14230000000 -28.678143 -172.53195 -52.048794 -10.355634 -53.092403 -10.003234 -15.872362 -153.11226
14240000000 -29.054737 -167.23427 -51.001343 -28.677099 -51.254112 -31.724552 -15.92742 -162.67609
14250000000 -28.620844 -162.03758 -50.669621 -55.32085 -51.964611 -58.018723 -15.960307 -172.20358
14260000000 -28.029749 -160.55852 -51.234577 -85.061455 -52.761292 -81.202858 -15.825894 178.16118
14270000000 -27.122713 -162.47382 -52.576851 -103.7047 -53.604126 -101.03477 -15.594406 169.27948
14280000000 -27.046131 -170.44849 -53.608818 -128.12762 -55.349541 -117.22139 -15.2984 161.49847
14290000000 -26.963627 -174.0298 -54.941345 -143.36021 -55.85553 -135.90263 -15.075888 154.52443
14300000000 -27.815838 178.49565 -56.068378 -155.58376 -55.27816 -140.80362 -14.932008 147.79807
14310000000 -27.769438 179.8508 -56.324417 -173.30775 -55.484768 -166.76691 -14.777452 140.7002
14320000000 -28.31448 173.9552 -56.049179 166.09592 -54.479568 175.07962 -14.511282 133.38127
14330000000 -27.560886 177.98125 -56.607376 150.57602 -54.703381 146.75188 -14.126246 126.36599
14340000000 -28.454292 170.44601 -57.597633 133.27122 -57.579655 126.01198 -13.661112 120.29662
14350000000 -27.956453 179.03801 -56.712719 130.52966 -57.089935 131.23355 -13.238348 115.02491
14360000000 -28.267694 175.86275 -55.470009 96.648315 -55.527321 104.17149 -12.90538 110.62354
14370000000 -27.54841 -179.75317 -57.485638 75.228745 -55.15979 76.272003 -12.642037 106.52167
14380000000 -27.840202 174.29648 -56.590179 58.844669 -55.977371 53.424709 -12.436066 102.3706
14390000000 -27.293072 179.03973 -57.203693 49.558273 -56.786282 39.81926 -12.225721 97.749313
14400000000 -27.332342 169.68086 -56.459557 29.029858 -57.502823 20.974895 -12.003613 92.883911
14410000000 -27.677904 167.2596 -55.325474 16.962254 -57.347843 3.0500305 -11.759798 88.086281
14420000000 -28.679253 162.52011 -54.201138 -9.0907774 -56.870342 -10.885893 -11.472106 83.53006
14430000000 -29.057329 165.34151 -54.664104 -37.601124 -55.655869 -37.555107 -11.237032 79.431686
14440000000 -29.938568 171.2119 -54.65501 -68.453171 -57.249641 -67.594589 -11.003078 75.73307
14450000000 -27.941862 -176.81561 -57.156246 -78.55336 -59.599548 -68.528618 -10.775311 71.90136
14460000000 -27.131723 178.52547 -56.243614 -89.921303 -57.835209 -81.511971 -10.57651 67.835327
14470000000 -26.232813 178.1776 -55.388489 -108.00488 -56.332294 -109.55415 -10.404551 63.805107
14480000000 -25.82152 173.64906 -54.321117 -131.07341 -56.846489 -121.00803 -10.280076 59.993793
14490000000 -26.355347 166.3017 -55.163193 -163.60733 -57.381004 -147.20293 -10.204601 56.446632
14500000000 -27.564108 167.25365 -55.071941 165.39809 -57.360386 -166.4585 -10.141062 52.674755
14510000000 -28.861425 169.37071 -60.521542 142.45935 -60.202244 -177.55031 -10.13435 48.170208
14520000000 -28.999769 -171.36681 -60.050362 152.16972 -56.541821 -172.024 -10.141247 43.138298
14530000000 -26.841999 -173.51144 -56.652599 147.60457 -54.182755 156.51126 -10.117281 38.18259
14540000000 -26.012121 -172.22269 -55.324894 112.99457 -54.128448 129.53165 -10.033385 33.836868
14550000000 -24.43716 179.43182 -54.691292 91.191124 -53.150898 107.18259 -9.9582853 29.825216
14560000000 -24.564842 173.96484 -57.623169 57.067913 -54.825054 78.860786 -9.9988251 25.927412
14570000000 -24.253523 167.0715 -59.633705 51.194401 -55.663361 70.19857 -10.171979 21.795643
14580000000 -25.297129 165.46974 -59.292683 58.446693 -53.917885 61.604919 -10.455497 17.310156
14590000000 -26.125404 168.40517 -55.984997 43.298893 -52.687695 43.25478 -10.752619 12.493524
14600000000 -25.56962 -177.15366 -52.842304 19.667824 -50.675262 14.987907 -11.077576 7.5829964
14610000000 -24.392826 179.93565 -52.891556 -12.820203 -50.325741 -12.838921 -11.449289 2.9398413
14620000000 -23.737785 -176.91745 -52.314762 -36.599735 -50.551586 -39.065075 -11.885169 -1.5199622
14630000000 -22.649073 177.33804 -52.944519 -62.911774 -50.444611 -62.369312 -12.4109 -6.5166488
14640000000 -22.40498 171.71933 -53.48278 -83.606209 -50.686768 -85.226707 -13.048514 -11.711778
14650000000 -22.322506 166.29333 -52.951443 -84.176331 -50.957172 -96.081139 -13.650547 -16.763878
14660000000 -22.621557 162.09067 -50.123989 -113.20837 -48.900604 -117.49412 -14.2939 -21.281412
14670000000 -23.341249 161.86003 -49.6283 -142.52025 -47.585342 -145.62553 -15.021276 -24.630684
14680000000 -23.034445 165.76868 -50.080944 -172.09795 -48.279198 -176.08806 -15.962562 -27.18092
14690000000 -22.869301 167.62314 -50.037083 166.25743 -48.526997 159.82527 -17.21702 -28.979305
14700000000 -21.90377 169.08661 -50.010265 145.5309 -48.34803 141.73454 -18.761021 -30.363869
14710000000 -21.506647 167.22902 -50.313236 129.2856 -48.238358 119.74111 -20.520216 -31.623165
14720000000 -20.830843 164.16328 -48.623638 102.54151 -47.375473 93.524986 -22.566551 -33.240589
14730000000 -20.711115 158.81764 -48.828415 71.763046 -47.771496 66.77774 -25.253622 -33.966595
14740000000 -20.734863 153.12105 -49.678616 48.492641 -47.876801 42.151669 -28.343187 -29.639067
14750000000 -21.357334 151.44742 -49.766319 33.129955 -48.306171 24.218641 -31.721664 -15.725883
14760000000 -21.266901 149.77721 -48.309082 10.52378 -47.386253 2.5942242 -33.058899 12.532419
14770000000 -21.654417 149.7695 -48.190281 -15.691753 -47.395088 -25.136953 -31.400911 38.733231
14780000000 -21.143194 150.21765 -48.324535 -45.193768 -47.301441 -53.899525 -28.279127 57.020409
14790000000 -21.081978 149.83568 -48.713326 -71.14859 -47.788155 -77.287582 -25.323092 64.346397
14800000000 -20.385704 150.51157 -49.750797 -91.42955 -48.891964 -98.068581 -23.199574 68.343613
14810000000 -20.04014 147.78691 -49.062801 -110.04444 -48.706604 -116.22101 -21.76528 69.436867
14820000000 -19.651861 144.44063 -49.478466 -139.72154 -48.54694 -144.23035 -20.705269 69.87722
14830000000 -19.931818 140.30968 -49.02301 -158.93387 -48.023373 -165.10257 -19.814306 68.432495
14840000000 -20.081398 137.23389 -48.945778 173.08997 -47.967976 162.84647 -18.961477 66.849937
14850000000 -20.698412 134.40416 -49.343731 143.96318 -49.39959 136.00276 -18.209852 64.392036
14860000000 -20.945538 133.20877 -50.607693 118.63168 -50.871338 116.41206 -17.640781 62.572155
14870000000 -21.799391 132.38741 -51.327213 99.407578 -50.356815 98.334915 -17.255741 60.248165
14880000000 -21.571692 136.06181 -51.449169 80.165894 -51.20657 72.916573 -17.026661 57.022816
14890000000 -21.007261 136.08786 -51.221111 61.066845 -51.96505 57.571678 -16.711208 52.773151
14900000000 -20.160896 132.59297 -50.653549 30.996248 -50.766136 34.961712 -16.308434 48.3027
14910000000 -19.862814 127.92701 -51.793842 -0.76241142 -50.800243 2.7296534 -15.805471 45.089508
14920000000 -19.89513 121.00658 -53.731606 -26.501333 -51.872147 -23.550236 -15.386583 43.574921
14930000000 -20.548962 118.78696 -54.089615 -39.27565 -53.09193 -56.896317 -15.098706 42.515213
14940000000 -21.133339 115.60071 -54.625809 -65.65123 -56.78722 -77.025414 -15.069615 40.891594
14950000000 -22.133654 119.79404 -53.596302 -95.348557 -56.751995 -91.71682 -15.217495 37.764545
14960000000 -22.438271 121.94521 -58.083649 -129.86406 -57.967888 -98.502899 -15.430071 34.054924
14970000000 -22.159239 129.16287 -61.792088 -141.16087 -58.752598 -128.18907 -15.564022 30.887165
14980000000 -21.595884 124.77636 -59.797142 -119.47688 -59.258335 -131.79295 -15.635115 28.737154
14990000000 -21.299335 122.26259 -56.004936 -158.57816 -58.760384 -159.02284 -15.685171 27.003187
15000000000 -21.593483 113.42767 -55.897583 146.25162 -58.108074 161.92058 -15.87047 24.728811
15010000000 -22.243507 112.44324 -59.941456 90.49102 -63.572433 103.79975 -16.114996 21.137098
15020000000 -22.887804 107.38867 -63.390511 62.436172 -69.921829 91.542946 -16.355196 17.301603
15030000000 -23.4699 110.26411 -67.148438 -12.994183 -66.939644 -72.469391 -16.462833 14.732557
15040000000 -24.291786 109.72786 -66.839653 -131.20624 -58.257656 -159.19698 -16.463024 14.015427
15050000000 -24.346252 119.84623 -64.123466 173.34164 -58.819263 148.45061 -16.673553 15.014928
15060000000 -23.808258 123.02634 -69.759941 124.61735 -60.955402 132.60527 -17.064507 16.763414
15070000000 -22.861536 122.35622 -69.667633 163.97198 -63.347046 98.054703 -17.546768 17.380238
15080000000 -23.103477 118.89015 -65.474655 131.16237 -61.210678 138.22702 -18.206795 15.810343
15090000000 -23.059116 115.18475 -61.211388 115.10663 -57.182796 94.161507 -18.769011 13.569575
15100000000 -24.246078 112.37571 -60.21373 91.926926 -57.285477 72.082581 -19.227531 11.955832
15110000000 -25.057383 113.31658 -58.395237 65.580994 -55.989334 51.091202 -19.413607 12.363213
15120000000 -26.245527 120.86629 -56.804417 44.725376 -54.90107 23.633924 -19.530029 13.727434
15130000000 -25.310858 125.35957 -54.263741 25.342505 -53.485451 10.656687 -19.586758 14.696293
15140000000 -25.005272 129.6465 -52.299343 -20.63291 -51.587429 -26.108404 -19.664268 14.802053
15150000000 -23.727242 126.17615 -54.316456 -43.703789 -52.718155 -52.332188 -19.773941 14.761477
15160000000 -24.097954 124.49638 -54.295547 -76.353867 -53.260666 -81.374229 -19.79744 16.329126
15170000000 -23.686138 123.27271 -54.744144 -89.339264 -53.538654 -96.579803 -19.641338 17.754686
15180000000 -23.871372 124.42117 -54.668282 -106.25704 -53.879158 -112.22176 -19.729494 18.926371
15190000000 -23.42141 122.69667 -53.48114 -126.811 -51.8633 -129.48515 -20.073534 19.591364
15200000000 -24.102634 124.33443 -53.6852 -153.59782 -52.003975 -161.56917 -20.573189 19.647099
15210000000 -23.754673 123.37608 -51.945019 -175.59296 -51.077667 173.30345 -20.900621 19.104582
15220000000 -24.453411 128.50769 -52.145935 161.62813 -51.654118 151.18185 -21.015812 15.7805
15230000000 -23.653431 127.85926 -50.920433 136.18599 -51.576508 128.0912 -21.25705 11.117205
15240000000 -23.708235 131.61696 -50.89563 105.08604 -50.993122 104.03197 -21.653135 7.4770722
15250000000 -22.671352 127.51256 -52.532509 77.805618 -52.129608 74.960052 -22.114279 4.8626566
15260000000 -22.614365 124.77634 -54.101791 68.099319 -52.58337 60.683548 -22.494839 4.4974241
15270000000 -22.411034 119.44628 -52.397606 54.59816 -52.093227 37.286148 -22.678034 4.3019743
15280000000 -22.772369 116.295 -51.113441 29.945803 -52.053005 21.45113 -23.073229 3.3359053
15290000000 -22.969414 115.60529 -51.700275 -1.0374455 -52.358723 -9.338398 -24.221115 3.0011873
15300000000 -23.273367 116.08853 -51.077274 -17.696335 -52.063778 -19.894491 -26.413954 3.6554608
15310000000 -23.205563 117.03704 -52.584614 -48.161018 -52.493645 -51.822788 -29.527763 7.4913054
15320000000 -23.073034 117.45383 -52.61787 -65.936417 -53.274109 -74.000275 -33.763374 13.504491
15330000000 -22.961008 117.48691 -53.862289 -79.984741 -54.691963 -90.328178 -39.702103 20.940622
15340000000 -22.713337 115.34447 -52.840591 -93.259087 -54.326763 -95.007294 -46.467621 101.16838
15350000000 -22.507452 114.71349 -52.197144 -111.88869 -53.321125 -116.09454 -36.801216 140.79747
15360000000 -22.45532 108.63068 -50.976795 -137.0529 -51.680904 -137.23361 -30.94404 143.26909
15370000000 -22.914669 105.85715 -52.32251 -165.33791 -53.299187 -170.65472 -27.558922 141.36502
15380000000 -23.167624 100.08096 -52.681515 -172.09502 -53.647835 -173.4537 -25.315538 139.2908
15390000000 -24.24724 101.06516 -50.998085 173.41051 -51.629284 171.29449 -23.774197 135.55672
15400000000 -24.396273 100.47926 -49.174633 147.11371 -50.541412 145.56137 -22.208138 130.97273
15410000000 -24.597546 102.60358 -49.072384 113.83334 -50.183987 112.76283 -20.577457 125.63821
15420000000 -24.570862 99.848366 -50.394978 92.820206 -51.68087 93.111649 -19.046717 122.22893
15430000000 -24.591528 101.47506 -50.140923 75.885368 -51.634552 78.688171 -17.672806 120.1694
15440000000 -24.422724 94.899109 -49.780937 58.94598 -50.545185 69.368202 -16.739273 119.42757
15450000000 -25.166067 93.641541 -49.304203 35.264599 -49.16235 40.010387 -16.082804 118.23283
15460000000 -25.473131 90.597557 -48.639774 12.561674 -48.645958 16.149776 -15.615024 115.83263
15470000000 -25.98498 89.6791 -48.555477 -15.436129 -48.485172 -11.167837 -15.170656 112.07622
15480000000 -26.422174 82.445946 -48.78651 -38.016582 -47.956387 -35.976681 -14.654403 107.64958
15490000000 -27.838293 83.062004 -49.544563 -59.315365 -49.317425 -57.418976 -14.104928 103.73798
15500000000 -28.688255 79.911423 -49.530754 -76.821701 -49.056866 -74.827438 -13.556277 100.65605
15510000000 -29.579544 84.689903 -49.8769 -93.40313 -48.931808 -94.481712 -13.025061 97.721848
15520000000 -30.366533 83.543648 -49.240055 -112.44434 -48.360218 -114.77589 -12.575269 94.68618
15530000000 -29.998699 88.981735 -47.99205 -136.36974 -47.237377 -142.23215 -12.133251 92.015625
15540000000 -30.747463 78.802719 -48.105061 -161.95453 -47.578632 -168.79033 -11.703204 89.387192
15550000000 -31.259962 82.566391 -48.271755 177.32448 -48.351437 165.43968 -11.338471 87.095032
15560000000 -33.147083 65.610359 -48.062023 152.07567 -48.926155 147.36012 -11.070009 84.903069
15570000000 -35.993614 77.301003 -48.454533 128.56577 -48.371616 127.07661 -10.865954 82.629211
15580000000 -38.573757 53.554787 -48.905861 107.37508 -48.121403 100.48959 -10.722189 80.074745
15590000000 -42.190697 98.083092 -49.208313 90.256424 -49.23423 76.928787 -10.583173 77.062317
15600000000 -49.77055 29.475384 -48.322182 69.527855 -48.908863 60.395134 -10.442995 73.631088
15610000000 -43.553143 178.05394 -48.56596 47.914387 -49.209473 41.656372 -10.252865 70.150772
15620000000 -45.637123 -152.55481 -47.86071 25.363991 -48.44466 19.166815 -10.018731 66.614586
15630000000 -40.487152 -178.22784 -47.964268 -0.77934611 -48.291817 -6.7861037 -9.7695465 63.423443
15640000000 -43.446602 -138.38057 -48.304321 -23.716856 -48.406269 -25.114716 -9.5446882 60.728039
15650000000 -38.540882 -146.77687 -48.422195 -47.436451 -47.90218 -52.595764 -9.3491287 58.569092
15660000000 -36.473183 -121.72115 -49.471867 -70.835533 -49.214767 -76.042 -9.2282724 56.371666
15670000000 -33.439365 -140.10081 -49.50227 -88.683647 -49.734161 -93.908867 -9.1856308 53.789356
15680000000 -31.708889 -129.18822 -49.650482 -108.65035 -49.65797 -109.52855 -9.1992588 50.598255
15690000000 -30.124933 -143.74452 -49.052841 -124.66756 -48.798187 -126.23986 -9.2081976 46.998688
15700000000 -29.262129 -140.53528 -48.811623 -149.61441 -48.270161 -149.36427 -9.2017365 43.258793
15710000000 -28.979834 -148.40523 -48.081104 -175.73004 -47.261406 -175.57927 -9.1540794 39.82951
15720000000 -28.095627 -143.1944 -48.416378 157.94136 -47.471172 156.6041 -9.1085577 36.418583
15730000000 -27.812134 -145.86427 -49.421871 134.68935 -48.153088 131.37112 -9.1009054 32.689785
15740000000 -26.861559 -143.82784 -50.506618 108.74907 -49.003387 105.60726 -9.0991249 28.591208
15750000000 -26.837139 -148.04318 -51.362553 100.72578 -50.108685 91.637047 -9.0819683 24.431801
15760000000 -26.339598 -145.87428 -50.64455 80.77462 -49.659382 74.015541 -9.059907 20.701862
15770000000 -25.94541 -145.32915 -49.911072 63.265495 -49.113712 56.049126 -9.0495844 17.667465
15780000000 -24.853874 -145.63814 -48.94109 34.866585 -48.29311 29.673952 -9.1865416 14.714818
15790000000 -24.263784 -149.83142 -50.19315 6.5996184 -49.029438 1.0120801 -9.4917412 11.290417
15800000000 -23.804907 -152.65858 -51.550171 -13.011678 -50.124241 -22.776901 -9.9091139 6.7297173
15810000000 -23.953512 -154.82152 -52.399837 -25.035984 -51.548431 -42.740402 -10.340261 0.58760917
15820000000 -23.376947 -153.18481 -51.30331 -40.81086 -51.914616 -51.190033 -10.690708 -6.1152511
15830000000 -23.25139 -154.00085 -50.46846 -62.476418 -51.168518 -73.126976 -10.909967 -12.589815
15840000000 -22.868877 -152.48576 -50.39209 -86.435287 -51.235229 -88.574196 -11.134437 -18.401585
15850000000 -22.854767 -153.31856 -50.358006 -106.2939 -50.4902 -109.92295 -11.478252 -23.748011
15860000000 -22.237196 -150.83879 -50.052128 -127.97862 -51.045021 -127.66451 -11.965589 -28.902843
15870000000 -21.963598 -154.04056 -50.037415 -147.37566 -50.470985 -142.43199 -12.554199 -34.473
15880000000 -21.881639 -153.60356 -48.77248 -169.7325 -48.863869 -162.9756 -13.274695 -40.456909
15890000000 -21.820568 -154.6922 -49.658756 162.23544 -49.207363 171.9016 -14.152734 -46.70573
15900000000 -21.235485 -154.91563 -48.817776 147.50462 -48.48053 154.0696 -15.221955 -53.730034
15910000000 -21.16011 -158.17543 -48.810802 119.97983 -48.172371 129.65543 -16.450905 -62.437218
15920000000 -20.905523 -158.8365 -48.321838 100.6515 -47.785385 108.01962 -17.772209 -73.907677
15930000000 -21.169874 -157.7388 -48.138229 72.584198 -47.470379 82.323906 -18.96414 -88.076324
15940000000 -20.499743 -154.6113 -49.048023 47.566891 -48.377174 61.10083 -19.779236 -103.77386
15950000000 -20.073275 -154.84372 -48.887398 28.359055 -47.235455 38.823238 -20.210938 -119.14525
15960000000 -19.546709 -155.79915 -49.099636 6.2794394 -47.664597 12.099539 -20.489555 -134.05756
15970000000 -19.506884 -156.43881 -49.172535 -13.442325 -47.606411 -8.4283772 -20.676451 -148.13161
15980000000 -19.320576 -156.01059 -48.27602 -32.684204 -47.649914 -32.245991 -20.806639 -162.9149
15990000000 -19.121727 -155.54984 -48.230961 -59.674503 -47.28746 -55.216095 -20.691607 -178.8204
16000000000 -19.042852 -156.23683 -48.46994 -83.468033 -47.499546 -81.53524 -20.109791 164.89279
16010000000 -18.887243 -154.45396 -48.820984 -107.12434 -48.190071 -107.03301 -19.085907 151.42505
16020000000 -18.32423 -155.14552 -49.263138 -125.32501 -48.37323 -125.78445 -17.906973 141.74301
16030000000 -18.039297 -156.12225 -48.757397 -145.94725 -48.557705 -149.91312 -16.856766 135.04256
16040000000 -17.793936 -157.7626 -49.285198 -169.45677 -49.062641 -168.82539 -16.069769 129.7258
16050000000 -17.699434 -157.43213 -48.98143 170.35289 -48.82489 167.67232 -15.593928 124.63632
16060000000 -17.241278 -156.02167 -49.133572 149.17224 -49.284504 145.69456 -15.19497 119.70216
16070000000 -16.731655 -156.39362 -49.141933 127.73975 -49.370724 123.27246 -14.776472 114.24813
16080000000 -16.285975 -157.40219 -49.244816 105.80189 -49.867657 100.59227 -14.354887 109.42027
16090000000 -16.176952 -158.40843 -48.997971 85.565514 -50.075195 84.461151 -14.015486 104.86999
16100000000 -15.918033 -158.48827 -48.654568 56.342133 -49.438053 53.515713 -13.735563 100.45647
16110000000 -15.858207 -158.80103 -50.269115 34.098835 -50.736069 31.695141 -13.448891 95.575462
16120000000 -15.48073 -158.49834 -50.477249 15.812716 -51.079575 12.949525 -13.115224 90.678383
16130000000 -15.291133 -158.90712 -51.064213 0.34790516 -51.54261 -6.7147303 -12.657825 86.625343
16140000000 -14.836104 -158.9061 -50.339512 -19.701283 -51.606178 -25.610373 -12.201226 83.657097
16150000000 -14.466796 -160.61754 -50.387707 -43.087868 -51.340378 -46.27726 -11.86947 81.468292
16160000000 -14.07548 -162.55434 -50.646091 -64.757484 -51.579559 -69.029968 -11.73987 79.363541
16170000000 -13.903721 -164.10747 -50.636875 -93.54702 -51.199688 -99.853378 -11.74572 76.604012
16180000000 -13.602094 -164.01912 -52.140324 -115.26305 -52.60498 -123.75105 -11.800915 72.779594
16190000000 -13.348141 -165.23933 -53.17057 -132.03862 -53.811352 -142.75375 -11.789917 68.524147
16200000000 -13.131295 -165.37685 -53.44194 -149.22385 -54.953766 -156.50233 -11.686048 64.302803
16210000000 -12.937503 -166.05865 -53.065445 -164.28149 -53.673485 -166.87802 -11.556401 60.631821
16220000000 -12.689721 -165.58258 -52.616508 169.57385 -53.653469 165.78178 -11.447861 57.079552
16230000000 -12.363334 -166.92271 -53.053581 145.93236 -53.441887 146.15475 -11.376996 53.294464
16240000000 -12.095126 -167.38496 -53.488411 120.91007 -53.481701 121.44593 -11.292255 49.431648
16250000000 -11.842184 -169.96101 -55.79977 87.714516 -54.995258 90.85878 -11.169852 45.95623
16260000000 -11.663109 -171.34926 -58.10918 80.875069 -57.178837 81.535995 -11.090133 43.134716
16270000000 -11.458365 -173.27019 -59.046272 66.570442 -57.008781 70.610268 -11.126063 40.767651
16280000000 -11.299142 -174.65602 -57.857025 62.983162 -57.32024 56.868919 -11.288702 37.944176
16290000000 -11.16573 -175.99637 -58.19545 36.209717 -57.125572 33.2061 -11.593809 33.908859
16300000000 -10.955381 -175.61859 -58.47924 20.952501 -57.894257 10.638318 -11.93318 28.934963
16310000000 -10.612795 -176.57765 -59.859154 17.16106 -59.696846 11.579551 -12.143529 23.330992
16320000000 -10.337623 -176.95288 -58.020111 0.03299037 -57.766678 -7.217525 -12.313619 17.676933
16330000000 -10.070527 -178.56183 -58.191174 -12.559786 -58.112949 -18.65624 -12.522441 12.362758
16340000000 -9.9051199 -179.47673 -56.666359 -37.477444 -55.786842 -48.550854 -12.80347 7.1137395
16350000000 -9.7337418 178.79337 -59.474632 -57.14296 -58.068882 -63.57243 -13.125302 1.8226001
16360000000 -9.6283369 177.2151 -56.672134 -58.303036 -55.65033 -79.740334 -13.511116 -3.4772139
16370000000 -9.6249104 175.50258 -54.807793 -81.211288 -55.557571 -97.662048 -13.976862 -8.001503
16380000000 -9.5066204 174.94859 -52.422348 -111.39838 -52.992958 -119.27842 -14.64094 -12.314058
16390000000 -9.366622 173.79242 -53.50592 -137.63243 -53.136478 -146.56743 -15.553669 -17.610735
16400000000 -9.1183729 173.37001 -53.111984 -164.0036 -52.225777 -172.55353 -16.735512 -25.592741
16410000000 -8.8642159 172.06142 -53.414543 176.65144 -51.869011 163.054 -17.928743 -35.458271
16420000000 -8.5776882 171.09567 -53.040443 155.63069 -52.661709 139.66211 -18.834805 -46.513138
16430000000 -8.3370399 169.20055 -53.078815 134.63315 -53.105343 122.8156 -19.735353 -57.272224
16440000000 -8.2410612 167.96483 -52.045563 115.89096 -52.159077 112.62196 -20.750294 -67.75441
16450000000 -8.2067804 166.45016 -51.484814 87.156715 -50.507442 85.324814 -22.062872 -81.222015
16460000000 -8.2107573 166.45892 -51.708374 58.78492 -50.899689 54.764797 -23.191223 -97.646484
16470000000 -8.0643482 166.09853 -51.56308 39.688992 -51.47224 33.372787 -23.818213 -115.43381
16480000000 -7.8757553 165.31905 -51.536083 12.906786 -52.527214 12.331189 -24.218195 -132.75993
16490000000 -7.7112994 163.94492 -51.521782 -11.003348 -51.941895 -5.7200212 -24.593889 -152.11028
16500000000 -7.5296984 162.96597 -51.911747 -30.844343 -51.763744 -25.260544 -24.052868 -173.38815
16510000000 -7.3269181 160.80859 -51.958031 -49.160889 -51.723606 -50.416492 -22.313787 168.58174
16520000000 -7.2789073 159.53996 -51.141857 -66.579544 -51.589321 -67.425842 -20.455603 158.64114
16530000000 -7.1187215 157.88113 -48.589535 -103.20097 -50.787075 -103.15918 -19.092091 153.38821
16540000000 -7.1147847 157.55551 -49.029373 -127.95541 -51.426086 -126.25419 -18.397692 149.76657
16550000000 -6.9317474 157.28316 -49.446239 -151.47879 -52.167778 -151.2951 -18.017256 144.68333
16560000000 -6.7717161 157.08232 -49.245995 -171.05782 -51.491795 -174.95346 -17.658207 138.32858
16570000000 -6.5519462 156.19707 -49.635567 164.79373 -54.015213 161.56676 -17.153688 131.85902
16580000000 -6.3879285 155.45517 -49.074905 146.54103 -52.705647 146.85513 -16.519215 126.58475
16590000000 -6.1899557 154.0318 -49.331203 121.15024 -53.541557 119.02855 -15.997219 122.02332
16600000000 -6.0799203 152.40573 -49.445721 100.30901 -53.893776 103.02472 -15.59049 118.23135
16610000000 -5.9948134 150.68848 -49.209183 79.864052 -53.576447 79.502174 -15.156382 113.64394
16620000000 -5.9660449 149.65114 -49.149029 57.242229 -54.595871 60.808559 -14.671456 109.255
16630000000 -5.819303 148.68387 -48.60099 34.102261 -53.76215 34.905041 -14.109706 105.76233
16640000000 -5.7037349 148.06021 -49.288109 5.289753 -55.442383 7.4159703 -13.672453 103.70808
16650000000 -5.4618125 147.37381 -50.335693 -14.239906 -56.759872 -4.1513801 -13.381949 102.53291
16660000000 -5.273037 146.54192 -49.906757 -32.663258 -55.591286 -19.459606 -13.298744 100.83031
16670000000 -5.0214057 145.57256 -49.672615 -53.287704 -54.381458 -44.318451 -13.33883 97.79425
16680000000 -4.8530173 144.13026 -49.519627 -78.072021 -55.370052 -75.901588 -13.341357 93.387894
16690000000 -4.698771 142.81389 -49.769447 -104.84606 -55.75198 -98.004066 -13.227449 88.555077
16700000000 -4.642395 141.40962 -51.143867 -127.61147 -57.501938 -120.90125 -13.014766 84.36805
16710000000 -4.5425062 140.39299 -50.964237 -143.56175 -56.808388 -134.04475 -12.729475 81.214836
16720000000 -4.4540253 139.44337 -51.269924 -165.37489 -57.681492 -158.6076 -12.442383 78.515816
16730000000 -4.2700443 138.28201 -51.528988 170.45198 -58.974579 -176.91479 -12.233871 75.95192
16740000000 -4.1364832 137.13412 -52.236511 153.05066 -57.362785 -179.33885 -12.084978 73.40892
16750000000 -3.9176414 135.91669 -51.3307 137.7683 -54.400303 149.95993 -12.039293 71.128418
16760000000 -3.7364728 134.38292 -51.182987 107.8402 -55.067696 113.39714 -12.004793 68.96051
16770000000 -3.5755906 132.75174 -51.549736 82.051941 -56.042034 85.963051 -12.06973 66.229591
16780000000 -3.4717083 131.44295 -52.919563 57.373009 -57.547211 56.943878 -12.185254 62.89711
16790000000 -3.3583105 130.23869 -53.948727 39.395939 -59.328842 47.868992 -12.367135 58.664761
16800000000 -3.2403305 129.14766 -54.596584 27.753574 -58.761501 39.442383 -12.491936 53.919964
16810000000 -3.1159017 127.77395 -53.163784 13.55629 -56.57478 15.796942 -12.569942 48.972328
16820000000 -3.0026739 126.46463 -53.35183 -12.463669 -56.971645 -15.948773 -12.545353 44.113827
16830000000 -2.8727047 124.88895 -53.044109 -34.364002 -57.482754 -30.969629 -12.463615 39.500057
16840000000 -2.7445233 123.41622 -52.930546 -62.600056 -56.392406 -72.09523 -12.392291 35.365387
16850000000 -2.6128919 121.66486 -55.258518 -84.068039 -59.613888 -95.540878 -12.39596 31.853615
16860000000 -2.5080087 120.11358 -55.075123 -98.280136 -59.638016 -106.86066 -12.505354 28.999081
16870000000 -2.3882225 118.65884 -55.377266 -108.88624 -59.932648 -120.86635 -12.852794 25.839405
16880000000 -2.262218 117.30943 -53.828148 -128.99634 -58.920921 -139.39272 -13.387282 22.387756
16890000000 -2.1416266 115.8711 -53.614109 -156.08565 -58.250381 -171.25076 -14.023047 16.933678
16900000000 -2.0358901 114.56375 -54.296333 173.91248 -58.767612 162.35577 -14.628428 10.001026
16910000000 -1.9438609 113.09019 -54.994118 160.15327 -59.585026 144.06837 -15.108809 1.4462547
16920000000 -1.8621951 111.769 -55.203213 138.06458 -60.803547 115.58198 -15.474823 -6.7852554
16930000000 -1.7796841 110.21581 -54.576927 119.19643 -61.410656 111.35275 -15.850403 -14.506914
16940000000 -1.7033362 108.71687 -54.176525 95.06076 -59.551434 91.464722 -16.372244 -21.39319
16950000000 -1.611944 107.03606 -54.927269 71.464485 -59.685837 63.528431 -17.025469 -28.214899
16960000000 -1.5213468 105.40232 -55.433643 52.072479 -60.021736 41.605598 -17.921228 -35.241985
16970000000 -1.4212339 103.66599 -55.254601 32.107571 -59.358292 28.076511 -19.058895 -43.571922
16980000000 -1.3412075 102.01281 -54.956001 11.846307 -58.935951 -1.9613749 -20.529505 -54.018108
16990000000 -1.257603 100.4139 -54.130768 -14.810547 -58.717045 -28.710598 -22.052715 -68.21756
17000000000 -1.182542 98.976143 -55.068802 -42.44828 -59.490906 -56.452976 -23.176022 -87.869751
