!Keysight Technologies,P9374A,MY57211807,A.19.30.04
!Date: Friday, May 08, 2026 15:18:32
!Correction: S11(C  2-Port  ) 
!S21(C  2-Port  ) 
!S12(C  2-Port  ) 
!S22(C  2-Port  ) 
!S2P File: Measurements: S11, S21, S12, S22:
# Hz S  dB   R 50
13000000000 -19.143921 57.755711 -43.226059 92.904991 -43.023369 94.646759 -9.8768158 -17.755619
13010000000 -19.225544 59.814926 -42.843437 67.889732 -42.337246 69.121368 -10.175675 -19.063927
13020000000 -19.362564 61.144733 -42.670158 43.44442 -42.331345 44.420677 -10.469439 -20.222115
13030000000 -19.139135 62.752247 -43.26704 17.69515 -42.783497 19.101849 -10.719213 -21.322048
13040000000 -19.552734 59.855782 -43.799065 -1.3329148 -42.826035 0.13793333 -11.021885 -22.120558
13050000000 -19.870998 63.873238 -44.360699 -17.563604 -43.402779 -20.708185 -11.356129 -22.655464
13060000000 -19.773699 63.084175 -43.184017 -31.778811 -42.796078 -37.512566 -11.752439 -23.337999
13070000000 -19.866507 63.017723 -42.108635 -58.433777 -42.14624 -62.184448 -12.184582 -23.960112
13080000000 -19.670839 63.453884 -42.09174 -84.898178 -41.9725 -85.570427 -12.529789 -25.225275
13090000000 -19.192188 61.027317 -42.682621 -110.11837 -42.170162 -110.49139 -12.838589 -26.555046
13100000000 -19.395876 57.418552 -43.071457 -128.59669 -42.575203 -132.24666 -13.12174 -27.493067
13110000000 -19.677811 58.066395 -42.786083 -146.9953 -42.552383 -150.90831 -13.414061 -27.85463
13120000000 -19.997437 58.448048 -42.445744 -172.14171 -42.576504 -174.59441 -13.825439 -27.993851
13130000000 -19.994778 61.492474 -42.676666 166.11551 -42.435982 162.53461 -14.274062 -27.797241
13140000000 -19.803198 65.318886 -42.730301 141.48911 -42.383884 137.88943 -14.679486 -28.067091
13150000000 -19.0224 65.047707 -42.821514 122.48475 -43.263481 117.27168 -15.004889 -28.765263
13160000000 -18.965326 62.527351 -42.859413 99.755882 -43.134972 100.59347 -15.328573 -28.910952
13170000000 -18.841103 59.398338 -43.116982 80.301086 -42.667595 78.154587 -15.708024 -28.27387
13180000000 -19.110743 55.542221 -42.86285 60.435429 -42.389175 56.947353 -16.25865 -26.996885
13190000000 -19.418617 53.570072 -41.922554 33.968235 -41.883503 28.986698 -16.993345 -25.113539
13200000000 -19.870453 53.339729 -42.313225 6.6258059 -42.541363 2.2390649 -17.765585 -23.723007
13210000000 -19.969429 55.857235 -43.454449 -15.438023 -43.96027 -18.344269 -18.438898 -22.908119
13220000000 -19.449789 55.738445 -43.524242 -34.099525 -44.051174 -34.941349 -18.887682 -22.147743
13230000000 -19.317499 55.287426 -43.747402 -50.970539 -43.679741 -51.976982 -19.216415 -20.498339
13240000000 -19.027876 54.049103 -43.139591 -73.4431 -43.107738 -74.775696 -19.632122 -16.440962
13250000000 -18.889547 51.393257 -42.844604 -97.623482 -43.066109 -101.69101 -20.158068 -9.0690012
13260000000 -19.189962 49.791824 -43.139187 -122.10488 -43.681767 -126.30994 -20.734364 -0.019861041
13270000000 -19.279474 49.276749 -43.408409 -146.09161 -44.121868 -145.68811 -21.169884 9.5645514
13280000000 -19.302967 47.886871 -44.510769 -166.677 -44.679344 -166.65259 -21.319849 17.64292
13290000000 -19.415258 45.466667 -44.31543 177.73239 -44.236301 177.58888 -21.153542 23.888094
13300000000 -19.651239 44.063164 -43.365677 155.7999 -43.530949 153.3591 -20.563955 29.313763
13310000000 -19.81579 40.870037 -43.580414 127.22874 -43.730034 126.59795 -19.618538 34.989815
13320000000 -20.057535 39.19487 -44.019886 102.34537 -44.131435 101.353 -18.508348 40.480247
13330000000 -20.64876 39.579529 -45.088547 83.489014 -45.60112 81.233284 -17.431068 44.984093
13340000000 -20.190971 44.097191 -45.49926 63.167973 -45.891796 63.932045 -16.475559 47.791233
13350000000 -19.754589 41.284626 -44.60675 45.712975 -45.281277 44.040787 -15.664883 48.683495
13360000000 -19.46876 39.620926 -44.799377 20.937675 -44.914387 24.777824 -14.852056 47.635414
13370000000 -19.231239 35.015079 -45.030704 -4.7201571 -45.24881 -5.0411782 -13.915909 45.577759
13380000000 -19.45862 28.56027 -45.946087 -27.708427 -46.215866 -26.295866 -12.884432 43.30331
13390000000 -20.891768 24.279959 -46.043861 -46.391476 -46.491089 -47.168499 -11.902787 41.458767
13400000000 -21.501112 27.22422 -46.819069 -68.179649 -47.227474 -64.178566 -11.015231 40.083427
13410000000 -22.453588 27.119474 -46.828293 -87.039009 -47.077099 -86.462341 -10.334649 38.4636
13420000000 -22.20035 36.302441 -47.084419 -112.39828 -47.975533 -106.59822 -9.8030567 35.97282
13430000000 -21.358381 33.349743 -48.228397 -132.79628 -48.143269 -126.34005 -9.3447094 32.432465
13440000000 -20.804382 29.067762 -48.442177 -152.55748 -48.218056 -144.63544 -8.9187679 28.146379
13450000000 -20.698807 23.134727 -49.793407 -170.35817 -48.879345 -164.71037 -8.4495211 23.543888
13460000000 -20.916464 16.853012 -49.340641 175.24954 -48.794773 175.43796 -7.9950514 19.178543
13470000000 -22.133892 11.658456 -49.984791 156.6729 -49.477619 159.16872 -7.6257124 15.126711
13480000000 -22.990191 14.3889 -50.418343 135.76738 -49.304138 140.907 -7.3538256 11.13231
13490000000 -24.176584 14.996049 -50.799431 122.80818 -49.217384 126.87692 -7.191565 7.1083379
13500000000 -23.837656 22.99696 -50.547192 111.79272 -48.557262 106.10957 -7.1009736 2.9281347
13510000000 -23.918308 23.556223 -49.48745 93.971886 -48.866917 87.427498 -7.0368314 -1.3859252
13520000000 -23.207647 21.886013 -48.841454 75.940865 -48.320255 69.237137 -7.0245056 -5.6832957
13530000000 -23.493881 14.602989 -48.145866 55.644291 -47.858395 49.006775 -7.077497 -9.9525356
13540000000 -23.80209 11.728609 -47.403076 33.702324 -46.942951 26.869373 -7.2031579 -14.131065
13550000000 -24.390268 8.0963984 -47.116394 8.9487104 -47.320999 1.3705595 -7.4012327 -18.213652
13560000000 -24.772104 5.0235305 -47.35397 -13.19865 -47.259644 -17.197554 -7.6133447 -22.226828
13570000000 -26.365217 9.7556181 -47.157158 -32.626007 -46.748215 -37.799202 -7.7763381 -26.191505
13580000000 -25.503345 11.12382 -46.700768 -53.602074 -46.656368 -62.004799 -7.9449129 -29.937437
13590000000 -26.979023 10.568175 -46.490368 -73.356117 -47.201523 -81.999962 -8.1537371 -33.449894
13600000000 -26.465185 17.094599 -46.101822 -96.685951 -46.931076 -98.774498 -8.4386139 -36.376957
13610000000 -26.711826 19.459051 -45.132175 -115.93966 -45.82933 -118.80408 -8.7746134 -38.990555
13620000000 -26.912123 16.624128 -44.980682 -146.10542 -45.553879 -148.61996 -9.1671839 -41.91785
13630000000 -27.328299 21.850103 -44.428371 -172.13524 -45.110634 -173.52115 -9.6079645 -44.959072
13640000000 -26.312037 14.207358 -45.718689 157.53378 -46.340187 156.62128 -10.076186 -48.176479
13650000000 -27.843836 8.6328773 -46.951229 137.87442 -47.453266 140.78491 -10.504624 -51.251591
13660000000 -27.765701 8.070549 -46.999428 129.97787 -47.466953 128.91183 -10.905365 -54.136116
13670000000 -29.30431 4.7445378 -46.24715 105.95171 -46.405128 107.30125 -11.318763 -56.559963
13680000000 -30.403801 10.041244 -45.70052 81.629501 -45.856903 82.101082 -11.755721 -58.702507
13690000000 -30.627005 29.953867 -46.005585 56.897995 -46.450356 56.677433 -12.255708 -60.646717
13700000000 -27.97361 35.39502 -46.089561 33.250114 -46.100121 36.088234 -12.849607 -62.761105
13710000000 -26.675659 32.248543 -46.730179 8.4575138 -46.67408 9.5165033 -13.530707 -64.642044
13720000000 -26.075436 22.841928 -47.37851 -9.3250933 -47.043404 -8.1782198 -14.1844 -66.56263
13730000000 -26.62534 16.544628 -47.710571 -30.815313 -47.296001 -29.608492 -14.877995 -68.242058
13740000000 -27.532211 4.7581849 -47.674595 -45.06834 -46.944511 -48.785957 -15.580252 -69.543457
13750000000 -31.73111 4.8401318 -47.14941 -65.388641 -47.230354 -71.102356 -16.414106 -70.672852
13760000000 -31.621983 22.277264 -46.625523 -93.990204 -46.905334 -91.72364 -17.507395 -71.700768
13770000000 -32.251995 33.284378 -47.708889 -117.29862 -47.30648 -116.88262 -18.733536 -73.077881
13780000000 -29.100636 43.583935 -48.191673 -137.38092 -47.307899 -137.08421 -19.971365 -75.70977
13790000000 -26.409821 32.500469 -47.194386 -148.71758 -47.00095 -157.66321 -21.221109 -78.605484
13800000000 -25.955294 15.25164 -46.847767 -178.38943 -47.136677 177.88954 -22.413345 -79.495094
13810000000 -26.340818 8.4287615 -47.14352 156.93304 -47.297474 154.47139 -23.872135 -76.544968
13820000000 -26.64463 -3.7176766 -48.23407 134.01775 -48.323494 130.04691 -25.689245 -69.227707
13830000000 -28.520374 -4.7604036 -48.625023 116.82628 -49.243427 114.4406 -28.286533 -56.560642
13840000000 -29.859489 -9.4086676 -48.285755 98.12748 -48.533047 99.102142 -31.3479 -29.399218
13850000000 -32.069027 17.078056 -47.713375 79.256332 -47.687027 75.273201 -31.654547 7.7026749
13860000000 -29.147476 18.14691 -47.393909 50.347679 -47.961899 52.786076 -29.464933 32.870819
13870000000 -28.353504 17.275793 -47.934956 25.627659 -47.552189 25.126833 -26.494448 44.609138
13880000000 -27.270288 9.4880724 -48.423218 4.4495549 -48.184685 2.3993654 -23.847313 48.687523
13890000000 -26.091753 -1.2249141 -48.624233 -20.090227 -48.829594 -25.504431 -21.575359 50.057011
13900000000 -26.852018 -20.42152 -49.992947 -41.360493 -50.892509 -40.832127 -19.810898 50.139633
13910000000 -28.003223 -16.742443 -49.817383 -57.282799 -50.159576 -51.888844 -18.402967 49.947727
13920000000 -27.630663 -31.406015 -49.569706 -80.060539 -49.601139 -77.29248 -17.188633 48.076427
13930000000 -31.11128 -34.629009 -49.846382 -103.05216 -49.35001 -100.43943 -16.101765 45.073219
13940000000 -31.560642 -22.574791 -49.835293 -123.59686 -49.274155 -126.23556 -15.004795 41.461361
13950000000 -31.05665 -20.227327 -49.911179 -151.0224 -50.149235 -154.98016 -13.91883 37.758171
13960000000 -31.263689 -26.396332 -51.667561 -173.67561 -52.45293 -172.86606 -12.911947 34.349766
13970000000 -30.349003 -20.342243 -52.241924 165.6964 -51.812645 166.64165 -12.03671 31.22294
13980000000 -29.179329 -36.501236 -53.133873 146.44386 -52.67812 142.4716 -11.315207 28.025801
13990000000 -28.439884 -45.438549 -53.015266 126.2168 -54.284378 126.04111 -10.713678 24.27973
14000000000 -28.255699 -59.153652 -54.364174 108.59651 -54.257118 119.98396 -10.240744 19.967743
14010000000 -27.532181 -65.838768 -54.930801 95.530014 -53.722511 98.248428 -9.850543 15.199782
14020000000 -27.491455 -81.34787 -54.194279 69.363655 -53.374527 71.834961 -9.4741936 10.253468
14030000000 -29.880169 -86.587547 -56.228687 48.432301 -55.061733 52.352192 -9.1428928 5.0871606
14040000000 -30.915051 -86.063362 -58.426895 38.707916 -57.51889 37.098785 -8.8968029 -0.17937516
14050000000 -31.897568 -79.416206 -56.033592 30.276747 -55.392712 30.338301 -8.7092161 -5.2588015
14060000000 -33.253639 -71.881454 -56.179337 -1.343832 -56.618355 3.4425197 -8.587429 -10.356872
14070000000 -30.797585 -60.114914 -58.016018 -16.815403 -57.367943 -13.375596 -8.5324192 -15.65977
14080000000 -29.333075 -80.326256 -58.310993 -14.579773 -57.85487 -13.81096 -8.5265074 -20.832104
14090000000 -29.112429 -86.364349 -56.104 -28.013412 -56.153843 -21.768461 -8.5526094 -25.88031
14100000000 -27.516159 -107.79232 -54.740993 -52.272438 -53.210136 -48.281742 -8.6343212 -30.6437
14110000000 -27.798016 -122.08308 -54.832905 -72.497566 -53.450417 -80.371208 -8.7566471 -35.003082
14120000000 -28.085175 -137.60718 -56.926067 -96.422417 -55.742298 -102.6746 -8.9610014 -39.346107
14130000000 -29.679949 -143.81648 -53.931614 -94.191017 -53.896107 -99.341202 -9.2432032 -43.784939
14140000000 -30.767454 -143.3217 -52.875294 -123.56831 -52.114403 -125.11118 -9.5663023 -48.407688
14150000000 -31.937649 -130.51462 -51.798405 -153.26247 -50.989056 -156.40305 -9.8784208 -53.183296
14160000000 -30.164171 -125.53546 -52.682213 -177.48825 -52.916122 177.6767 -10.178355 -57.590858
14170000000 -29.290726 -122.17979 -53.383698 170.30908 -52.474293 168.41701 -10.460293 -61.458221
14180000000 -27.502172 -131.35999 -51.412422 157.01144 -51.662365 151.33788 -10.850732 -65.152245
14190000000 -26.730217 -144.41631 -49.546673 127.02493 -49.482243 123.93557 -11.362916 -68.694862
14200000000 -26.855938 -156.14537 -49.932022 95.733871 -49.526348 91.923073 -11.935707 -72.683479
14210000000 -27.419477 -165.36972 -50.626884 74.654121 -51.137024 68.489471 -12.518398 -77.437401
14220000000 -27.917831 -169.83676 -50.639511 53.775219 -50.961414 52.012901 -13.051438 -82.468575
14230000000 -28.711731 -173.00746 -50.544151 35.825275 -50.594807 36.712341 -13.563024 -87.261147
14240000000 -29.398054 -166.84712 -50.036346 16.635231 -49.459484 9.7172203 -14.093185 -91.615135
14250000000 -28.507322 -161.43695 -49.192425 -7.0464921 -49.371433 -14.34646 -14.724428 -96.267303
14260000000 -28.227139 -161.70848 -49.283165 -34.564125 -49.637913 -41.886993 -15.469868 -101.50415
14270000000 -27.411598 -159.65103 -49.062428 -59.588081 -50.05603 -62.020824 -16.237226 -107.35909
14280000000 -26.615328 -169.95399 -50.049049 -82.567177 -50.443752 -82.864471 -16.94438 -113.62141
14290000000 -27.070589 -173.75922 -50.089401 -101.55981 -50.184116 -107.87211 -17.633665 -119.64385
14300000000 -27.278111 -179.19814 -48.966736 -120.24632 -49.622456 -124.86856 -18.372206 -125.06828
14310000000 -27.206297 177.30074 -49.183247 -152.98148 -50.036865 -156.01503 -19.35664 -131.6815
14320000000 -28.139339 167.35771 -49.569393 -173.80598 -50.872776 -175.04303 -20.579763 -140.42848
14330000000 -28.382317 174.48268 -50.752094 163.95483 -51.588043 165.65182 -21.808598 -152.87231
14340000000 -28.935797 171.33176 -50.998333 148.27792 -51.434586 146.30699 -22.582397 -168.64662
14350000000 -28.569016 -178.98305 -50.010975 128.18837 -50.65834 129.77573 -22.673586 175.25687
14360000000 -28.517107 -178.33032 -48.968521 99.657829 -50.103745 95.622452 -22.272396 160.59499
14370000000 -27.155483 -174.95988 -50.216713 68.994011 -50.951088 74.628242 -21.766735 148.10599
14380000000 -26.728561 175.50449 -50.713108 44.052391 -50.807178 49.316822 -21.33173 136.72685
14390000000 -26.755932 172.92053 -53.234474 23.96402 -53.355923 29.863861 -20.822372 125.95766
14400000000 -27.303831 166.09378 -53.973984 21.384777 -53.42054 23.493425 -20.093954 114.7666
14410000000 -27.864904 160.41447 -51.290932 -3.1725957 -52.126755 0.74553412 -19.185392 104.59324
14420000000 -30.126945 159.0625 -51.329136 -32.291588 -52.044914 -20.403402 -18.203804 95.659233
14430000000 -30.101412 173.44673 -51.553532 -57.849304 -51.295982 -41.856613 -17.204157 88.709793
14440000000 -29.313175 -179.34497 -52.739681 -84.335533 -51.21793 -71.822617 -16.346821 82.413368
14450000000 -27.199125 -175.54877 -52.891434 -99.468269 -51.129139 -93.430634 -15.59976 76.919579
14460000000 -26.487171 179.45882 -53.276306 -126.48649 -51.588142 -123.2758 -14.90583 71.416779
14470000000 -25.463335 172.55101 -53.671009 -149.33032 -52.190895 -147.8553 -14.261287 66.14061
14480000000 -26.299633 167.16464 -54.621262 -164.38785 -53.27705 -159.56377 -13.662452 61.482967
14490000000 -27.184937 163.42343 -53.842319 173.15195 -51.932156 174.0248 -13.167092 56.99831
14500000000 -28.683693 172.16571 -53.586689 142.67789 -52.279617 144.98309 -12.766817 52.370789
14510000000 -28.526039 176.83015 -55.316917 110.24302 -53.540825 117.10204 -12.458125 47.112671
14520000000 -28.211182 -167.61119 -57.182793 86.3862 -54.843372 96.719513 -12.151496 41.361847
14530000000 -25.881344 -174.61334 -59.346272 75.322235 -55.099678 71.751732 -11.774694 35.48439
14540000000 -25.31983 -177.48129 -58.458698 69.862 -54.625317 54.303104 -11.384634 30.389296
14550000000 -24.715248 172.77432 -56.050652 40.35421 -54.869385 18.208584 -11.044549 25.79838
14560000000 -25.193901 172.36101 -55.629128 -12.241817 -55.42271 -19.880457 -10.849376 21.773733
14570000000 -24.918406 166.39569 -61.363647 -66.402344 -59.216709 -61.350933 -10.758758 17.483515
14580000000 -26.109377 170.15872 -67.884857 -71.574585 -62.203945 -87.150925 -10.776406 12.623674
14590000000 -25.861219 176.2473 -70.286446 -35.504047 -65.680511 -96.762077 -10.819301 7.5395293
14600000000 -24.563297 -177.26334 -64.157082 -75.787476 -63.517616 -129.22339 -10.906089 2.3595569
14610000000 -24.170937 176.61789 -64.864281 -142.8602 -64.612091 -159.54259 -11.050461 -2.2922676
14620000000 -23.634853 -178.12056 -63.738323 152.38503 -57.976505 146.0575 -11.247131 -6.7775073
14630000000 -22.563383 173.8701 -61.305069 63.480358 -57.168953 76.313667 -11.484355 -11.713727
14640000000 -22.934416 169.31882 -59.953415 23.823807 -57.110935 32.938705 -11.791385 -17.031801
14650000000 -22.840099 168.56506 -59.330841 -25.910772 -56.855465 -5.0917001 -12.104194 -22.031807
14660000000 -22.366787 165.34702 -60.459023 -40.577484 -56.708324 -24.14624 -12.395242 -26.236212
14670000000 -23.146254 161.59082 -58.200066 -59.320133 -55.014805 -53.816673 -12.72011 -29.328518
14680000000 -22.85907 166.06201 -57.578655 -89.366425 -55.291542 -88.126488 -13.13899 -31.842152
14690000000 -22.650299 166.31673 -57.70108 -87.991737 -55.466316 -88.279938 -13.737639 -34.509254
14700000000 -22.101324 167.33258 -53.8116 -111.56825 -51.720562 -111.93439 -14.535097 -37.221592
14710000000 -21.753374 168.1235 -51.079094 -143.21457 -49.143517 -143.49942 -15.46525 -40.01123
14720000000 -20.782963 165.0623 -50.368332 -173.84648 -48.862564 -179.92223 -16.391832 -43.200409
14730000000 -20.750435 158.55029 -49.310375 158.57306 -48.631886 153.25058 -17.426533 -46.69817
14740000000 -20.783827 153.98706 -49.78027 133.12143 -49.14576 121.86802 -18.435741 -49.786007
14750000000 -21.198378 151.05244 -49.055454 110.22937 -49.235077 107.86722 -19.404058 -52.169598
14760000000 -21.331415 148.78218 -49.312183 91.844116 -48.97768 87.25753 -20.282335 -52.80611
14770000000 -21.995562 150.14958 -47.634987 69.780983 -47.311104 63.153282 -21.213589 -51.899723
14780000000 -21.09687 152.85184 -47.295574 43.248718 -47.044434 38.2855 -22.404949 -47.493019
14790000000 -20.728783 151.21574 -46.118912 21.392471 -45.888519 15.205847 -23.666187 -40.793137
14800000000 -20.092815 150.17145 -44.991707 -7.2470417 -45.234146 -14.608293 -25.087139 -31.471033
14810000000 -19.676926 146.50206 -45.219452 -35.293407 -45.687832 -41.004757 -26.336441 -18.911383
14820000000 -19.605255 140.7709 -45.088737 -61.105995 -45.753448 -64.017754 -26.767914 -4.9621716
14830000000 -20.315783 137.84747 -45.268547 -86.723785 -45.680595 -87.454376 -26.441542 7.7008166
14840000000 -20.626453 136.06465 -45.167961 -106.99321 -45.192146 -108.76685 -25.500599 18.161366
14850000000 -21.353794 137.68883 -45.435459 -132.95775 -45.694759 -135.92149 -24.491037 25.266163
14860000000 -21.061222 138.42462 -44.802799 -152.45874 -45.305588 -154.77722 -23.702637 30.809721
14870000000 -21.113302 138.03954 -44.564487 -176.6615 -44.865639 -176.0607 -23.002436 33.273285
14880000000 -20.655485 135.12619 -44.466934 158.86986 -44.441528 161.4852 -22.293081 31.60417
14890000000 -20.345137 132.32179 -43.841232 137.40903 -43.645878 136.38721 -21.378422 27.926428
14900000000 -20.15826 126.19693 -43.594715 108.43434 -43.431328 107.83896 -20.238188 24.34
14910000000 -20.546999 124.59454 -44.017555 83.35881 -44.097206 83.871071 -19.154875 23.309084
14920000000 -20.632013 120.38461 -44.449364 58.553913 -44.56839 60.00581 -18.255146 24.101242
14930000000 -21.300592 123.06452 -45.377754 37.758652 -44.717163 40.865143 -17.713898 24.825432
14940000000 -21.091194 121.82925 -44.880047 23.605515 -44.177299 24.615513 -17.539755 24.148163
14950000000 -21.404472 123.90636 -44.209633 0.19313201 -43.273739 -2.0334842 -17.58573 21.990221
14960000000 -21.444019 121.30741 -43.31699 -25.705927 -42.597706 -30.818329 -17.56428 18.990278
14970000000 -21.674515 123.57035 -44.127949 -50.007614 -43.622417 -55.68549 -17.441957 15.740556
14980000000 -21.743176 118.81719 -43.333931 -71.830315 -43.142986 -77.232498 -17.307596 13.163697
14990000000 -22.086012 118.76443 -43.731491 -100.59615 -43.409348 -104.29874 -17.272438 10.558437
15000000000 -22.435453 114.44094 -44.57703 -120.67066 -43.894035 -127.39738 -17.450195 7.2944508
15010000000 -22.682034 117.12289 -44.174355 -139.48706 -44.083519 -148.35837 -17.596447 3.5931273
15020000000 -22.815531 111.10535 -44.118237 -162.79329 -44.026337 -168.85074 -17.465687 -0.43337023
15030000000 -23.266226 114.75179 -43.9618 175.98784 -43.844818 169.30078 -17.262096 -2.9729977
15040000000 -23.340218 111.91772 -43.124619 151.63882 -43.330383 145.39359 -17.072336 -2.8438668
15050000000 -23.633574 115.79915 -43.730286 126.15646 -43.544834 118.70718 -17.104958 -1.5781583
15060000000 -23.851986 117.4369 -43.579628 104.88643 -43.969307 96.827484 -17.524046 -0.71493965
15070000000 -23.280577 119.98189 -43.646164 80.430382 -44.127552 72.798889 -18.17663 -0.83081383
15080000000 -23.621401 116.43826 -43.364479 56.260639 -44.518559 52.160393 -18.906347 -2.9789689
15090000000 -23.836342 117.66948 -43.498631 30.754717 -43.872005 29.103703 -19.46258 -5.8712354
15100000000 -24.375044 117.0033 -44.008606 7.0951757 -44.286037 4.5635734 -19.723843 -7.9629998
15110000000 -24.868643 117.15486 -44.104614 -17.1385 -44.477512 -19.425406 -19.808083 -9.2138433
15120000000 -25.779882 123.11446 -44.294762 -37.670269 -44.875801 -40.908123 -19.999372 -8.8750896
15130000000 -24.562111 125.74651 -44.412613 -61.785954 -45.017925 -64.333023 -20.093464 -8.366827
15140000000 -24.617167 124.41414 -44.240265 -85.396019 -44.966419 -86.679871 -20.152679 -8.163332
15150000000 -24.180986 124.80054 -44.829491 -110.69548 -45.326778 -109.88445 -20.106314 -7.3356624
15160000000 -23.956224 123.66705 -45.092823 -129.80887 -45.364517 -131.9677 -20.073416 -5.499795
15170000000 -23.816536 121.13052 -44.523411 -153.24338 -45.364162 -153.71996 -20.075453 -2.6331244
15180000000 -24.491919 123.46814 -44.800541 174.83963 -45.481071 176.71489 -20.22344 -0.031545538
15190000000 -23.845078 126.70863 -46.514103 151.46909 -46.829296 154.11104 -20.522724 0.71451378
15200000000 -23.951641 126.76981 -47.290836 132.83014 -47.257706 136.94061 -20.947449 -0.39564946
15210000000 -23.485147 127.36961 -47.291069 120.48904 -47.234776 118.09534 -21.315123 -3.1455078
15220000000 -23.672653 127.34642 -45.721203 96.896805 -46.549805 95.717484 -21.493423 -6.3025742
15230000000 -23.144033 125.13128 -45.929878 62.641251 -46.764248 66.4907 -21.344639 -9.1103096
15240000000 -23.905041 125.24224 -47.41515 34.378872 -47.569962 40.769634 -21.160624 -12.715394
15250000000 -23.384005 126.11177 -48.685982 14.717123 -48.524788 19.000025 -21.082071 -15.898073
15260000000 -23.291937 126.5538 -49.763149 -3.2581031 -49.141396 -1.9418362 -21.082949 -17.659718
15270000000 -22.528744 124.60508 -50.0443 -24.709436 -49.594513 -17.281235 -21.120277 -18.472572
15280000000 -22.31362 119.90527 -49.663818 -44.609436 -49.669827 -42.68018 -21.378471 -18.428762
15290000000 -22.288635 115.16295 -51.004448 -69.065323 -50.777111 -64.021942 -22.038078 -19.52458
15300000000 -22.786133 111.48699 -51.44915 -85.129585 -50.520542 -79.078186 -23.233597 -22.278799
15310000000 -23.677792 112.98111 -51.338528 -112.86123 -50.346428 -103.15218 -24.802866 -28.638889
15320000000 -23.584833 116.60954 -52.956188 -133.32236 -50.806458 -125.44517 -26.453072 -37.840828
15330000000 -23.527519 120.34801 -53.851036 -158.93694 -51.928127 -157.63664 -27.406549 -48.886639
15340000000 -22.641256 119.7103 -56.432983 179.0984 -53.796837 -174.09256 -28.174934 -60.307045
15350000000 -22.061703 117.64027 -59.046425 169.20459 -55.483429 171.87852 -29.308287 -73.029655
15360000000 -21.676136 107.56622 -60.233818 -171.97234 -55.124763 170.04602 -31.202347 -90.832062
15370000000 -22.805664 101.83361 -57.144138 176.46712 -54.839737 151.13019 -32.708229 -114.12158
15380000000 -23.096313 96.831078 -56.167919 141.36177 -54.230141 127.05222 -33.103622 -137.67542
15390000000 -24.913975 96.52784 -56.511826 140.2849 -53.981293 112.68052 -33.070438 -159.41623
15400000000 -25.431412 101.15118 -54.741611 116.69828 -53.734104 85.225304 -31.807314 174.35985
15410000000 -25.031578 109.71363 -55.663193 94.246361 -55.143467 63.588112 -29.161983 149.97415
15420000000 -24.1306 106.07187 -54.196621 84.890091 -55.302364 53.487286 -25.959677 138.94926
15430000000 -23.745239 102.09884 -53.735035 66.052124 -57.044647 34.154419 -23.31214 134.23332
15440000000 -23.71154 95.109741 -51.892487 48.722767 -56.184624 34.563183 -21.619217 132.64481
15450000000 -24.432243 87.748032 -51.372952 25.457277 -53.216747 22.447609 -20.719423 131.1769
15460000000 -25.791052 82.007599 -50.104942 -1.2191725 -51.129898 -8.9806509 -20.295961 128.62828
15470000000 -27.379368 86.555801 -49.326077 -27.84129 -50.537548 -42.808811 -19.922007 124.34315
15480000000 -27.585752 86.884529 -48.725307 -60.285053 -50.817921 -75.409332 -19.278839 118.77551
15490000000 -28.239227 90.534073 -51.056908 -90.452873 -54.11795 -104.92792 -18.405237 113.20298
15500000000 -28.149368 88.235451 -51.568024 -105.85093 -54.939774 -105.15323 -17.55916 108.41212
15510000000 -28.116873 86.513542 -51.674541 -120.27377 -53.605934 -115.08025 -16.784393 104.24419
15520000000 -29.245434 77.039047 -50.945667 -139.81801 -52.927185 -143.67436 -16.153463 100.84753
15530000000 -30.580526 78.934113 -50.542904 -165.65761 -52.785484 -164.46188 -15.51718 97.980919
15540000000 -32.100231 78.791756 -50.620872 176.66034 -52.792606 -178.50961 -14.940876 95.600403
15550000000 -31.93058 87.332497 -49.572289 150.09138 -51.875271 161.37581 -14.387357 93.546951
15560000000 -33.325634 72.469124 -49.900646 125.06612 -50.912189 135.62114 -14.010245 91.46315
15570000000 -34.751434 85.636322 -49.95787 96.318047 -50.830502 103.36575 -13.734471 89.576698
15580000000 -35.565685 57.994503 -51.413242 73.921722 -52.946663 84.684258 -13.52079 87.189835
15590000000 -42.250458 48.331127 -52.317989 55.072186 -52.330673 69.955635 -13.288479 84.035759
15600000000 -49.234657 -66.588463 -52.322041 41.457012 -52.171871 51.141521 -13.071609 80.2155
15610000000 -41.358181 -166.80884 -51.337833 26.540022 -51.052715 35.447697 -12.810284 76.095154
15620000000 -40.647633 -157.6088 -50.78603 -0.16044717 -50.281815 8.8132935 -12.488211 72.175262
15630000000 -36.552952 171.69606 -51.349182 -24.980679 -50.355091 -18.254358 -12.124168 68.762047
15640000000 -43.549339 153.70482 -51.756237 -43.313828 -51.285099 -38.728359 -11.728183 66.237099
15650000000 -47.638115 -166.73616 -51.313797 -62.154812 -50.03968 -58.50964 -11.336987 64.263779
15660000000 -38.072647 -91.544456 -50.275448 -85.020096 -49.62579 -83.23111 -11.059206 62.028549
15670000000 -33.266582 -118.53707 -51.586571 -111.13078 -49.651237 -113.98655 -10.934216 59.566437
15680000000 -29.96804 -118.44109 -50.827465 -132.78174 -50.24855 -138.27098 -10.902465 56.331375
15690000000 -27.629915 -140.87144 -51.393887 -155.04446 -50.986069 -156.49014 -10.860039 52.643787
15700000000 -27.539724 -152.0116 -51.452587 -170.32056 -51.33448 -174.99672 -10.773171 48.625484
15710000000 -28.825201 -161.5114 -50.000996 164.11617 -50.463306 165.19563 -10.632814 45.001335
15720000000 -29.357656 -154.98019 -50.305378 135.84354 -50.135914 139.71169 -10.456016 41.264282
15730000000 -30.524752 -145.65532 -50.443043 113.58112 -49.236614 115.06556 -10.352439 37.01844
15740000000 -27.945681 -132.02144 -50.390587 88.858185 -49.814808 79.182343 -10.249067 32.481243
15750000000 -26.431465 -134.1745 -51.490612 64.465714 -52.379044 62.407501 -10.114771 27.93947
15760000000 -24.605997 -141.00478 -51.741459 41.986282 -51.649845 48.58992 -9.9192467 23.832817
15770000000 -24.609188 -149.00891 -52.134602 18.394499 -51.086784 19.916418 -9.7977896 20.508434
15780000000 -24.213039 -153.59631 -52.383305 1.3760993 -51.411736 -3.0439966 -9.8238096 17.607023
15790000000 -25.046667 -158.017 -52.402344 -27.835182 -52.457096 -26.31522 -10.044674 14.192826
15800000000 -24.828966 -152.74675 -53.228214 -58.140675 -51.991859 -53.271332 -10.381031 9.453023
15810000000 -24.483561 -150.18181 -55.451881 -86.964432 -52.846954 -80.372658 -10.713517 3.0723727
15820000000 -23.212091 -148.92494 -56.955742 -89.044151 -53.273937 -95.367416 -10.961513 -4.2107272
15830000000 -22.726534 -152.31078 -55.44799 -109.43221 -53.253738 -122.60055 -11.087344 -11.334059
15840000000 -22.395441 -153.47707 -56.834641 -144.19536 -54.307552 -150.99788 -11.20587 -17.436934
15850000000 -22.592741 -157.11693 -59.248569 -169.20938 -55.931725 -179.02873 -11.358894 -23.013283
15860000000 -22.692455 -154.00114 -62.475285 -156.07072 -59.379498 167.23189 -11.634788 -28.522144
15870000000 -22.578241 -152.89275 -63.189938 -140.42841 -63.328133 164.21953 -12.016949 -33.959724
15880000000 -21.970551 -149.33847 -57.219036 -167.89435 -61.266254 163.86121 -12.514025 -39.406334
15890000000 -21.303732 -153.25389 -58.251171 163.737 -59.398319 137.97517 -13.103956 -44.561619
15900000000 -20.952816 -155.59868 -56.262966 146.46332 -60.300579 109.81768 -13.819272 -50.381023
15910000000 -20.822573 -159.7429 -56.09222 113.76267 -63.716717 104.72684 -14.670738 -57.738091
15920000000 -20.965635 -161.66727 -58.218628 95.039116 -64.513397 91.252861 -15.580849 -66.888542
15930000000 -21.475271 -160.37958 -57.305828 76.183472 -64.736954 78.76609 -16.422018 -77.591347
15940000000 -21.064489 -154.20149 -59.05814 65.08387 -63.751053 106.09962 -16.967669 -88.884727
15950000000 -20.321552 -152.48296 -56.317543 58.763145 -57.092934 85.555962 -17.281998 -99.749657
15960000000 -19.567589 -152.05988 -53.499382 30.048164 -54.102116 49.79731 -17.481033 -109.62579
15970000000 -18.909531 -153.46165 -54.427887 -4.5422497 -55.084454 7.8615546 -17.765341 -118.32602
15980000000 -18.640846 -158.05937 -54.709042 -28.870995 -55.224232 -12.723595 -18.18959 -126.57476
15990000000 -18.999359 -159.63251 -55.522335 -46.281239 -54.961639 -29.57229 -18.817348 -136.12105
16000000000 -19.375261 -159.11993 -55.208881 -70.619453 -54.396893 -55.358204 -19.518738 -147.71616
16010000000 -19.298893 -155.78079 -56.227783 -86.929054 -54.075069 -70.73378 -19.777822 -162.00757
16020000000 -19.065613 -153.79007 -55.039955 -101.46381 -52.312553 -93.831192 -19.397394 -176.0937
16030000000 -18.150606 -151.02608 -54.288635 -119.16331 -52.251064 -119.82397 -18.580042 172.54576
16040000000 -17.378685 -154.42551 -53.5788 -140.11307 -51.733784 -146.16766 -17.858917 164.37444
16050000000 -17.001612 -157.47363 -52.373508 -172.25201 -51.277306 -171.23189 -17.349653 158.15511
16060000000 -16.880547 -159.26399 -53.23587 170.93483 -51.066685 163.80878 -17.003654 152.23802
16070000000 -16.819513 -160.01318 -52.075474 149.34154 -50.616741 135.75108 -16.654764 146.26425
16080000000 -16.82007 -158.84579 -51.45565 119.119 -51.285168 108.14996 -16.316786 140.36475
16090000000 -16.484921 -156.68742 -52.2122 93.141724 -51.361084 88.484795 -16.039515 135.10313
16100000000 -16.0212 -156.24066 -52.648609 75.970947 -50.879787 64.216446 -15.86109 129.6227
16110000000 -15.616994 -157.13141 -51.765282 53.939907 -50.992607 40.769135 -15.715109 123.34076
16120000000 -15.252512 -158.29492 -50.96888 27.222321 -50.581081 12.797193 -15.429456 116.42025
16130000000 -15.015662 -160.25784 -51.317886 2.5892651 -51.50518 -13.863495 -14.941312 109.91915
16140000000 -14.923157 -160.66302 -50.97253 -25.76981 -51.649624 -34.751785 -14.298918 105.31438
16150000000 -14.658227 -161.68115 -51.318249 -50.451172 -50.968361 -57.367245 -13.753556 102.09071
16160000000 -14.253247 -161.21849 -51.782909 -73.771034 -51.164371 -87.238708 -13.442194 99.906052
16170000000 -13.807805 -163.15509 -51.868839 -100.64989 -52.426788 -109.80995 -13.379614 97.296959
16180000000 -13.506559 -163.84447 -52.743561 -125.92153 -52.463985 -137.71147 -13.425217 93.808388
16190000000 -13.234566 -166.07443 -52.412308 -147.23409 -53.347126 -161.05003 -13.477298 89.113396
16200000000 -13.206235 -165.88466 -53.196728 -166.15959 -55.221039 -176.59637 -13.428293 84.067825
16210000000 -12.961532 -166.50572 -52.700279 169.32292 -53.955616 165.576 -13.324149 79.206993
16220000000 -12.828981 -164.9855 -52.591194 145.62312 -53.445301 142.17636 -13.233193 74.461708
16230000000 -12.31078 -166.45758 -52.890678 117.74581 -54.291584 111.19572 -13.113193 69.445602
16240000000 -12.106053 -166.81334 -52.393269 91.893456 -55.416878 85.056328 -12.972415 64.485344
16250000000 -11.671209 -169.78033 -53.245319 56.51046 -55.456928 55.843147 -12.703363 60.124722
16260000000 -11.5642 -171.93192 -55.100914 38.51041 -57.131279 35.227432 -12.475504 56.599041
16270000000 -11.441138 -174.60237 -55.595032 18.133652 -59.638657 22.557491 -12.391367 53.639271
16280000000 -11.480343 -175.15193 -55.330921 -3.3658097 -58.624706 9.7578964 -12.531275 50.439442
16290000000 -11.224253 -175.54022 -54.326195 -27.935228 -57.155277 -10.059961 -12.877333 46.182529
16300000000 -11.043089 -175.33749 -54.904156 -61.230705 -55.821789 -45.76918 -13.272367 40.51009
16310000000 -10.609382 -175.76212 -55.98172 -97.958488 -57.571011 -83.080521 -13.563236 33.37368
16320000000 -10.302254 -176.41629 -58.014519 -108.09937 -60.518501 -94.631577 -13.786737 25.894085
16330000000 -9.9137688 -178.41014 -57.378616 -148.14706 -61.370625 -120.8306 -13.976044 19.028013
16340000000 -9.8499022 179.9053 -58.703308 -166.62704 -60.500011 -135.86986 -14.185883 12.18996
16350000000 -9.6974201 178.10378 -56.94598 162.09883 -59.144955 -166.00777 -14.390944 5.6851535
16360000000 -9.7282543 176.66855 -57.229279 118.1407 -60.190983 152.16208 -14.589815 -0.76579738
16370000000 -9.6843004 175.61108 -57.318901 90.27858 -58.981266 120.84217 -14.914778 -6.6422882
16380000000 -9.5607557 175.25429 -57.439373 33.628532 -59.979961 61.585918 -15.501933 -12.154359
16390000000 -9.3359213 173.97116 -61.063671 -0.40732488 -63.19062 15.406323 -16.375643 -19.005077
16400000000 -9.163188 173.45438 -64.237823 -43.172367 -70.932091 -47.67849 -17.386196 -28.868635
16410000000 -8.834651 172.49728 -65.503494 -60.244484 -72.701637 29.816467 -18.16971 -41.822781
16420000000 -8.541441 171.14821 -63.359665 -90.030373 -67.278824 -33.463177 -18.522814 -55.685425
16430000000 -8.315486 169.19586 -61.166161 -80.036415 -60.346844 -59.804077 -18.733335 -67.950928
16440000000 -8.2196321 168.15048 -56.705173 -143.32178 -58.71574 -131.53328 -18.908073 -78.469322
16450000000 -8.111783 166.33432 -57.114239 178.46298 -59.319439 -178.60715 -19.108866 -89.73455
16460000000 -8.168087 165.71225 -56.340954 136.96451 -61.127563 141.43376 -19.146954 -101.3905
16470000000 -8.1537123 165.19502 -57.29052 114.59451 -59.228634 132.68971 -19.036953 -112.43469
16480000000 -8.030549 165.38564 -56.067936 86.766968 -57.901726 102.52695 -19.012203 -122.44648
16490000000 -7.8231592 164.47058 -53.094627 54.034592 -54.655495 64.392021 -19.130051 -132.6873
16500000000 -7.5607905 164.08339 -53.650833 7.9412551 -53.599369 13.300269 -19.184671 -144.91689
16510000000 -7.2298064 161.75543 -56.126293 -29.736444 -57.737499 -27.983908 -18.673365 -157.85252
16520000000 -7.0740819 159.76273 -59.099491 -27.110209 -60.37273 -23.558283 -17.7129 -168.23752
16530000000 -6.9886241 157.54726 -55.126446 -44.053688 -57.005199 -38.777874 -16.777491 -174.49605
16540000000 -7.0222826 156.77959 -53.701492 -71.628624 -55.66288 -65.67952 -16.144478 -178.38518
16550000000 -6.9892654 156.02734 -51.870884 -110.95887 -53.528809 -98.674187 -15.852879 177.81691
16560000000 -6.923378 156.94208 -51.946999 -146.35973 -52.520508 -138.23044 -15.702006 172.89822
16570000000 -6.6552987 156.64357 -52.117096 177.83372 -53.358471 178.16168 -15.51651 167.13199
16580000000 -6.4070549 156.2112 -54.066559 146.54762 -55.401447 149.3754 -15.194564 161.27365
16590000000 -6.1322041 154.44815 -55.302174 125.70339 -56.608948 135.69173 -14.865402 155.89555
16600000000 -5.9991069 152.48865 -55.579639 102.12428 -55.906376 111.01139 -14.58748 151.12051
16610000000 -5.9447494 150.33492 -55.602058 87.160965 -56.666332 93.889099 -14.363832 146.34276
16620000000 -5.9563284 149.25658 -54.285397 67.77919 -55.501686 80.423828 -14.044093 141.73236
16630000000 -5.8680849 148.43221 -52.94408 34.113113 -52.616867 48.016102 -13.540417 137.68483
16640000000 -5.7374635 148.16112 -53.001404 -1.4014332 -52.959068 8.9520988 -13.056046 134.40154
16650000000 -5.4796562 147.6174 -53.365082 -32.44521 -53.383381 -24.701015 -12.719897 132.06764
16660000000 -5.2201176 146.64874 -54.929844 -62.288609 -54.859947 -51.915428 -12.595089 130.09024
16670000000 -5.0072246 145.29352 -55.724876 -78.71067 -54.620884 -75.304626 -12.66226 127.51171
16680000000 -4.8601713 143.90276 -55.131752 -111.22649 -54.408428 -103.53733 -12.795524 123.83216
16690000000 -4.7532568 142.73076 -56.253155 -145.07199 -56.18111 -139.04306 -12.841566 119.35252
16700000000 -4.6773996 141.57748 -57.741192 -162.34776 -57.665131 -149.32762 -12.727952 114.60612
16710000000 -4.5521564 140.78578 -57.328487 -178.36649 -55.626919 -164.3244 -12.482156 110.16945
16720000000 -4.3987384 139.64684 -56.65044 152.87645 -54.103432 163.58376 -12.219176 106.34876
16730000000 -4.2176847 138.19713 -55.508522 125.23538 -53.84285 125.14736 -12.013292 102.99414
16740000000 -4.0925999 136.81776 -55.731945 89.117943 -54.889221 94.632095 -11.877934 99.970314
16750000000 -3.9349811 135.40147 -56.153587 62.524891 -55.421047 69.496773 -11.817629 97.358131
16760000000 -3.802036 134.15363 -56.36248 26.144979 -55.77116 33.002216 -11.807817 94.961983
16770000000 -3.6453557 132.94843 -57.423893 2.1150076 -56.59914 7.549509 -11.882643 92.215469
16780000000 -3.4938679 131.86369 -58.369419 -29.831022 -57.726418 -20.120377 -12.046945 88.933159
16790000000 -3.322036 130.62332 -58.968067 -44.968216 -57.748447 -42.659351 -12.310241 84.938095
16800000000 -3.1807628 129.14816 -59.405411 -71.763573 -58.443497 -74.133682 -12.5912 80.090065
16810000000 -3.0692055 127.59679 -58.338818 -93.132751 -56.882313 -90.380386 -12.814306 74.43557
16820000000 -2.9940765 126.0718 -57.751579 -126.52461 -55.491268 -125.24689 -12.981728 68.324005
16830000000 -2.9018288 124.62405 -57.176006 -153.20995 -55.559071 -157.85782 -13.07365 62.344849
16840000000 -2.7932706 123.29802 -56.381241 172.11595 -55.249737 168.60573 -13.087125 57.074574
16850000000 -2.6617098 121.86435 -56.573975 135.10414 -55.235226 136.35088 -13.125148 52.695614
16860000000 -2.5047762 120.50507 -57.317791 102.45123 -56.27066 105.01481 -13.277534 48.984135
16870000000 -2.3464401 118.79381 -57.792652 68.870316 -56.793125 72.564453 -13.679806 45.618519
16880000000 -2.2303507 117.26876 -60.734264 44.195568 -57.795799 47.764175 -14.338646 41.939362
16890000000 -2.1153107 115.68713 -60.034058 24.765066 -57.663776 25.388546 -15.214211 36.158081
16900000000 -2.0407 114.32329 -58.638474 10.999052 -57.347851 5.5202446 -16.209265 28.013548
16910000000 -1.9674995 112.95206 -57.453068 -26.939404 -55.755211 -24.49066 -17.165785 17.633959
16920000000 -1.8956891 111.81486 -57.14957 -60.651623 -56.147224 -61.272438 -17.891438 6.0601525
16930000000 -1.7865378 110.36366 -57.306564 -88.025085 -56.608776 -93.552567 -18.457983 -5.8593965
16940000000 -1.6979319 108.79965 -58.584377 -123.88078 -57.429684 -126.85777 -19.044764 -16.993793
16950000000 -1.5906121 107.10005 -58.955566 -141.00624 -58.369404 -150.06406 -19.698111 -28.046803
16960000000 -1.5031474 105.29912 -59.849621 -178.16307 -58.576149 179.92097 -20.516697 -39.45681
16970000000 -1.4219346 103.53384 -60.728149 155.19696 -59.612537 149.16718 -21.449957 -53.041035
16980000000 -1.3544356 101.95065 -61.3992 131.74362 -60.738678 131.07646 -22.389275 -70.236008
16990000000 -1.2652478 100.41503 -61.954536 117.7741 -60.627502 109.28195 -22.70459 -91.473778
17000000000 -1.1896 98.993759 -61.126495 88.062317 -59.663013 74.921677 -22.000439 -113.14572
