!Keysight Technologies,P9374A,MY57211807,A.19.30.04
!Date: Friday, May 08, 2026 15:20:17
!Correction: S11(C  2-Port  ) 
!S21(C  2-Port  ) 
!S12(C  2-Port  ) 
!S22(C  2-Port  ) 
!S2P File: Measurements: S11, S21, S12, S22:
# Hz S  dB   R 50
13000000000 -18.916822 56.40723 -44.770309 113.88636 -44.720097 110.86176 -8.3132648 -52.428352
13010000000 -19.259315 58.39949 -43.964382 89.225029 -43.812428 87.131248 -8.4981403 -56.735104
13020000000 -19.433205 59.87579 -43.980217 65.559982 -43.751377 61.989922 -8.698966 -60.956463
13030000000 -19.528059 62.071785 -43.788189 44.476223 -43.569706 40.883873 -8.8920555 -65.031891
13040000000 -19.762857 63.007889 -43.586304 21.459557 -43.461761 16.457397 -9.1090479 -69.157722
13050000000 -19.482973 64.620827 -43.380054 0.53506106 -43.742184 -4.3866229 -9.3694916 -73.603653
13060000000 -19.617153 62.71703 -43.255383 -22.483187 -43.600338 -25.02446 -9.6699762 -78.528656
13070000000 -19.621393 62.04203 -43.072735 -45.41687 -43.345249 -46.109886 -9.9678087 -83.780861
13080000000 -19.739622 61.39481 -42.982773 -65.950775 -43.061737 -67.403358 -10.186113 -88.863419
13090000000 -19.598354 60.397354 -43.373146 -89.287605 -43.598419 -92.679314 -10.368783 -93.656685
13100000000 -19.67354 59.561558 -42.934067 -105.61909 -43.23539 -107.37501 -10.558323 -98.1791
13110000000 -19.544657 59.781895 -42.047729 -129.19783 -42.392208 -130.98427 -10.823378 -102.95842
13120000000 -19.86804 59.783833 -41.815266 -157.21973 -42.040665 -157.55965 -11.146826 -108.26464
13130000000 -19.535666 61.298477 -42.024086 177.57533 -42.15453 176.7765 -11.442063 -114.26689
13140000000 -19.617916 62.574497 -42.48933 152.93178 -42.667725 151.33949 -11.697379 -120.12566
13150000000 -19.21245 62.22234 -43.349384 133.18877 -43.80341 133.30305 -11.908295 -125.84863
13160000000 -19.439821 62.258556 -43.242241 119.86672 -43.354919 120.15448 -12.156383 -131.32701
13170000000 -19.04649 61.008827 -41.849876 96.867065 -42.021133 97.002808 -12.462793 -137.31557
13180000000 -19.234556 57.717007 -41.557968 69.286034 -41.583031 69.488792 -12.793561 -144.41533
13190000000 -19.187637 56.3176 -41.378883 40.902977 -41.485634 41.557827 -12.994375 -152.36221
13200000000 -19.386736 52.871262 -42.257843 15.857965 -42.300846 16.795002 -13.068546 -160.10739
13210000000 -19.646353 53.574856 -42.753345 -7.2008858 -42.80098 -6.3443074 -13.042655 -167.11615
13220000000 -19.630825 53.203796 -43.573307 -27.069923 -43.285679 -25.449053 -13.089167 -173.56702
13230000000 -19.588589 53.718941 -43.54451 -44.317982 -43.374535 -45.236355 -13.246718 179.62778
13240000000 -19.468044 54.646011 -43.412975 -66.073807 -43.075554 -65.521866 -13.433211 171.64952
13250000000 -19.068863 54.272331 -42.995605 -86.513229 -42.658043 -87.675018 -13.445146 162.81595
13260000000 -19.005444 52.143681 -42.574142 -112.78228 -42.358883 -113.3333 -13.224109 154.00859
13270000000 -18.758333 49.599018 -42.72271 -138.87971 -42.558033 -140.20129 -12.884151 146.1985
13280000000 -19.131548 45.415703 -43.24168 -165.65343 -43.109005 -165.96146 -12.592174 139.38898
13290000000 -19.509413 44.113636 -44.484829 169.98961 -44.25116 171.40581 -12.405603 132.81375
13300000000 -19.874559 42.89967 -45.085209 155.16998 -44.668465 155.10574 -12.288047 125.78712
13310000000 -20.160215 41.312786 -44.787731 137.00768 -44.293446 134.63467 -12.098954 118.28249
13320000000 -20.30213 42.120926 -44.544647 113.15794 -44.114803 111.34834 -11.748391 110.80724
13330000000 -20.224398 41.338753 -44.99725 91.010162 -44.5984 88.189919 -11.339358 103.94723
13340000000 -19.957966 43.745739 -44.852711 68.41951 -44.68433 65.363945 -10.98369 97.84243
13350000000 -19.527916 39.92717 -45.327377 47.726322 -45.02013 45.017216 -10.737361 92.156708
13360000000 -19.470551 37.147392 -44.80196 26.782665 -44.64082 22.787212 -10.552528 86.082726
13370000000 -19.714432 33.37619 -45.459679 -0.8951872 -45.40136 -2.333812 -10.340988 79.258041
13380000000 -19.908148 31.335125 -46.163502 -18.714069 -45.610527 -21.17737 -10.023332 72.148651
13390000000 -20.653868 27.322001 -46.119762 -39.487923 -45.988354 -44.279514 -9.6380854 65.593544
13400000000 -21.304592 28.108049 -46.121441 -58.292011 -46.134758 -61.399708 -9.2221565 59.880234
13410000000 -21.965042 27.706379 -45.788795 -79.78933 -45.545044 -82.778503 -8.9184885 54.742332
13420000000 -21.959347 33.101677 -45.030201 -104.97852 -45.108166 -109.79624 -8.7361526 49.511055
13430000000 -21.418575 30.654804 -45.678894 -132.21268 -45.805794 -135.5063 -8.6221075 43.801075
13440000000 -21.293673 27.97843 -45.904831 -156.25656 -45.946774 -159.93356 -8.5108805 37.659466
13450000000 -20.993328 24.07914 -47.004906 178.64912 -47.030975 174.04167 -8.3212214 31.273428
13460000000 -21.168879 19.507849 -46.937778 162.86287 -47.118687 160.54138 -8.075284 25.319426
13470000000 -21.8589 14.245408 -47.076996 138.76468 -47.184135 134.52298 -7.8704739 19.649675
13480000000 -22.647295 14.500654 -46.448502 114.3358 -46.774307 110.01809 -7.7594156 14.123041
13490000000 -23.784307 12.660872 -46.998203 85.853592 -47.476791 83.610229 -7.7358332 8.7402487
13500000000 -24.036594 20.676029 -47.375866 63.596153 -47.999393 61.632008 -7.7488613 3.1820314
13510000000 -23.966206 23.621475 -47.862789 35.264076 -48.022564 33.878769 -7.7401948 -2.5237944
13520000000 -23.520018 20.802408 -49.191345 5.7190018 -49.3009 1.505144 -7.7531991 -8.3057117
13530000000 -23.696365 17.238905 -50.21748 -15.682364 -50.901253 -18.284245 -7.7977881 -14.084162
13540000000 -23.626272 12.003545 -51.96122 -37.189938 -52.472755 -39.279881 -7.8988118 -19.842964
13550000000 -24.190075 8.1408606 -51.509403 -51.185379 -51.868427 -51.493561 -8.0590239 -25.638037
13560000000 -24.771812 5.404644 -51.49593 -82.007721 -52.152702 -84.567238 -8.2326441 -31.624832
13570000000 -26.324833 7.6800971 -52.493107 -111.59711 -53.359711 -112.37899 -8.3672438 -37.54731
13580000000 -26.104155 11.58343 -53.479244 -141.40948 -54.364822 -142.50308 -8.5033722 -43.282219
13590000000 -26.673801 15.559736 -55.685665 -179.07458 -57.155872 -178.18021 -8.6684284 -48.802467
13600000000 -26.026642 15.720234 -59.463852 157.3833 -60.245068 159.627 -8.894084 -54.176311
13610000000 -26.656933 18.74045 -62.642345 148.59039 -63.722881 148.15967 -9.1899986 -59.54007
13620000000 -26.592178 14.765916 -61.222214 105.68642 -62.803352 99.956383 -9.5301456 -65.262299
13630000000 -27.411816 17.550053 -64.500992 85.208771 -67.964233 98.21521 -9.8677921 -71.268219
13640000000 -27.108337 11.909348 -63.941795 38.479439 -65.097137 39.032913 -10.176206 -77.588669
13650000000 -28.422655 13.280091 -62.761742 -19.164873 -64.105949 -19.910221 -10.447541 -83.759407
13660000000 -27.877357 13.349062 -61.30867 -67.487373 -61.227974 -76.27211 -10.715186 -89.747818
13670000000 -28.918613 10.610376 -60.088326 -107.44821 -59.440834 -116.17894 -10.989888 -95.459915
13680000000 -29.05221 13.292097 -58.652348 -137.19493 -58.220291 -147.47949 -11.320994 -101.20163
13690000000 -29.525774 19.835808 -57.440475 -171.97318 -57.601162 -178.2876 -11.708054 -107.13203
13700000000 -28.897409 26.435205 -56.268093 165.72687 -56.33255 159.19617 -12.0875 -113.68852
13710000000 -27.864025 32.34745 -54.618294 152.02824 -55.884735 142.88528 -12.444243 -120.68883
13720000000 -26.728037 25.270113 -53.275974 122.09789 -54.07962 121.36177 -12.730781 -127.93401
13730000000 -27.220705 20.954754 -51.863087 100.38715 -52.288467 97.242867 -13.017233 -134.94853
13740000000 -27.371922 14.719623 -51.006012 66.164406 -51.584362 63.548756 -13.285135 -141.86745
13750000000 -29.619644 10.851176 -50.964951 45.513958 -51.440716 42.290161 -13.58709 -149.21828
13760000000 -30.149389 14.05933 -50.431313 26.1584 -50.984276 22.305065 -13.835606 -157.44675
13770000000 -32.424812 20.775885 -49.281307 1.4537874 -49.846161 -0.61492103 -13.94223 -166.0761
13780000000 -30.362892 36.771111 -48.305809 -23.771578 -48.910858 -26.293484 -13.87004 -174.3107
13790000000 -27.768671 35.748226 -48.095528 -50.929928 -48.637268 -49.843155 -13.763083 178.33575
13800000000 -26.647038 21.796062 -47.919407 -74.549255 -48.377613 -75.296898 -13.740967 171.40045
13810000000 -25.904816 14.76126 -49.047592 -95.401535 -49.35144 -93.474098 -13.808035 164.23267
13820000000 -26.109066 -2.4854853 -47.15963 -109.50553 -47.336311 -108.45409 -13.894177 156.29643
13830000000 -28.18071 -3.2328928 -46.18021 -133.60321 -46.250816 -134.31212 -13.815833 147.76199
13840000000 -28.891075 -10.889109 -45.316917 -161.64256 -45.487396 -163.07777 -13.528305 139.31218
13850000000 -31.921104 5.6163936 -45.107117 172.22789 -45.461472 172.14499 -13.196731 131.60959
13860000000 -30.725456 15.737504 -45.653202 146.6209 -45.873482 148.07004 -12.911426 124.5132
13870000000 -28.649363 24.550016 -45.610241 130.62032 -45.358299 132.81255 -12.662192 117.61797
13880000000 -26.637539 10.958484 -44.90366 110.61092 -44.657742 110.62083 -12.400757 110.53735
13890000000 -26.164841 0.41331342 -44.07547 87.481071 -43.86528 86.410194 -12.09011 103.38124
13900000000 -26.166126 -19.996498 -43.333092 64.061859 -43.439781 63.615585 -11.767207 96.653
13910000000 -28.050184 -22.588301 -43.01862 37.462944 -42.866245 37.371342 -11.465425 90.407082
13920000000 -28.483236 -32.879795 -42.859715 13.254872 -42.730801 13.511346 -11.214295 84.219452
13930000000 -31.274157 -32.97617 -42.81118 -7.8743358 -42.675976 -9.2540903 -11.007944 77.64267
13940000000 -32.185818 -23.260324 -42.387207 -29.929523 -42.356987 -32.062931 -10.794033 70.713966
13950000000 -31.308254 -9.8899603 -42.063663 -55.639084 -42.094006 -55.807636 -10.538152 63.798168
13960000000 -29.59054 -17.815649 -41.720699 -76.228493 -41.686378 -76.329453 -10.241895 57.138565
13970000000 -28.341187 -26.358099 -41.496681 -99.938713 -41.257141 -100.3468 -9.9503956 51.062397
13980000000 -28.268017 -47.437283 -40.798618 -123.66579 -40.536991 -124.53207 -9.7146749 45.174061
13990000000 -29.039074 -57.874924 -40.365746 -149.78508 -40.20055 -151.6286 -9.5658808 39.252365
14000000000 -29.414738 -66.939064 -40.323124 -175.49709 -40.250385 -176.87579 -9.5068655 33.247841
14010000000 -29.39843 -68.215363 -40.789825 160.66139 -40.799332 158.97963 -9.4986095 26.977896
14020000000 -29.660555 -72.070381 -40.627308 140.47971 -40.617279 139.57413 -9.4764338 20.44849
14030000000 -30.162344 -72.500542 -40.230427 119.70615 -40.199402 118.6944 -9.4689455 13.673382
14040000000 -29.793415 -71.099037 -39.133183 95.310135 -39.064472 94.093353 -9.5177145 6.6652184
14050000000 -28.829527 -71.990761 -38.791409 67.790291 -38.823376 65.578659 -9.612627 -0.15348575
14060000000 -29.378323 -87.551849 -38.884281 39.291046 -39.00668 38.15057 -9.7462091 -6.8865633
14070000000 -31.196541 -91.002289 -39.348942 14.973588 -39.363129 13.96865 -9.886693 -13.922205
14080000000 -32.306229 -94.289391 -39.456947 -8.5282717 -39.429363 -9.8455753 -10.07045 -21.192078
14090000000 -31.980587 -85.847786 -39.520298 -30.715244 -39.478909 -32.770058 -10.275355 -28.470228
14100000000 -29.711676 -99.967056 -39.23452 -53.284435 -39.424446 -55.866035 -10.527235 -35.673584
14110000000 -29.189962 -108.49436 -39.166317 -77.57357 -39.219803 -78.975227 -10.845975 -42.526226
14120000000 -28.205647 -119.67928 -39.072155 -101.99293 -39.112823 -103.66882 -11.256753 -49.397228
14130000000 -27.589024 -129.35643 -38.961479 -126.89107 -39.008266 -128.02119 -11.744766 -56.84016
14140000000 -27.476294 -142.76796 -38.944016 -153.52261 -38.94986 -155.30667 -12.256547 -64.992775
14150000000 -29.536192 -148.35133 -38.969288 -179.05812 -39.098812 178.95479 -12.715166 -73.558884
14160000000 -30.73567 -149.23654 -39.710079 155.25055 -39.942017 153.26962 -13.134404 -81.781937
14170000000 -33.0397 -129.45439 -40.24892 134.10301 -40.548195 133.29247 -13.578987 -89.422791
14180000000 -29.742384 -121.5773 -40.51545 115.31153 -40.606602 115.0991 -14.15295 -96.970039
14190000000 -27.539028 -131.20895 -39.690479 92.545799 -39.874065 92.076454 -14.816044 -105.43344
14200000000 -26.389072 -145.44339 -39.647392 66.26873 -39.75782 65.706474 -15.476101 -115.19122
14210000000 -26.264954 -156.58626 -39.916164 39.957726 -40.169418 39.575775 -15.948268 -126.12828
14220000000 -26.172825 -168.81573 -40.402622 17.035452 -40.537724 17.394394 -16.227049 -136.98253
14230000000 -27.244406 -179.93892 -40.659134 -5.6403475 -40.701435 -5.4511127 -16.387529 -146.97403
14240000000 -29.020878 176.51077 -40.756214 -28.285061 -40.80093 -28.495626 -16.543669 -156.54601
14250000000 -31.130869 -166.69719 -40.847935 -50.318005 -41.157864 -50.231136 -16.647615 -166.14073
14260000000 -29.629358 -153.68082 -41.091362 -74.045578 -41.206387 -72.115067 -16.598534 -176.18935
14270000000 -26.954079 -151.49274 -41.039169 -93.810677 -40.85791 -92.574829 -16.437246 174.37479
14280000000 -26.027885 -166.3194 -40.692745 -116.7733 -40.495544 -116.72993 -16.210045 166.12238
14290000000 -25.91577 -173.7724 -40.40876 -141.04385 -40.280491 -141.28978 -16.025896 158.83232
14300000000 -26.961739 174.1593 -40.338894 -165.26205 -40.176617 -165.34116 -15.883387 151.62857
14310000000 -27.572447 174.17198 -40.422325 167.66536 -40.24493 167.31435 -15.706787 144.00357
14320000000 -28.735786 164.28769 -40.756783 145.03673 -40.448734 145.31226 -15.413683 136.07671
14330000000 -29.567326 176.34407 -40.94989 124.02596 -40.570019 121.94433 -15.001136 128.58524
14340000000 -29.642323 -176.06682 -40.779068 100.40501 -40.564377 98.629196 -14.485005 122.24197
14350000000 -26.891014 -171.97804 -40.504604 80.233086 -40.327133 79.286049 -14.00965 116.7627
14360000000 -26.559391 176.44733 -39.652145 53.131882 -39.534306 52.150536 -13.633004 112.1902
14370000000 -26.786728 171.47398 -39.686722 25.644329 -39.547165 24.461981 -13.342475 108.05001
14380000000 -27.955572 166.46257 -39.791817 0.39571711 -39.705997 -0.4455381 -13.101211 103.82535
14390000000 -28.50791 173.04407 -39.773094 -24.719082 -39.611076 -26.120697 -12.859786 99.009148
14400000000 -28.607058 171.6741 -40.027348 -49.185455 -39.749714 -51.951832 -12.612052 93.924652
14410000000 -28.640331 172.68074 -39.975994 -73.144165 -40.033886 -74.718147 -12.318794 88.965286
14420000000 -28.837774 176.81526 -39.888443 -95.401863 -39.876869 -96.708954 -11.986484 84.326164
14430000000 -27.127146 174.86917 -39.470688 -120.93463 -39.352142 -121.63219 -11.689332 80.243095
14440000000 -27.303097 166.98845 -39.238434 -144.00986 -38.984688 -146.14528 -11.414903 76.382599
14450000000 -27.559692 166.45714 -38.819584 -171.59271 -38.695053 -173.87657 -11.168611 72.510948
14460000000 -28.776348 167.74213 -38.765232 160.94553 -38.765381 158.54089 -10.953442 68.394119
14470000000 -28.174992 179.23068 -38.881588 134.9467 -39.017384 132.62338 -10.760472 64.347359
14480000000 -26.713758 -177.26793 -39.112167 109.2385 -39.073219 108.71261 -10.579018 60.625069
14490000000 -26.483526 174.91425 -39.050838 87.166718 -38.974178 85.700363 -10.454702 56.803848
14500000000 -26.652472 176.59476 -38.654179 64.149452 -38.518318 62.782204 -10.384257 52.851021
14510000000 -26.466164 173.26154 -37.850288 36.700535 -37.797791 34.594685 -10.380725 48.337948
14520000000 -27.150719 173.98546 -37.687504 10.227079 -37.591534 8.9347239 -10.358873 43.466732
14530000000 -27.525112 169.79169 -37.506695 -17.277725 -37.351891 -18.897879 -10.265805 38.46711
14540000000 -28.185722 -175.44281 -37.641232 -43.94072 -37.589485 -45.48877 -10.143974 33.893467
14550000000 -25.959675 -174.76974 -37.757187 -67.812218 -37.568596 -68.961601 -10.077228 29.700672
14560000000 -24.83074 -176.39775 -37.127327 -90.48188 -37.070835 -92.787292 -10.114977 25.900274
14570000000 -23.775509 173.17078 -36.775249 -118.16249 -36.670929 -120.10078 -10.270573 21.743664
14580000000 -24.346376 169.65472 -36.336525 -144.69597 -36.297775 -146.40831 -10.530428 17.250238
14590000000 -24.962383 166.53656 -36.232082 -172.03693 -36.107361 -173.26563 -10.774071 12.350129
14600000000 -25.073233 174.99623 -36.083771 162.07883 -36.015072 160.36774 -11.074649 7.2318301
14610000000 -24.853258 171.81229 -36.033855 136.80295 -35.896046 135.08534 -11.428339 2.5408909
14620000000 -25.072781 -178.26335 -35.691536 110.56892 -35.583195 108.65312 -11.838336 -1.8619709
14630000000 -23.392126 -177.83026 -35.33606 85.270042 -35.265366 83.65863 -12.320256 -6.9738793
14640000000 -22.206139 177.02553 -35.113838 57.53117 -35.019947 55.9174 -12.950791 -12.354991
14650000000 -21.914846 168.14627 -35.096966 31.137791 -34.983475 29.622572 -13.53868 -17.362171
14660000000 -22.184952 162.35408 -35.098881 5.6236014 -35.046612 3.4140315 -14.158726 -21.953644
14670000000 -23.181978 160.7346 -35.075848 -19.797583 -34.967869 -21.124384 -14.84735 -25.305519
14680000000 -22.832415 164.80882 -34.967113 -43.132408 -34.864586 -44.792912 -15.702083 -28.013481
14690000000 -22.902464 164.55115 -34.585964 -68.754089 -34.542107 -70.459717 -16.838495 -30.537321
14700000000 -22.371061 168.3195 -34.360657 -95.311989 -34.263351 -97.014687 -18.351978 -32.855526
14710000000 -21.667553 167.87981 -34.328831 -122.6879 -34.204407 -124.43607 -20.056326 -34.381168
14720000000 -20.947365 166.65733 -34.670048 -146.63097 -34.594505 -148.99825 -21.977547 -36.469177
14730000000 -20.391384 159.41298 -34.50938 -170.54337 -34.481434 -172.68536 -24.237888 -38.114491
14740000000 -20.627853 152.46483 -34.265232 165.42844 -34.252422 163.39595 -27.086269 -39.222599
14750000000 -21.466228 150.42427 -33.963428 139.65312 -33.906433 137.95959 -30.80197 -33.137005
14760000000 -21.36779 151.41058 -33.966171 113.85126 -33.879528 112.13086 -34.017742 -7.9680653
14770000000 -21.454327 149.79466 -33.992855 88.48674 -33.935478 86.789238 -33.3661 27.11274
14780000000 -21.123627 150.03493 -34.32217 64.736023 -34.226948 62.928371 -30.167372 51.907967
14790000000 -21.067013 149.77573 -33.952564 41.991085 -33.914925 39.648701 -26.870775 63.316406
14800000000 -20.387272 151.48477 -33.893116 17.361057 -33.871399 15.111206 -24.579828 68.837418
14810000000 -19.730776 147.05704 -33.678463 -6.6352634 -33.664436 -8.564126 -22.813063 71.561104
14820000000 -19.67239 142.67584 -33.638401 -31.12816 -33.583523 -33.075817 -21.504255 71.406761
14830000000 -20.192356 138.51799 -33.321461 -55.933495 -33.213169 -57.80241 -20.509327 70.33374
14840000000 -20.518986 138.3445 -33.456619 -81.222435 -33.383125 -83.597923 -19.507809 68.495445
14850000000 -20.668007 137.15814 -33.354038 -106.09444 -33.419312 -108.0703 -18.692051 66.287598
14860000000 -20.754242 134.78256 -33.56501 -129.95308 -33.549778 -131.55556 -18.025938 64.506233
14870000000 -21.374432 133.03363 -33.449005 -152.6235 -33.355389 -154.3555 -17.660397 62.160118
14880000000 -21.355522 135.04405 -33.302959 -175.28423 -33.2211 -177.74364 -17.425182 59.391308
14890000000 -20.689051 134.10007 -32.869175 160.03671 -32.864574 157.33702 -17.096983 54.954208
14900000000 -20.238565 129.23688 -32.808922 134.93539 -32.95153 132.64552 -16.652103 50.461857
14910000000 -20.393892 125.22652 -32.706947 109.58279 -32.790031 108.2916 -16.083958 46.932877
14920000000 -20.556595 122.82876 -32.756786 84.947769 -32.731113 82.893013 -15.586978 45.02692
14930000000 -20.69351 123.13619 -32.876167 60.051208 -32.927528 57.296654 -15.31907 43.587086
14940000000 -20.721313 118.53721 -33.065571 37.568039 -33.184788 35.025745 -15.310262 42.311302
14950000000 -21.606474 119.43937 -32.891903 14.556453 -33.166973 12.475043 -15.418206 39.86475
14960000000 -22.199247 120.08078 -32.414467 -9.1523438 -32.606262 -10.028043 -15.576166 36.377766
14970000000 -22.060757 126.82974 -32.333458 -34.691502 -32.41922 -35.6679 -15.682904 33.147518
14980000000 -21.670469 121.94404 -32.071869 -60.32917 -32.133869 -61.863079 -15.732686 30.841002
14990000000 -21.767021 120.16383 -32.23571 -87.059158 -32.329308 -89.082291 -15.851994 28.861208
15000000000 -22.23398 115.27381 -32.57795 -112.55104 -32.872063 -114.78139 -16.079494 26.805292
15010000000 -22.340006 116.34335 -32.78648 -135.22617 -33.114277 -135.48584 -16.347219 23.605991
15020000000 -22.575848 109.80966 -32.718922 -158.9631 -32.888729 -158.58421 -16.544901 19.78112
15030000000 -23.14386 110.17776 -32.716022 177.47957 -32.756145 177.47078 -16.627493 16.781469
15040000000 -24.24758 109.84982 -32.570911 153.87674 -32.618679 152.65195 -16.614096 16.640575
15050000000 -23.897751 119.60175 -32.470798 128.30222 -32.704906 127.00191 -16.674368 17.695261
15060000000 -23.566921 119.22977 -32.639183 102.67749 -32.875874 102.64342 -17.00174 19.355164
15070000000 -23.264103 118.57716 -32.605591 77.543556 -32.770916 78.261719 -17.504168 20.241892
15080000000 -23.905354 118.88367 -32.927032 51.163921 -32.909019 51.498222 -18.173332 19.23765
15090000000 -23.410189 119.7793 -33.135044 27.141029 -33.195984 26.592957 -18.846472 17.938293
15100000000 -23.873867 116.44997 -33.633846 2.3767884 -33.736572 2.2766197 -19.168865 17.276951
15110000000 -24.574446 115.2736 -33.766724 -18.597502 -33.888615 -18.13686 -19.232729 17.325323
15120000000 -25.660036 118.27993 -33.49242 -41.967117 -33.472355 -40.888641 -19.280296 17.31608
15130000000 -25.148016 122.85587 -33.488792 -67.956039 -33.315632 -67.481071 -19.492624 17.839745
15140000000 -25.237694 125.96591 -33.513268 -94.210495 -33.347534 -94.968102 -19.577663 18.491072
15150000000 -24.279226 125.73075 -33.810261 -120.08204 -33.904346 -120.88168 -19.546961 18.670652
15160000000 -24.539612 125.94529 -34.176025 -145.01564 -34.292133 -143.86227 -19.448452 19.885902
15170000000 -23.580008 127.70059 -34.573902 -168.6922 -34.51157 -166.86664 -19.235477 21.441771
15180000000 -23.341507 124.16644 -34.709316 167.30768 -34.340225 168.32657 -19.191168 22.640083
15190000000 -23.281281 122.336 -34.915489 142.27116 -34.594322 141.85576 -19.526037 23.369705
15200000000 -24.094427 120.80996 -35.305614 118.24404 -35.213562 116.93639 -19.942812 23.715784
15210000000 -24.062862 124.8828 -35.433704 95.035995 -35.382366 95.591682 -20.330458 22.495146
15220000000 -24.355263 128.09985 -35.439423 70.45993 -35.239067 70.813469 -20.62434 19.696924
15230000000 -23.643566 128.05551 -35.463921 44.418419 -35.05542 44.429539 -20.892498 15.996712
15240000000 -23.896214 130.02036 -35.806664 17.408514 -35.374256 16.134306 -21.164135 13.240911
15250000000 -22.889986 130.06784 -36.328842 -9.1034708 -36.129993 -11.100896 -21.426304 10.377162
15260000000 -22.469101 125.50973 -36.980812 -33.025814 -36.848602 -33.856464 -21.73008 8.318078
15270000000 -22.156326 121.18377 -37.415855 -56.945236 -37.19191 -57.061718 -22.036446 7.6558838
15280000000 -22.364405 114.15627 -37.698246 -79.753723 -37.197601 -80.990768 -22.464626 8.9989996
15290000000 -23.095545 113.08215 -37.87598 -104.83377 -37.407867 -107.70271 -23.239611 10.327063
15300000000 -23.484337 113.94903 -38.057198 -129.48048 -37.812542 -133.22638 -24.879656 12.479759
15310000000 -23.60051 117.29991 -38.316582 -156.68596 -38.42458 -159.94797 -27.327578 16.816612
15320000000 -23.562208 119.15016 -38.957294 177.91174 -38.895622 176.75117 -30.512377 25.120707
15330000000 -22.850275 122.46626 -39.336529 151.31116 -39.024662 149.77318 -33.659683 36.644325
15340000000 -22.110308 117.18607 -40.039131 126.44804 -39.718105 122.14717 -36.969517 59.989368
15350000000 -21.976799 113.84514 -40.487053 100.37936 -40.393707 95.66243 -35.679192 100.59125
15360000000 -22.08086 104.01642 -41.07304 77.677719 -41.380394 73.356468 -31.323896 120.80908
15370000000 -23.354628 102.4589 -41.312469 51.412102 -41.572453 48.294712 -28.008596 125.18552
15380000000 -23.6574 99.032524 -41.86097 25.116842 -41.998325 23.88822 -25.919561 126.7757
15390000000 -24.715733 101.54261 -42.492359 -2.3161194 -42.296444 -5.2118769 -24.295017 124.45829
15400000000 -24.690279 102.94926 -43.460457 -27.442877 -43.374878 -32.813965 -22.681873 121.44994
15410000000 -24.592007 106.85466 -43.788254 -50.530361 -44.26342 -55.275307 -20.864124 117.56431
15420000000 -24.175579 102.47603 -44.466419 -75.656548 -45.165745 -78.530945 -19.203012 115.46539
15430000000 -23.962769 102.04792 -44.37738 -99.750671 -44.790199 -99.912415 -17.793335 114.63072
15440000000 -23.872849 92.631462 -44.835766 -132.67897 -44.956291 -133.30228 -16.879799 114.38537
15450000000 -25.117334 89.224068 -45.713871 -159.78885 -45.772644 -162.78648 -16.303228 113.68573
15460000000 -25.762669 87.247314 -46.814079 174.75305 -47.315685 171.5733 -15.914308 111.66447
15470000000 -26.561354 88.723907 -47.894531 146.94948 -48.595245 146.88875 -15.474484 108.41139
15480000000 -27.064001 84.107338 -49.141273 128.54608 -49.161037 132.25807 -14.90935 104.21767
15490000000 -28.159431 85.759415 -47.913631 109.65884 -47.899025 106.90553 -14.332995 100.26961
15500000000 -28.741301 86.783432 -47.180363 79.420891 -47.63176 76.047897 -13.793938 97.24308
15510000000 -28.656105 88.085686 -47.369946 43.227703 -48.05571 41.400822 -13.264402 94.662003
15520000000 -29.373844 81.148041 -48.145527 14.036814 -49.065556 15.249962 -12.774034 91.894569
15530000000 -29.989182 83.198952 -49.855938 -12.938067 -50.168995 -9.9016237 -12.316608 89.364471
15540000000 -31.032286 76.693489 -49.480339 -31.676819 -49.489799 -30.63442 -11.895821 87.111259
15550000000 -31.677259 84.044662 -50.32811 -60.973434 -49.802063 -62.295341 -11.537642 85.227386
15560000000 -32.668453 68.444313 -49.956696 -84.181618 -50.323372 -87.850098 -11.267677 83.254883
15570000000 -35.865234 67.093727 -50.586765 -113.26233 -50.741192 -114.08572 -11.075684 81.188446
15580000000 -41.124321 45.998512 -50.505627 -127.10165 -50.931961 -129.88234 -10.926959 78.657761
15590000000 -42.588718 104.83218 -48.78606 -157.29053 -49.121426 -155.63852 -10.796595 75.610893
15600000000 -54.832203 94.676689 -48.887527 170.67224 -49.071121 169.61078 -10.65836 72.348846
15610000000 -43.999817 163.80379 -49.036579 143.44612 -49.278469 143.37476 -10.454755 69.05555
15620000000 -44.694538 -157.10425 -49.709274 118.58252 -50.343323 120.57733 -10.185838 65.706657
15630000000 -39.718697 174.24365 -49.728844 96.484879 -49.504665 98.633293 -9.9140444 62.589062
15640000000 -47.9044 -162.28664 -50.140762 72.640602 -49.940807 74.268005 -9.6708708 60.028736
15650000000 -41.051548 -130.82712 -49.682713 51.225864 -49.833191 50.741497 -9.4605169 58.046185
15660000000 -35.722 -114.43152 -49.739902 26.147327 -49.782551 25.722164 -9.3300028 55.976685
15670000000 -33.021072 -133.89726 -49.455135 7.5470691 -49.704521 6.5899096 -9.3062382 53.602619
15680000000 -31.09742 -131.82985 -48.834431 -13.84077 -48.78912 -13.130433 -9.3191872 50.577374
15690000000 -30.034872 -140.54045 -47.949802 -41.715752 -47.543438 -41.343327 -9.313201 46.970284
15700000000 -28.243372 -142.1459 -47.998669 -70.579338 -47.669857 -70.413704 -9.2867136 43.232002
15710000000 -28.503084 -154.33707 -48.887543 -96.564964 -48.810333 -99.92836 -9.2168818 39.771526
15720000000 -28.579283 -150.10648 -49.056599 -108.99233 -48.937714 -109.57335 -9.1529846 36.449707
15730000000 -29.196659 -146.89264 -48.288589 -132.00676 -48.237217 -132.73332 -9.1365519 32.800671
15740000000 -27.44936 -138.96744 -47.883446 -155.08762 -47.836975 -157.05888 -9.1233873 28.830034
15750000000 -26.784166 -141.40118 -47.757469 -175.46298 -47.431293 -176.64926 -9.0916386 24.740643
15760000000 -25.619179 -143.75931 -46.613003 159.59869 -46.540237 157.2025 -9.0484695 21.074064
15770000000 -25.538164 -145.95375 -46.579166 133.00925 -46.842098 132.05658 -9.0423279 18.088142
15780000000 -24.348919 -147.00105 -46.59634 110.50197 -46.318344 109.31148 -9.1679306 15.38181
15790000000 -24.210482 -153.35667 -46.828533 90.789337 -46.825779 89.05677 -9.4608278 12.046401
15800000000 -24.066435 -155.08585 -45.878876 68.219292 -45.73 66.242088 -9.8634377 7.5133266
15810000000 -24.383768 -155.3896 -45.951473 42.475471 -45.893539 40.574249 -10.268578 1.4250926
15820000000 -23.602795 -150.77768 -45.769108 22.887459 -45.697845 20.592663 -10.602791 -5.310884
15830000000 -23.108894 -152.77254 -45.064671 -0.11042126 -45.069714 -2.39239 -10.808025 -11.583438
15840000000 -22.757912 -153.05853 -44.758224 -24.95249 -44.838055 -25.17178 -11.042585 -17.156538
15850000000 -22.916105 -153.34676 -44.384754 -51.564381 -44.207542 -51.283844 -11.373109 -22.356674
15860000000 -22.267906 -150.40591 -44.507378 -73.818634 -44.191372 -75.817909 -11.843646 -27.479427
15870000000 -21.862383 -153.07982 -44.21793 -97.185081 -44.188007 -98.837875 -12.431768 -32.909115
15880000000 -21.630615 -154.78777 -43.870487 -119.74975 -43.660233 -121.60203 -13.122727 -38.621902
15890000000 -21.860634 -156.46094 -43.66666 -144.80249 -43.691292 -146.22206 -13.984373 -44.397373
15900000000 -21.433334 -155.02078 -43.131981 -170.76633 -43.047676 -171.8056 -15.03002 -50.90041
15910000000 -21.213533 -157.89746 -43.629627 161.98827 -43.544685 160.48306 -16.271311 -59.015034
15920000000 -20.837645 -158.52415 -43.707016 138.36874 -43.627514 136.84341 -17.582819 -69.59771
15930000000 -21.285576 -158.43814 -43.993439 116.77119 -43.802841 115.675 -18.831528 -83.001129
15940000000 -20.562145 -153.61749 -44.02697 93.783989 -43.738941 90.603172 -19.850542 -97.902176
15950000000 -19.941412 -154.68567 -43.603508 70.131355 -43.552738 67.151573 -20.496847 -112.81768
15960000000 -19.579521 -156.21008 -43.599434 45.389088 -43.595448 41.895218 -20.95236 -127.78052
15970000000 -19.523165 -156.00769 -43.94315 20.938871 -43.994267 17.972607 -21.268021 -142.41914
15980000000 -19.212103 -155.2325 -43.826363 -1.8681713 -43.875648 -4.4114256 -21.510113 -157.43602
15990000000 -18.961161 -156.21933 -43.550282 -27.201038 -43.640278 -28.726532 -21.542015 -174.34225
16000000000 -18.997276 -157.70378 -44.054359 -53.645218 -44.079662 -56.032574 -21.140976 167.90933
16010000000 -19.074791 -156.17807 -44.570927 -77.941803 -44.779804 -80.810638 -20.130375 153.03708
16020000000 -18.649391 -154.67508 -44.962051 -97.584625 -45.326199 -99.229515 -18.794556 142.49565
16030000000 -18.116106 -153.75363 -44.808567 -120.38979 -44.859283 -122.17131 -17.655846 135.55673
16040000000 -17.610155 -156.42821 -45.058903 -143.95404 -45.322277 -146.51154 -16.773592 130.18263
16050000000 -17.44821 -157.48869 -45.072872 -169.8638 -45.417328 -169.93761 -16.236908 124.91691
16060000000 -17.103905 -157.17459 -45.857777 169.16753 -45.913349 167.84045 -15.837321 119.80271
16070000000 -16.727684 -157.65431 -45.994816 147.35902 -46.128296 146.07004 -15.375842 114.62447
16080000000 -16.432171 -158.32127 -45.802742 125.14614 -45.951488 123.65095 -14.897702 109.90082
16090000000 -16.386589 -158.25211 -45.691967 99.889984 -46.197739 99.59256 -14.518498 105.46349
16100000000 -16.044167 -157.17163 -45.893551 71.395355 -46.185215 72.014 -14.232651 101.05954
16110000000 -15.703664 -157.65042 -47.273315 46.331486 -47.425884 48.000656 -13.976286 95.882324
16120000000 -15.328539 -158.56602 -47.903297 24.877247 -47.721424 27.032228 -13.651161 90.739136
16130000000 -15.168947 -160.21696 -49.233551 6.5551128 -48.988747 6.7029972 -13.17807 86.604973
16140000000 -14.970524 -159.32043 -48.834202 -9.3322554 -48.567692 -8.6271944 -12.657858 83.800629
16150000000 -14.481678 -161.11485 -48.188114 -31.928366 -48.000271 -32.624462 -12.267715 81.794907
16160000000 -14.144072 -161.99881 -48.506306 -59.747368 -48.335712 -60.923286 -12.1233 79.800629
16170000000 -13.839355 -163.93617 -48.535351 -86.539642 -48.629417 -87.386002 -12.131842 77.135719
16180000000 -13.600789 -163.98996 -50.877655 -116.28456 -50.423592 -112.27703 -12.194745 73.419098
16190000000 -13.316094 -165.42584 -51.883884 -130.35275 -51.403255 -127.29436 -12.175123 69.367828
16200000000 -13.179162 -165.67162 -52.280151 -147.71709 -51.497616 -148.465 -12.047679 65.212059
16210000000 -12.96939 -166.34557 -52.76432 -163.1321 -51.981644 -165.60609 -11.94898 61.467159
16220000000 -12.791261 -165.12794 -51.93066 174.95766 -51.733906 170.41043 -11.868328 57.873322
16230000000 -12.295404 -166.33403 -51.721176 153.5177 -51.286777 148.18155 -11.795113 54.050964
16240000000 -12.004115 -167.22148 -51.876659 119.25173 -51.456203 114.75322 -11.661038 50.113953
16250000000 -11.735403 -170.4313 -53.619431 91.769035 -52.833431 85.122589 -11.477099 46.607262
16260000000 -11.668645 -171.79735 -56.465984 68.926155 -56.604946 59.138332 -11.347705 43.950935
16270000000 -11.464839 -173.79111 -59.353672 64.974098 -59.282433 61.333241 -11.357329 41.57333
16280000000 -11.407995 -175.02348 -56.581944 51.282063 -57.006577 47.230141 -11.539687 38.909218
16290000000 -11.232327 -175.70139 -58.826626 14.409222 -57.592323 14.957849 -11.85033 35.059708
16300000000 -11.04987 -175.04764 -59.535667 13.639343 -59.524933 2.8245335 -12.160666 30.170279
16310000000 -10.555304 -175.69629 -61.381435 -14.591801 -61.749092 -26.704308 -12.373977 24.432224
16320000000 -10.252522 -176.60425 -62.176643 -21.261339 -64.680214 -20.239771 -12.561641 18.632748
16330000000 -9.9060116 -178.86449 -67.973373 -24.343651 -68.357292 -12.780391 -12.755264 13.173547
16340000000 -9.8760977 179.73532 -62.697456 -30.783512 -64.113976 -36.406048 -13.009067 7.5654073
16350000000 -9.7618322 177.97978 -66.088089 -16.836189 -67.868553 -5.5908427 -13.284349 2.0341411
16360000000 -9.7649889 176.77315 -61.442226 -33.3111 -61.315964 -15.248677 -13.623404 -3.1888206
16370000000 -9.695055 175.82338 -59.882832 -50.16048 -58.647507 -43.728653 -13.99248 -7.6143661
16380000000 -9.5920801 175.46336 -56.022305 -64.408783 -54.727932 -65.657448 -14.648799 -12.050509
16390000000 -9.2977972 174.65985 -55.889427 -95.587921 -56.042763 -94.356331 -15.590544 -17.149118
16400000000 -9.0206604 173.65057 -54.756065 -122.38219 -54.342995 -120.69944 -16.733698 -24.848665
16410000000 -8.744298 171.65372 -56.173798 -150.6187 -55.822983 -143.7296 -17.809774 -35.025681
16420000000 -8.5979137 170.40378 -55.240509 -151.73787 -54.150532 -151.10152 -18.691177 -46.769753
16430000000 -8.4060764 168.94913 -52.945961 -175.24974 -52.112778 -175.98314 -19.486551 -57.590298
16440000000 -8.3015614 167.99406 -51.521557 158.32262 -51.321129 155.18739 -20.375748 -68.419418
16450000000 -8.226655 166.82639 -50.81728 128.8838 -50.584023 128.62144 -21.439358 -81.022835
16460000000 -8.17974 166.57933 -51.803146 102.84543 -51.214096 102.4524 -22.326254 -96.401321
16470000000 -8.0150032 166.0676 -51.097115 89.095551 -50.757423 86.669991 -22.996572 -111.47924
16480000000 -7.8657455 165.07927 -50.061947 59.4688 -49.751919 59.423584 -23.426996 -126.16139
16490000000 -7.7140379 163.7341 -49.760532 39.318726 -49.542213 34.898891 -23.965981 -143.43121
16500000000 -7.6033216 162.74252 -49.541645 13.406649 -49.424686 9.2635479 -23.779026 -164.16339
16510000000 -7.3869953 161.21255 -49.877483 -6.0735035 -49.768539 -12.217661 -22.373993 176.74849
16520000000 -7.2492547 160.16495 -49.029095 -31.408916 -49.124306 -31.813938 -20.538294 165.70383
16530000000 -7.0383129 158.54498 -48.859528 -56.034039 -48.657848 -58.224243 -19.168804 159.65616
16540000000 -6.9924455 157.61198 -49.050579 -81.478088 -49.014221 -85.800873 -18.482637 155.9868
16550000000 -6.8441811 156.81059 -48.704716 -101.27591 -48.854721 -103.60489 -18.110277 151.35553
16560000000 -6.7454333 156.4066 -48.274841 -131.2914 -48.65276 -133.93877 -17.778679 145.06256
16570000000 -6.6013002 155.46019 -49.339035 -153.10753 -49.652618 -155.103 -17.355129 138.34628
16580000000 -6.5068302 155.20445 -48.64756 -173.05826 -48.371719 -173.07442 -16.774012 132.87793
16590000000 -6.3034067 154.31703 -49.034294 159.86281 -49.003799 156.53821 -16.28097 127.8184
16600000000 -6.1073089 153.17982 -48.768795 139.85016 -48.968307 139.4023 -15.84726 123.55169
16610000000 -5.9363222 151.36177 -48.833565 111.1152 -48.705864 111.17485 -15.406243 118.66975
16620000000 -5.8547344 149.77411 -49.687298 93.843468 -49.498367 91.433594 -14.897254 114.22745
16630000000 -5.7484908 148.41811 -48.933971 72.626511 -49.207813 69.178795 -14.306931 110.78735
16640000000 -5.658442 147.55307 -49.251026 44.358284 -49.379589 43.531822 -13.835137 108.77212
16650000000 -5.4978476 146.83611 -49.788807 22.770679 -50.024647 23.568607 -13.531177 107.39896
16660000000 -5.3345332 146.27908 -50.100941 0.28907493 -49.947586 1.4805011 -13.460357 105.7386
16670000000 -5.1017628 145.65131 -50.316322 -21.71171 -49.922062 -22.743963 -13.505795 102.8363
16680000000 -4.8738503 144.57173 -50.462044 -43.9743 -50.482746 -45.120304 -13.536384 98.606522
16690000000 -4.6841187 143.06764 -50.892826 -66.101906 -50.726231 -68.412621 -13.432212 93.647583
16700000000 -4.594799 141.50816 -51.086769 -85.241524 -51.135078 -86.906464 -13.232149 89.104736
16710000000 -4.5158515 140.26884 -50.709431 -107.0742 -50.790672 -109.59274 -12.930359 85.495003
16720000000 -4.4380903 139.28955 -51.483105 -129.36302 -51.455479 -131.36652 -12.646221 82.614418
16730000000 -4.2700009 138.17093 -51.160744 -152.34592 -51.47858 -154.33827 -12.38474 80.201881
16740000000 -4.1340127 136.9958 -51.668221 -168.95886 -51.51733 -169.59975 -12.218036 77.780602
16750000000 -3.9408863 135.82712 -50.702259 166.59494 -50.669579 166.42389 -12.139887 75.629166
16760000000 -3.7545438 134.45201 -51.139187 139.91243 -50.789261 137.78549 -12.146542 73.283669
16770000000 -3.5770104 132.81224 -51.715702 117.24702 -51.993507 112.65845 -12.226974 70.69236
16780000000 -3.4675806 131.42209 -51.527489 99.5028 -51.737087 95.843071 -12.35481 67.263382
16790000000 -3.3685358 130.22247 -52.617001 74.077187 -53.031029 73.677261 -12.5399 63.042675
16800000000 -3.2479465 129.1461 -52.537498 58.419155 -52.372864 58.058979 -12.678134 58.170033
16810000000 -3.1103315 127.89763 -51.737759 30.652782 -51.558723 31.980106 -12.76843 53.136875
16820000000 -2.977174 126.39886 -51.60054 9.597455 -52.371933 9.2507572 -12.767782 47.952644
16830000000 -2.8619998 124.7872 -51.850033 -14.732788 -51.868687 -13.956284 -12.699952 43.12672
16840000000 -2.7411397 123.30119 -52.33382 -45.237415 -52.155151 -44.807861 -12.600901 38.866116
16850000000 -2.6218224 121.60786 -53.75993 -67.215157 -53.718033 -66.697205 -12.592092 35.389683
16860000000 -2.5139115 120.05552 -53.948284 -83.938538 -54.016182 -82.026062 -12.700343 32.526257
16870000000 -2.407835 118.66799 -54.00285 -99.015892 -53.94791 -98.964127 -13.068598 29.482109
16880000000 -2.2733264 117.38273 -53.101765 -125.37838 -53.196362 -124.28562 -13.603806 25.85252
16890000000 -2.1381459 115.99855 -53.354073 -152.08847 -53.141445 -154.10222 -14.314807 20.096928
16900000000 -2.0167339 114.55322 -54.685787 179.79977 -54.739147 176.16559 -14.950302 13.106654
16910000000 -1.9326587 113.02528 -55.439327 162.32201 -55.537735 162.35847 -15.452751 4.4931006
16920000000 -1.8624315 111.63503 -56.057888 140.68283 -55.423397 144.90799 -15.810651 -4.1497269
16930000000 -1.781527 110.16765 -57.022999 119.95842 -56.206161 121.4731 -16.18458 -12.455163
16940000000 -1.7025059 108.64526 -56.688602 103.18619 -56.189991 99.29174 -16.679449 -19.933218
16950000000 -1.6195904 107.00776 -56.829659 75.194756 -56.44025 74.730507 -17.367157 -27.362976
16960000000 -1.5264059 105.40246 -57.475475 51.444752 -56.72533 49.161556 -18.291836 -34.496037
16970000000 -1.4235021 103.72792 -58.924831 33.299065 -58.440689 26.474623 -19.403086 -42.822449
16980000000 -1.3348978 102.0214 -59.171867 21.901066 -59.453007 15.247247 -20.783716 -54.11364
16990000000 -1.2559712 100.40377 -57.728199 -2.2245827 -58.415493 -7.8673315 -22.209707 -70.046494
17000000000 -1.1829869 98.948105 -58.964294 -34.108406 -59.099636 -35.334702 -23.135796 -90.706909
