!Keysight Technologies,P9374A,MY57211807,A.19.30.04
!Date: Friday, May 08, 2026 15:18:49
!Correction: S11(C  2-Port  ) 
!S21(C  2-Port  ) 
!S12(C  2-Port  ) 
!S22(C  2-Port  ) 
!S2P File: Measurements: S11, S21, S12, S22:
# Hz S  dB   R 50
13000000000 -18.983147 52.867729 -46.654819 69.887688 -46.375984 71.305405 -8.6613579 -48.977554
13010000000 -19.798725 56.075348 -45.511101 46.729465 -45.239834 48.328922 -8.8714046 -52.922279
13020000000 -20.036997 61.38018 -45.339935 21.397341 -45.095592 22.689363 -9.0819836 -56.89077
13030000000 -19.651661 66.497192 -45.499935 -7.3888559 -44.956966 -5.3175902 -9.3101969 -60.770058
13040000000 -19.373592 65.333923 -46.974056 -30.024426 -46.071274 -29.325291 -9.58636 -64.669662
13050000000 -19.186237 65.222176 -47.636318 -44.599888 -46.791161 -47.163803 -9.9046364 -68.730316
13060000000 -19.065613 61.229374 -46.771793 -54.649361 -46.611355 -58.504383 -10.258133 -73.254128
13070000000 -19.620182 58.892673 -45.293423 -84.291969 -45.314724 -84.164024 -10.601627 -78.219818
13080000000 -20.007261 58.976357 -45.774914 -111.93324 -45.263531 -109.65321 -10.850695 -83.250816
13090000000 -20.004744 59.893173 -46.340191 -136.35393 -45.580528 -136.20723 -11.070391 -88.086182
13100000000 -19.991587 62.017422 -47.205227 -157.28008 -46.348186 -157.71201 -11.327661 -92.531952
13110000000 -19.379158 62.427464 -47.474464 -170.8504 -46.519489 -174.511 -11.647405 -96.925797
13120000000 -19.510565 59.815964 -46.571243 162.89406 -45.573017 159.13615 -12.035592 -101.95756
13130000000 -19.514059 60.803566 -47.19595 139.68803 -46.218727 133.18683 -12.41469 -107.6054
13140000000 -19.530418 61.798489 -47.762222 114.40488 -46.962536 106.89137 -12.729893 -113.39291
13150000000 -19.356987 61.536667 -48.699451 96.691071 -48.273006 86.522858 -13.003621 -118.97421
13160000000 -19.526989 62.752403 -48.86829 81.955223 -48.854279 76.080719 -13.316468 -124.47343
13170000000 -19.026419 62.037285 -47.911594 63.27322 -47.941628 57.550636 -13.722875 -130.5533
13180000000 -18.956036 58.570534 -47.705875 38.911087 -47.359646 31.764078 -14.144736 -138.06032
13190000000 -18.879826 54.083427 -47.605999 12.632457 -47.46312 2.747122 -14.473105 -146.7399
13200000000 -19.620138 50.897915 -48.06485 -10.274827 -48.284725 -20.283464 -14.573883 -155.27893
13210000000 -19.877542 52.770081 -49.336422 -32.161625 -49.76371 -43.306442 -14.583911 -162.93686
13220000000 -20.105341 53.615074 -48.945293 -53.296135 -50.079342 -63.7383 -14.661953 -169.5177
13230000000 -19.781534 57.074093 -50.156845 -68.075462 -51.457153 -77.628387 -14.836373 -176.36186
13240000000 -19.16954 57.773033 -49.074627 -86.568344 -50.709297 -88.678154 -15.002627 175.0981
13250000000 -18.467505 54.394058 -48.98547 -110.94536 -50.107925 -112.04449 -14.973531 165.00092
13260000000 -18.62554 49.954998 -48.96402 -134.85327 -49.975677 -137.90565 -14.672969 154.79137
13270000000 -18.66626 45.952877 -49.291958 -160.55179 -50.187439 -160.93567 -14.241306 146.06836
13280000000 -19.418337 42.181908 -50.557281 169.59828 -51.518581 167.47366 -13.85605 139.04222
13290000000 -20.138723 42.232536 -52.428501 157.20532 -54.096409 159.53415 -13.555772 132.32536
13300000000 -20.693027 45.46471 -51.40427 149.79384 -52.867073 156.28214 -13.337181 124.98757
13310000000 -20.1243 47.191589 -50.324322 123.57236 -51.037685 132.01486 -13.034381 117.31203
13320000000 -19.857412 45.3507 -49.778988 94.541466 -50.256073 99.866524 -12.576936 109.77184
13330000000 -19.559761 42.450657 -51.084759 69.584518 -51.642719 78.805748 -12.048993 103.04845
13340000000 -19.317667 40.681129 -52.562431 38.774704 -53.067921 45.8909 -11.600022 96.975151
13350000000 -19.39329 34.519962 -54.382328 23.215008 -54.397568 35.753101 -11.279002 91.241341
13360000000 -20.131607 33.935371 -54.788746 21.53227 -53.955242 30.540745 -11.04634 84.979034
13370000000 -20.172152 33.840984 -53.902927 -7.3604827 -52.82872 4.1605926 -10.768954 78.153053
13380000000 -20.374043 32.58567 -54.13221 -27.893431 -53.43639 -24.765545 -10.353353 71.088982
13390000000 -20.981667 31.057962 -56.503792 -53.607674 -55.476131 -42.106812 -9.8786154 64.633354
13400000000 -21.012699 33.442139 -59.020748 -63.110054 -56.695057 -56.801041 -9.3907089 59.140915
13410000000 -20.954285 29.417664 -57.362209 -61.767914 -55.536892 -63.005299 -9.0357237 54.194328
13420000000 -21.503365 28.218414 -56.639908 -88.380104 -54.619576 -90.429146 -8.8212118 49.140896
13430000000 -21.667538 26.507833 -58.635372 -98.283012 -56.753162 -106.07269 -8.6640196 43.602982
13440000000 -21.557585 27.452295 -57.272903 -104.6621 -56.321526 -118.42185 -8.517766 37.520481
13450000000 -21.20915 23.0439 -56.720783 -110.84992 -56.526299 -121.41989 -8.3066387 31.221296
13460000000 -21.609667 20.148966 -53.125504 -140.42793 -53.63018 -147.96875 -8.0511284 25.262039
13470000000 -21.999659 17.934067 -53.909172 -164.74921 -53.85788 -167.79869 -7.8389053 19.786562
13480000000 -22.242538 16.707565 -53.0844 -177.34952 -53.008183 178.67926 -7.691216 14.50932
13490000000 -23.400736 12.242596 -51.615627 158.80527 -51.335556 152.47667 -7.6266694 9.2735319
13500000000 -24.032286 18.66633 -50.723709 135.15178 -50.36898 129.31639 -7.615643 3.8139334
13510000000 -24.166529 21.679846 -50.614819 106.03098 -50.980618 103.36145 -7.614171 -1.7522402
13520000000 -23.882284 21.450586 -50.59766 85.968018 -50.501335 85.187553 -7.6331172 -7.3398633
13530000000 -23.806116 19.311655 -50.478416 70.463287 -50.159546 63.019894 -7.6882596 -12.977917
13540000000 -23.234184 14.757483 -48.766136 48.213688 -49.026642 45.602077 -7.8034854 -18.665274
13550000000 -23.866405 6.4372325 -48.560513 16.133297 -48.054813 15.584171 -7.9733648 -24.368952
13560000000 -24.679132 3.0379024 -48.972782 -8.8218908 -48.551147 -13.30502 -8.1492519 -30.204224
13570000000 -26.44766 5.1443148 -49.123619 -31.301336 -48.77494 -36.750801 -8.2792225 -36.049206
13580000000 -26.465401 8.8652897 -49.672016 -57.183582 -49.062206 -61.813354 -8.4128399 -41.640671
13590000000 -27.740921 16.962587 -50.810917 -66.481239 -50.310467 -77.943871 -8.5826101 -47.034939
13600000000 -26.253649 25.071672 -48.764961 -84.63356 -49.228848 -96.637032 -8.824585 -52.138557
13610000000 -25.440866 22.625977 -47.503647 -110.21056 -48.209641 -118.04686 -9.140317 -57.314503
13620000000 -25.504011 13.712153 -47.599731 -143.56676 -48.081219 -151.55661 -9.509429 -62.914658
13630000000 -26.665712 10.591301 -47.719376 -168.01895 -48.617214 -173.94722 -9.8868341 -68.924263
13640000000 -27.180197 3.5714114 -48.517723 167.73541 -49.456329 160.94391 -10.243541 -75.28434
13650000000 -29.547064 4.3545551 -48.906429 147.34552 -49.824482 140.85178 -10.569755 -81.507957
13660000000 -29.978559 14.827487 -48.586807 130.56412 -49.565262 126.12133 -10.858756 -87.528412
13670000000 -29.492311 22.511312 -48.52737 107.0023 -49.994839 100.20443 -11.164371 -93.369652
13680000000 -28.500553 23.773861 -48.333954 85.026207 -50.027718 84.351913 -11.531709 -99.108284
13690000000 -27.702946 25.018896 -47.686729 61.782681 -49.453281 63.267628 -11.951654 -105.10768
13700000000 -27.281851 21.056217 -47.29813 38.162304 -48.469391 39.726585 -12.399185 -111.74531
13710000000 -27.232445 19.819656 -46.998672 9.7463608 -48.421806 10.024911 -12.845287 -118.92511
13720000000 -27.891981 15.326441 -47.701702 -17.232061 -49.032021 -12.689963 -13.21114 -126.3821
13730000000 -28.813446 19.403118 -48.610931 -41.975796 -49.840378 -34.80011 -13.563918 -133.89156
13740000000 -29.029922 19.224274 -48.679695 -59.264847 -49.575237 -52.741898 -13.907257 -141.42282
13750000000 -30.126827 24.339067 -48.421318 -81.519096 -49.230198 -74.828178 -14.251107 -149.55083
13760000000 -29.405077 24.946283 -48.084103 -107.19873 -49.021935 -100.37992 -14.542626 -158.65698
13770000000 -29.921993 26.64658 -48.179798 -135.39796 -48.886501 -125.2533 -14.64358 -168.12654
13780000000 -28.79023 27.990093 -48.682762 -159.54147 -49.268288 -149.43314 -14.558549 -177.05824
13790000000 -27.586103 22.663883 -48.658215 178.05829 -48.738094 -171.75655 -14.414596 175.08574
13800000000 -27.680237 13.748055 -49.318436 149.79018 -49.15292 162.23584 -14.375322 167.63071
13810000000 -27.235886 12.558951 -49.303776 129.79002 -48.682362 137.90303 -14.438186 159.94949
13820000000 -27.47117 1.7099259 -49.894604 100.69847 -49.882111 110.0674 -14.472631 151.35205
13830000000 -28.438808 5.9766178 -50.040901 75.529808 -49.690319 84.811447 -14.31392 142.21022
13840000000 -28.684486 -1.273895 -51.188629 56.29549 -50.38607 70.703377 -13.952398 133.39874
13850000000 -30.206434 10.982794 -51.81197 30.100163 -49.891529 42.740627 -13.555812 125.55911
13860000000 -28.838621 11.484256 -51.800034 16.413649 -50.365112 24.122162 -13.16571 118.642
13870000000 -28.461689 10.135541 -50.843567 -12.153312 -49.140785 -3.154675 -12.833521 111.81089
13880000000 -28.085581 4.3037381 -50.542862 -42.639668 -48.963509 -35.690559 -12.501698 104.74425
13890000000 -27.276609 -0.51714331 -51.276569 -76.63559 -49.380737 -70.417534 -12.139201 97.855377
13900000000 -27.386709 -14.991102 -52.484451 -104.29572 -51.105839 -95.503799 -11.772064 91.528099
13910000000 -27.857052 -14.424634 -54.33572 -125.68143 -52.4538 -114.55481 -11.418385 85.600464
13920000000 -27.828646 -27.321177 -53.952633 -136.64644 -51.580185 -131.88907 -11.132329 79.73008
13930000000 -29.98769 -28.655235 -52.564812 -163.34091 -50.423813 -162.37798 -10.903761 73.525002
13940000000 -30.518057 -29.250238 -52.502541 167.2917 -50.676208 170.41626 -10.65447 67.041916
13950000000 -31.674332 -23.766985 -52.165668 136.47433 -50.050446 142.28256 -10.359305 60.64053
13960000000 -31.217863 -26.469999 -53.543346 98.329254 -51.221592 106.93838 -10.014915 54.466595
13970000000 -30.383577 -22.676546 -53.801174 82.447899 -50.664383 81.482567 -9.69487 48.744778
13980000000 -29.481197 -34.741936 -52.990726 54.428059 -50.722504 52.706974 -9.4618626 43.326126
13990000000 -28.135908 -43.089088 -53.241009 30.359543 -50.576324 28.777565 -9.3020725 37.927612
14000000000 -27.70092 -62.820782 -52.582157 -9.1586752 -50.15498 -6.3240328 -9.2136478 32.452728
14010000000 -28.099131 -69.500221 -53.797779 -37.645325 -50.716305 -38.421837 -9.1764154 26.499203
14020000000 -28.076782 -80.780457 -54.362652 -56.144024 -51.938194 -64.302483 -9.1584578 20.291182
14030000000 -30.122564 -87.914909 -53.220112 -83.894783 -51.366028 -87.292976 -9.1587019 14.09567
14040000000 -32.20496 -84.373215 -52.35191 -110.05128 -50.470097 -111.91293 -9.1911707 7.7221942
14050000000 -31.59425 -65.058762 -52.183567 -141.90715 -49.622963 -143.07265 -9.2609339 1.3707494
14060000000 -30.955872 -69.628395 -52.784348 -167.53224 -50.060326 -173.03522 -9.395359 -5.0681858
14070000000 -30.037014 -70.130257 -52.096531 172.31599 -50.467701 162.97237 -9.5789557 -11.752139
14080000000 -29.158276 -84.650803 -51.366535 138.38744 -49.377689 134.94708 -9.7992563 -18.504499
14090000000 -28.781765 -94.124352 -51.539783 114.99555 -49.392689 105.51003 -10.044388 -25.198397
14100000000 -28.008049 -117.43073 -51.23735 92.851669 -49.293133 81.149139 -10.317767 -31.772835
14110000000 -29.803732 -125.05251 -50.220638 66.577049 -49.216541 55.791996 -10.658836 -38.040913
14120000000 -29.459913 -133.9678 -50.333565 43.933052 -49.164932 32.584755 -11.113059 -44.440334
14130000000 -30.315292 -132.18048 -49.396645 11.652378 -48.447254 3.3198936 -11.699855 -51.248329
14140000000 -30.299719 -133.44904 -49.968319 -5.8663769 -48.984768 -18.906298 -12.324042 -58.55748
14150000000 -29.968008 -125.11666 -49.239075 -33.417797 -48.851383 -45.950024 -12.919481 -66.426247
14160000000 -28.229263 -132.6254 -49.552799 -55.721684 -48.805859 -65.582466 -13.482339 -73.95562
14170000000 -29.22958 -136.60739 -48.57373 -73.073143 -48.273796 -87.96093 -14.058374 -80.964729
14180000000 -28.714443 -139.92288 -47.385624 -101.82876 -47.571423 -115.14342 -14.772905 -88.1446
14190000000 -28.207632 -144.66454 -47.467815 -128.24318 -47.935848 -140.23563 -15.6771 -96.131332
14200000000 -28.072044 -153.61646 -47.487755 -153.85904 -48.272026 -162.58165 -16.615242 -105.63883
14210000000 -28.252468 -155.1274 -47.144989 -175.75839 -47.35247 176.30351 -17.418978 -116.64285
14220000000 -27.432211 -157.9243 -47.729122 162.1246 -48.176834 151.82414 -17.973269 -128.159
14230000000 -26.933428 -167.51326 -46.522984 141.54277 -47.337204 132.01372 -18.379913 -139.3194
14240000000 -27.930002 -175.21764 -45.850597 115.27146 -46.614914 108.96999 -18.766998 -150.46541
14250000000 -28.400505 -168.925 -45.602375 89.307533 -46.285484 83.374184 -19.032383 -162.30186
14260000000 -28.714006 -170.1057 -45.734104 64.39502 -46.760662 58.359226 -19.044687 -174.75235
14270000000 -28.928135 -163.17197 -45.392639 41.345303 -46.62035 37.793785 -18.794653 173.86505
14280000000 -28.298939 -163.37843 -45.599037 18.461628 -46.467327 15.710777 -18.408381 163.91318
14290000000 -26.813631 -162.28719 -45.154945 -2.6760416 -46.16053 -3.3042753 -18.061205 155.20178
14300000000 -26.259943 -175.69301 -44.577991 -28.2836 -45.279831 -29.427774 -17.816536 146.89914
14310000000 -26.419582 177.45073 -44.465481 -50.731911 -45.474407 -52.081268 -17.488932 138.19868
14320000000 -27.279261 165.34061 -44.823116 -78.351585 -45.383392 -77.097687 -17.001503 129.66339
14330000000 -28.040085 167.9496 -44.680546 -96.760483 -45.414497 -96.031677 -16.350508 121.76185
14340000000 -29.863953 163.0547 -44.216187 -120.74997 -44.95422 -118.82699 -15.656562 115.31049
14350000000 -29.636829 -175.27034 -43.670967 -143.68004 -44.342373 -142.17242 -15.029521 110.19121
14360000000 -28.499537 -172.06367 -43.744221 -174.23108 -44.247608 -170.88991 -14.502292 105.90659
14370000000 -26.658548 -172.15857 -44.422394 163.93312 -44.607548 167.56596 -14.094765 101.82227
14380000000 -26.144999 176.05319 -44.567635 142.56186 -44.424309 144.11436 -13.768731 97.609993
14390000000 -26.163774 171.00822 -44.361137 124.43579 -44.532692 124.19564 -13.458577 92.965782
14400000000 -27.219645 159.70668 -43.671867 101.44663 -44.02404 103.6535 -13.114276 88.198441
14410000000 -28.75942 157.2953 -43.671715 74.39695 -43.593761 77.31588 -12.73245 83.58844
14420000000 -30.867619 163.63063 -43.754326 52.417355 -43.539497 54.107262 -12.318765 79.266464
14430000000 -30.031521 178.81451 -43.724525 28.211765 -43.498856 28.31284 -11.94126 75.443336
14440000000 -28.672789 -174.99492 -43.899994 4.6222582 -43.960663 4.4238 -11.613532 71.778542
14450000000 -26.419909 -177.75563 -43.673553 -16.683573 -43.699665 -14.92452 -11.318284 68.121284
14460000000 -26.16271 172.80655 -43.903522 -41.564621 -43.77417 -40.429058 -11.048687 64.37841
14470000000 -25.983131 168.7717 -44.333172 -62.369595 -44.010651 -61.301277 -10.80027 60.673649
14480000000 -27.153482 166.02599 -44.023338 -82.816383 -43.83704 -82.762047 -10.569654 57.164902
14490000000 -27.705774 166.92099 -43.962208 -107.78867 -43.815376 -106.90807 -10.40811 53.688248
14500000000 -28.795307 177.61931 -43.905884 -129.64664 -43.880917 -129.73607 -10.306341 50.129017
14510000000 -27.804066 -179.00436 -43.942375 -151.71912 -43.752678 -150.80609 -10.233851 46.016575
14520000000 -27.077841 -171.70854 -43.851395 -174.37885 -43.431465 -173.22264 -10.151447 41.294525
14530000000 -25.900234 179.04694 -43.89286 162.26451 -43.521431 161.76489 -10.02851 36.450752
14540000000 -26.13608 179.84019 -43.596497 141.1402 -43.328014 142.87192 -9.8919859 32.146023
14550000000 -25.314026 173.31322 -43.424595 117.94109 -42.944965 118.89606 -9.785305 28.353069
14560000000 -25.990368 175.92372 -43.433163 89.402428 -42.895546 90.581451 -9.7646036 24.843391
14570000000 -24.868687 172.68764 -44.202049 69.811981 -43.600323 69.384178 -9.8555984 21.042675
14580000000 -25.211922 174.63908 -44.227036 47.041447 -43.520916 45.939083 -10.050964 16.752911
14590000000 -24.777819 171.4942 -44.672512 27.763451 -43.983845 24.091391 -10.288179 12.368885
14600000000 -24.708151 177.06354 -43.983471 6.4448934 -43.215965 4.0817304 -10.54015 7.7694197
14610000000 -24.241266 173.22095 -43.814896 -19.476801 -43.121937 -23.239511 -10.847295 3.539459
14620000000 -24.458614 178.01277 -44.111378 -47.078686 -43.311131 -50.565582 -11.229645 -0.56694084
14630000000 -23.59407 177.01651 -45.173687 -68.192688 -44.310539 -74.398697 -11.661138 -4.9190373
14640000000 -23.00913 176.96417 -45.252636 -86.701538 -44.699814 -93.342659 -12.178301 -9.7566929
14650000000 -22.102772 170.53598 -45.321106 -105.61895 -44.903782 -113.20319 -12.717597 -14.25562
14660000000 -22.1392 165.56087 -44.5695 -127.07847 -44.394764 -133.02948 -13.235617 -18.07073
14670000000 -22.500294 161.34521 -44.037651 -151.33922 -44.043846 -159.52246 -13.817196 -20.673481
14680000000 -22.578037 162.2462 -44.064201 177.81894 -44.151142 171.51118 -14.521148 -22.408043
14690000000 -23.010147 161.25998 -45.621975 151.49031 -45.658531 142.61653 -15.465059 -23.547079
14700000000 -22.907148 168.12857 -46.7714 135.59642 -47.175343 129.68425 -16.596437 -23.950815
14710000000 -21.846771 170.58023 -46.692783 124.80914 -47.381573 117.37507 -17.912806 -23.910419
14720000000 -20.79402 167.53262 -45.135181 101.47643 -45.810181 96.537529 -19.280415 -23.818253
14730000000 -20.427118 160.07828 -44.642792 71.9571 -45.164658 68.125389 -20.826014 -23.038244
14740000000 -20.460646 154.99664 -45.678761 41.566452 -46.109459 36.351952 -22.425432 -20.977156
14750000000 -20.662605 149.4964 -46.828468 19.446257 -47.61528 14.42655 -23.848783 -15.836061
14760000000 -21.243189 145.66949 -47.576607 2.5555017 -48.717609 -2.5191069 -24.719 -7.9434409
14770000000 -22.112009 146.68042 -47.004341 -13.336815 -47.789864 -14.298634 -24.916483 1.7024478
14780000000 -21.732925 152.6355 -46.961483 -41.343384 -47.718342 -42.709293 -24.638762 14.197313
14790000000 -20.969854 152.42133 -47.496906 -63.733746 -47.950401 -62.702259 -23.78083 26.11311
14800000000 -20.284119 151.85257 -47.799248 -83.547417 -48.618027 -85.753555 -22.747917 35.457325
14810000000 -19.774939 148.69101 -48.702103 -108.54595 -49.616314 -106.81685 -21.782207 41.904545
14820000000 -19.330914 143.9451 -48.64378 -123.53088 -49.358345 -120.96442 -20.852917 45.229626
14830000000 -19.724068 137.45981 -48.365963 -146.7193 -48.822102 -145.31847 -20.067438 46.875591
14840000000 -20.478832 134.54897 -47.968761 -172.79265 -48.414684 -170.33286 -19.273247 47.537628
14850000000 -21.021822 135.59053 -49.330742 157.25627 -49.756893 158.45294 -18.61381 47.982788
14860000000 -21.136507 134.90965 -50.822128 140.56296 -51.412945 144.59023 -18.100605 48.355217
14870000000 -21.574896 135.07137 -51.112003 127.81449 -51.314434 134.26678 -17.716663 47.581463
14880000000 -21.316732 135.65015 -50.643749 107.73373 -50.968815 111.84892 -17.457695 44.950912
14890000000 -20.732285 135.27321 -50.442238 86.189362 -50.286785 90.934578 -17.06044 41.255039
14900000000 -20.211142 129.62057 -50.032406 58.722717 -50.058109 62.574757 -16.502956 37.203205
14910000000 -20.258396 127.00861 -51.790867 30.55759 -51.748398 35.001335 -15.913756 34.99752
14920000000 -20.129993 122.4555 -52.597542 10.741859 -52.959698 17.07723 -15.372719 34.272072
14930000000 -20.551813 120.53085 -54.023075 -10.574479 -53.888912 0.50800163 -15.061129 33.80336
14940000000 -21.014578 116.47662 -55.401234 -12.192304 -53.472038 -5.0963516 -15.020501 32.672195
14950000000 -21.859922 120.85709 -55.06757 -50.747383 -53.31094 -43.826542 -15.158264 30.536089
14960000000 -21.975836 119.56776 -55.583374 -49.992237 -53.766178 -51.243431 -15.267819 27.754728
14970000000 -22.404158 125.46895 -56.976719 -88.554764 -54.821945 -84.559349 -15.316339 25.108511
14980000000 -22.160315 124.34821 -57.3251 -76.784698 -54.85191 -84.365303 -15.296151 22.806734
14990000000 -21.535093 125.17245 -56.156403 -117.99834 -53.957432 -117.35283 -15.38011 20.519939
15000000000 -21.507168 115.56029 -59.781769 -139.71341 -56.013485 -150.70702 -15.629716 17.943197
15010000000 -22.045479 113.91271 -62.795639 -130.06285 -61.06147 -159.23285 -15.895599 14.928854
15020000000 -22.528778 108.16202 -63.290161 -129.78027 -62.775185 -152.53297 -15.963386 11.405423
15030000000 -23.085648 108.04813 -59.585857 -123.59468 -59.856621 -157.00099 -15.926212 9.1450129
15040000000 -24.453327 105.77881 -55.694027 -142.16299 -57.6394 -162.14648 -15.833442 8.8196955
15050000000 -24.770832 119.77026 -54.391621 -163.67233 -56.939796 -177.61557 -15.903706 9.9017248
15060000000 -23.993666 123.83946 -52.983109 164.17995 -55.40202 155.69537 -16.235533 11.155839
15070000000 -23.049667 123.4978 -52.936424 142.2005 -54.977318 136.60703 -16.818602 11.27089
15080000000 -23.24008 121.05984 -53.266937 121.31162 -55.446587 115.18215 -17.526041 10.461715
15090000000 -22.604239 118.57925 -51.297966 103.21923 -53.913544 100.95016 -18.049288 8.8973322
15100000000 -23.626867 110.52399 -51.007595 84.433342 -53.08955 89.768044 -18.335596 7.5641775
15110000000 -24.834099 111.38611 -49.362301 58.45649 -51.084152 63.517284 -18.4582 6.6281757
15120000000 -26.310446 117.64622 -49.315952 28.333918 -50.67255 38.169743 -18.644569 6.9505067
15130000000 -25.565346 122.75164 -49.073597 15.549482 -50.15797 21.145372 -18.764601 7.4852085
15140000000 -25.688023 129.41351 -48.298454 -9.832737 -49.319538 -3.7022371 -18.809906 7.6925135
15150000000 -24.229706 131.38979 -47.794128 -34.047409 -48.913696 -25.980778 -18.809067 7.7919159
15160000000 -23.577738 128.84692 -47.046486 -61.101391 -47.591866 -50.04372 -18.793491 9.2143688
15170000000 -23.046438 123.47261 -47.422913 -85.604408 -47.437737 -74.684639 -18.700455 11.343019
15180000000 -23.613504 120.9677 -47.51173 -114.04128 -47.39175 -103.71212 -18.798262 13.142017
15190000000 -23.446636 121.00713 -48.313908 -126.91917 -47.52039 -116.95584 -19.041458 13.933773
15200000000 -24.276453 120.72637 -47.792484 -145.98883 -46.621105 -138.2872 -19.494207 13.32419
15210000000 -24.348127 123.38866 -45.883495 -167.62564 -44.993641 -161.45596 -19.908758 11.81685
15220000000 -24.679806 130.22755 -45.739132 157.94897 -44.5285 163.14206 -20.204321 8.9092045
15230000000 -23.59956 130.83775 -46.360065 132.91028 -45.1772 136.13525 -20.362343 6.1468749
15240000000 -23.391603 130.97905 -46.961136 108.90277 -45.603119 113.08733 -20.442604 3.1097417
15250000000 -22.740553 127.57243 -47.791019 90.678612 -46.20388 90.966034 -20.613955 0.16488375
15260000000 -22.568329 125.70425 -47.394081 71.5485 -45.891766 70.31559 -20.78092 -1.6333483
15270000000 -22.154663 120.33299 -47.363598 48.338249 -45.690495 47.697853 -21.014576 -2.0684226
15280000000 -22.47086 114.9994 -47.248127 27.74276 -45.60112 23.028194 -21.331818 -1.3076586
15290000000 -22.986227 113.6676 -46.647278 4.9749556 -45.414612 -0.48342463 -22.140184 -1.0733269
15300000000 -23.308186 112.56681 -46.611992 -20.663456 -45.289185 -27.121653 -23.584398 -0.28278381
15310000000 -23.917229 115.96264 -47.271263 -44.464493 -46.093933 -52.783848 -25.632374 -1.2022036
15320000000 -23.527767 120.03915 -47.219917 -62.71397 -46.32275 -72.365517 -28.3542 -2.4637043
15330000000 -23.005421 122.21844 -48.331226 -89.714737 -47.189556 -100.86443 -31.109037 -5.6615853
15340000000 -22.202559 117.9953 -48.519009 -101.61872 -47.970867 -116.59292 -34.560829 -9.774353
15350000000 -22.060509 115.00084 -47.792122 -120.31538 -47.975739 -134.5394 -41.539871 -1.1873764
15360000000 -21.910185 107.09075 -47.166096 -144.1626 -47.741661 -157.20099 -43.408321 108.68671
15370000000 -22.718849 102.27785 -47.004433 -162.67163 -48.092178 -174.63597 -34.646992 129.35533
15380000000 -23.227962 95.980728 -47.075043 169.53709 -47.945587 160.47458 -30.722849 130.69962
15390000000 -24.970367 97.488861 -46.632664 150.46672 -47.798031 142.00571 -28.227163 127.06921
15400000000 -25.21298 101.68201 -46.564663 124.61978 -47.693565 116.59234 -25.773214 123.09385
15410000000 -25.042749 106.48833 -46.785599 101.46013 -48.466309 93.694801 -23.363525 117.99694
15420000000 -24.587952 106.22019 -46.976349 80.000694 -49.078781 77.657166 -21.248981 116.64066
15430000000 -23.85467 105.43666 -46.947342 59.858562 -48.61475 61.034237 -19.491081 116.46937
15440000000 -23.596111 96.571526 -46.83012 42.25993 -48.002594 42.423275 -18.319981 116.45998
15450000000 -24.141781 90.866669 -46.353928 16.397327 -47.583916 18.089945 -17.645063 115.80647
15460000000 -24.890606 83.274803 -46.12574 -7.0767999 -47.504997 -5.9869022 -17.229095 113.84229
15470000000 -26.458647 79.753563 -45.636921 -32.973244 -47.288662 -27.488487 -16.789347 110.59991
15480000000 -28.111027 78.33181 -45.63789 -60.849022 -46.848209 -54.919815 -16.158392 106.49651
15490000000 -29.479809 87.162781 -46.773125 -88.953064 -47.828011 -79.637093 -15.447839 102.43531
15500000000 -29.369257 90.519409 -47.766273 -106.23959 -48.448505 -95.892273 -14.769982 99.017799
15510000000 -29.132961 95.238235 -47.685257 -126.40083 -48.045582 -117.97698 -14.149783 95.95063
15520000000 -28.730116 91.873474 -48.069458 -149.81755 -48.402214 -138.63521 -13.613765 93.280258
15530000000 -28.048777 85.316856 -47.584522 -167.37817 -47.42469 -157.6514 -13.108123 90.872665
15540000000 -29.451656 70.371429 -47.785271 164.36319 -46.960346 175.62216 -12.632303 88.765846
15550000000 -31.193953 67.952858 -48.151527 141.45761 -47.064934 148.50058 -12.200223 86.965561
15560000000 -33.505379 54.284096 -48.504326 119.71268 -47.527657 124.95615 -11.876038 84.964783
15570000000 -39.630432 56.298485 -49.009842 93.984016 -47.973145 100.11762 -11.661501 82.893738
15580000000 -49.654415 82.71701 -50.159901 71.076904 -48.646194 76.631653 -11.496194 80.565575
15590000000 -39.636265 129.40936 -50.672356 55.020908 -48.854782 58.838802 -11.326191 77.55481
15600000000 -44.074619 119.71206 -50.437786 33.55801 -48.565117 32.807125 -11.162809 74.176491
15610000000 -41.337944 143.81941 -51.375721 12.537754 -49.784393 6.225307 -10.936929 70.596657
15620000000 -47.038021 131.57314 -52.458847 -9.9125376 -51.018578 -12.636774 -10.657148 67.120316
15630000000 -50.747437 150.04398 -52.343529 -21.703112 -50.838436 -26.856573 -10.359959 63.955044
15640000000 -41.580788 -90.975624 -52.164993 -42.847954 -50.427414 -50.678352 -10.071832 61.584332
15650000000 -36.116814 -131.46979 -51.795864 -59.160789 -50.133743 -71.435905 -9.7979994 59.652367
15660000000 -35.624897 -130.51688 -51.608364 -89.266159 -50.546165 -107.22149 -9.624279 57.565994
15670000000 -33.310822 -135.59587 -52.641731 -119.4136 -52.977962 -133.79462 -9.5675411 55.148067
15680000000 -31.081425 -131.56458 -54.233627 -129.65193 -55.094517 -140.00653 -9.5716114 52.20084
15690000000 -29.755079 -146.37828 -53.666859 -140.60326 -54.03825 -149.28906 -9.5600471 48.7869
15700000000 -29.550554 -143.9996 -53.261639 -154.8712 -53.364426 -167.97275 -9.5302191 45.024189
15710000000 -28.766813 -146.84143 -51.34544 177.308 -52.757114 165.45576 -9.4714794 41.717819
15720000000 -27.734541 -148.07216 -52.121273 152.28014 -54.204548 145.88864 -9.3589315 38.320148
15730000000 -28.785805 -151.64951 -52.003117 123.46122 -53.264095 123.40536 -9.315258 34.398659
15740000000 -28.018017 -140.37219 -53.315845 97.081451 -53.553566 95.697205 -9.2837763 30.288116
15750000000 -27.132526 -140.9724 -53.747398 82.118988 -54.457485 77.09156 -9.2272301 26.245396
15760000000 -25.928434 -140.97737 -54.532444 58.911522 -55.346771 50.529076 -9.1278429 22.617125
15770000000 -25.166533 -143.43477 -55.724697 42.580997 -57.452862 43.213818 -9.0958071 19.688087
15780000000 -24.054205 -146.58743 -54.659054 22.477943 -55.540104 30.197083 -9.1847477 17.085344
15790000000 -23.798004 -155.44783 -55.536488 -0.68416482 -55.115406 -2.8914907 -9.4590511 13.952579
15800000000 -24.035566 -157.32712 -54.331017 -26.548775 -55.067413 -31.187572 -9.8426971 9.6475182
15810000000 -24.419506 -158.70329 -56.454468 -72.434959 -57.382149 -76.416687 -10.247937 3.7577205
15820000000 -24.22267 -153.17374 -60.323483 -80.780197 -63.033012 -83.527939 -10.575726 -2.9095592
15830000000 -23.905478 -150.98627 -62.599918 -83.167831 -62.822567 -62.446945 -10.779105 -9.509841
15840000000 -22.86718 -144.75806 -62.962421 -120.00734 -62.526962 -111.20054 -11.006742 -15.243268
15850000000 -21.970566 -150.72267 -65.87278 -112.83604 -70.339577 -118.11829 -11.273623 -20.506529
15860000000 -21.649364 -151.77684 -69.007698 -94.988281 -67.425293 -61.380802 -11.683619 -25.573427
15870000000 -21.5734 -157.48682 -62.592113 -63.474552 -60.598686 -58.575485 -12.208508 -30.669147
15880000000 -21.820744 -157.47571 -57.56226 -113.43435 -56.191566 -105.76196 -12.885856 -35.875534
15890000000 -22.19055 -160.03638 -61.36121 -142.1413 -58.918884 -141.4108 -13.670938 -40.792072
15900000000 -22.266457 -154.28044 -58.568321 -148.56418 -57.833488 -148.41344 -14.672607 -46.606869
15910000000 -21.555567 -153.10289 -57.21312 -165.38623 -56.062214 -162.66769 -15.876902 -53.802628
15920000000 -20.608461 -153.97659 -55.443909 170.47987 -53.304607 169.61046 -17.250284 -63.370094
15930000000 -20.501324 -157.03745 -55.211308 153.75984 -53.55188 143.67505 -18.60454 -75.535866
15940000000 -20.099361 -155.9915 -53.444088 130.871 -52.820992 124.52543 -19.696465 -89.703461
15950000000 -19.834457 -158.5593 -52.864479 106.85255 -52.932472 99.677444 -20.446753 -103.82207
15960000000 -19.980473 -158.69081 -51.270012 83.859962 -50.956909 78.55584 -20.962133 -117.45992
15970000000 -19.945396 -155.15572 -50.915169 61.311337 -50.574024 54.693302 -21.494122 -130.55435
15980000000 -19.387476 -153.46956 -49.479626 31.611406 -49.491295 26.13446 -22.107082 -144.25653
15990000000 -19.00423 -154.28893 -50.162949 5.7360682 -50.14698 -1.0457566 -22.780516 -161.03598
16000000000 -18.796461 -155.33066 -50.263645 -16.1441 -50.336998 -21.516356 -22.909222 179.17506
16010000000 -18.558222 -156.38159 -50.329723 -37.937328 -50.645542 -43.538483 -21.964371 160.21024
16020000000 -18.50248 -157.48242 -48.77951 -56.57597 -49.337765 -60.154438 -20.46888 147.25876
16030000000 -18.374945 -156.50951 -48.119095 -85.087723 -48.495926 -87.06366 -19.043461 139.20866
16040000000 -17.993662 -155.82498 -48.635704 -108.08918 -48.687393 -110.9773 -18.046144 133.57593
16050000000 -17.541851 -155.90247 -48.000969 -135.0569 -48.525669 -136.64719 -17.400488 128.6472
16060000000 -17.038073 -156.15192 -48.573326 -157.46324 -48.736069 -159.09869 -16.968636 123.82924
16070000000 -16.568964 -157.10532 -48.088978 -177.28491 -48.691666 -179.96948 -16.474403 118.79721
16080000000 -16.295849 -158.6129 -47.540554 156.3385 -47.95892 156.877 -16.006987 113.96832
16090000000 -16.246733 -159.44215 -47.512802 128.00815 -47.598385 129.73495 -15.643887 109.4335
16100000000 -16.108137 -158.22777 -48.178825 102.96793 -48.044758 103.33301 -15.393552 104.72923
16110000000 -15.977458 -158.46423 -48.891811 85.442184 -48.828594 83.148796 -15.103044 99.454437
16120000000 -15.531711 -157.09538 -48.399487 61.684872 -48.583866 60.616074 -14.682952 94.017258
16130000000 -15.099649 -158.31599 -48.547668 41.830265 -48.527306 44.087242 -14.11552 89.501923
16140000000 -14.706009 -158.83902 -47.77243 19.625628 -47.463657 18.895401 -13.513123 86.57164
16150000000 -14.350782 -161.9306 -47.704521 -8.4296236 -47.263962 -10.72183 -13.069715 84.777657
16160000000 -14.158489 -162.82487 -48.724663 -32.719963 -48.834106 -36.711205 -12.859325 83.273438
16170000000 -13.914317 -164.53139 -48.575367 -54.118462 -48.71244 -54.931259 -12.845014 80.988808
16180000000 -13.697621 -164.33556 -48.986614 -76.569069 -48.725788 -75.631119 -12.917877 77.637672
16190000000 -13.437086 -165.26945 -49.286053 -98.829971 -48.766926 -100.8951 -12.941101 73.433357
16200000000 -13.219323 -164.32333 -48.966213 -115.14738 -48.403015 -119.00813 -12.856948 69.210495
16210000000 -12.826302 -165.54474 -48.680172 -137.25113 -48.612633 -143.49609 -12.734376 65.276611
16220000000 -12.614872 -165.3533 -47.777287 -163.44498 -48.247746 -169.02527 -12.603471 61.524513
16230000000 -12.257887 -167.37766 -48.049309 166.67177 -48.623955 166.86819 -12.473454 57.397217
16240000000 -12.139877 -167.76073 -48.719879 139.60208 -48.903412 137.18604 -12.322102 53.361095
16250000000 -11.817275 -170.16191 -49.890984 114.09898 -49.933205 111.16244 -12.0773 49.959511
16260000000 -11.71229 -171.39702 -50.916851 98.186966 -51.118195 90.284019 -11.894722 47.304111
16270000000 -11.472673 -173.45093 -50.822472 85.349609 -51.98732 83.50885 -11.841887 45.182796
16280000000 -11.362912 -174.6512 -49.670498 61.698273 -50.610054 61.628906 -11.974162 42.526344
16290000000 -11.131681 -175.72295 -49.339359 32.310581 -49.896458 32.88118 -12.29976 38.757526
16300000000 -10.993665 -175.70999 -50.168755 5.6004105 -50.927994 2.4925022 -12.638114 33.732567
16310000000 -10.61557 -176.34477 -51.626114 -16.639429 -52.874165 -15.586792 -12.877457 27.542847
16320000000 -10.381059 -176.72328 -50.975052 -32.342224 -51.820683 -28.555681 -13.058086 21.228537
16330000000 -9.9926624 -177.98196 -51.837959 -57.075161 -52.356449 -53.435627 -13.223624 15.472076
16340000000 -9.8040724 -179.62233 -52.005959 -85.948402 -52.642757 -77.538078 -13.414472 9.6265764
16350000000 -9.6672344 178.07848 -53.367397 -103.00041 -53.247646 -95.58371 -13.639259 4.0759254
16360000000 -9.7041712 176.5083 -53.018524 -129.17319 -53.494232 -119.1265 -13.901656 -1.4491788
16370000000 -9.6655054 175.5591 -54.506771 -151.55508 -54.548813 -142.37263 -14.247376 -6.2671762
16380000000 -9.5730639 174.75093 -57.004269 -157.08034 -55.470234 -141.09785 -14.842612 -10.961336
16390000000 -9.4265633 174.1619 -55.513309 -172.05334 -53.053364 -164.55614 -15.749867 -16.457056
16400000000 -9.155098 173.9845 -53.896 167.39546 -51.38036 169.34239 -16.857069 -24.453325
16410000000 -8.7726593 172.68149 -54.312649 134.16406 -52.534889 136.96194 -17.865475 -35.36116
16420000000 -8.4959497 170.83725 -55.748695 106.3123 -53.748653 111.5154 -18.588562 -47.86079
16430000000 -8.3041906 169.00162 -60.251835 85.596931 -55.580841 91.27002 -19.211754 -59.461975
16440000000 -8.2307673 167.66417 -57.290321 118.5463 -54.125931 90.203979 -19.810686 -69.783379
16450000000 -8.1990557 166.16806 -54.751862 85.905846 -53.947018 65.517242 -20.487774 -81.407791
16460000000 -8.2387867 166.01581 -53.434517 52.901314 -52.934772 36.326595 -21.029255 -94.732887
16470000000 -8.1464014 165.86497 -55.917557 29.228283 -54.903233 13.579352 -21.2981 -108.20049
16480000000 -7.9507508 165.55154 -54.803093 22.841703 -54.621231 -0.18689924 -21.607031 -121.00809
16490000000 -7.7302251 164.38368 -52.993534 3.5248654 -54.369179 -18.670113 -22.001099 -134.69977
16500000000 -7.5365462 163.40356 -51.144661 -22.472677 -52.946747 -34.845058 -22.164797 -151.77339
16510000000 -7.2608452 161.32834 -51.199669 -58.745556 -52.241268 -72.197121 -21.347763 -168.71774
16520000000 -7.1673059 159.55269 -52.463657 -85.141945 -54.214821 -97.483932 -19.919964 179.16963
16530000000 -7.0676041 157.84381 -52.438465 -105.03772 -54.711872 -117.02341 -18.659771 172.80463
16540000000 -7.045732 157.3511 -52.336544 -116.47694 -54.959827 -120.99799 -17.893211 168.80112
16550000000 -6.9032865 156.71269 -50.179676 -140.46028 -53.147789 -140.80315 -17.549377 164.68999
16560000000 -6.8325663 156.56996 -49.416191 -173.06787 -51.604141 -169.36823 -17.34918 158.89749
16570000000 -6.6357336 156.18585 -49.405022 152.16335 -51.32761 155.93794 -17.040762 152.63501
16580000000 -6.4239821 155.77289 -50.065464 122.94591 -52.095989 125.96436 -16.533527 146.4906
16590000000 -6.2052069 154.17778 -51.77174 94.307549 -53.686218 101.13818 -16.044216 141.02859
16600000000 -6.0889497 152.75598 -52.101528 78.888733 -54.281197 85.545891 -15.645304 136.17154
16610000000 -5.9459624 151.07629 -51.837631 52.744888 -54.073921 69.15062 -15.318057 131.23378
16620000000 -5.8901606 149.52036 -53.157631 26.479572 -54.254082 46.319241 -14.898492 126.67195
16630000000 -5.8123136 148.34395 -53.341011 10.955521 -52.956524 28.036272 -14.304518 123.07517
16640000000 -5.6922264 147.93848 -52.635326 -16.850714 -52.550453 -9.6298323 -13.750405 120.37119
16650000000 -5.4830179 147.06163 -52.168442 -46.071571 -52.876087 -34.21701 -13.400353 118.51221
16660000000 -5.3066883 146.50259 -52.996407 -77.052704 -53.364506 -62.050419 -13.290921 116.83904
16670000000 -5.0570345 145.57953 -54.875973 -102.51918 -53.904949 -82.434944 -13.388272 114.13931
16680000000 -4.8562388 144.29605 -55.695225 -128.0506 -54.006691 -113.44814 -13.472137 110.2355
16690000000 -4.721446 142.89752 -57.151611 -151.38185 -55.410583 -140.76196 -13.451468 105.33956
16700000000 -4.6229582 141.72177 -59.156681 -165.56873 -57.450497 -152.14905 -13.24852 100.55657
16710000000 -4.4951129 140.44125 -59.133896 176.81422 -56.731049 -164.46049 -12.958604 96.528282
16720000000 -4.4154792 139.22633 -58.364952 161.66338 -54.542866 168.39931 -12.647597 93.262222
16730000000 -4.271574 138.06953 -58.893955 124.31089 -54.532616 128.49782 -12.408384 90.394943
16740000000 -4.1250429 137.01709 -59.994713 104.11394 -56.49501 99.047585 -12.249803 87.640999
16750000000 -3.9445832 135.59952 -60.756477 97.639656 -57.746567 80.871353 -12.178711 85.314995
16760000000 -3.7886584 134.41811 -58.517559 60.895248 -56.863712 55.467407 -12.160722 83.187904
16770000000 -3.6039 132.98103 -59.574928 22.701509 -57.353756 23.529423 -12.234942 80.65242
16780000000 -3.4592216 131.76845 -65.969734 -9.3353891 -59.294781 -9.8623219 -12.383839 77.494141
16790000000 -3.3212817 130.2525 -64.436226 -10.507597 -59.115326 -29.786671 -12.596824 73.40847
16800000000 -3.215194 129.0078 -64.967453 -12.982078 -61.858212 -55.266788 -12.814541 68.405869
16810000000 -3.100405 127.57791 -61.076164 -37.315109 -63.332657 -62.868259 -12.953347 62.874336
16820000000 -3.0084391 126.22076 -60.602951 -75.887787 -59.272411 -95.831871 -13.022663 57.130451
16830000000 -2.8976064 124.70505 -61.185505 -117.34735 -59.260273 -133.43982 -13.020597 51.722301
16840000000 -2.7779207 123.44408 -63.180653 -156.0932 -60.0257 -179.12656 -12.963234 47.182865
16850000000 -2.6326549 121.82333 -62.942947 170.42496 -60.582394 139.08701 -12.936798 43.451927
16860000000 -2.4909678 120.35126 -64.081787 126.66312 -63.536217 95.93174 -13.035081 40.224289
16870000000 -2.3605456 118.66325 -68.071457 49.865658 -64.869453 40.911968 -13.402124 37.155701
16880000000 -2.2435229 117.25319 -79.09111 6.189579 -70.796295 17.647629 -13.981456 33.650021
16890000000 -2.1334851 115.68136 -85.031464 128.02556 -71.677902 0.66894954 -14.745185 28.214958
16900000000 -2.050745 114.43546 -70.423332 71.574821 -70.879654 7.3034267 -15.552616 20.48472
16910000000 -1.9609537 113.02783 -65.267654 -3.1984606 -64.663559 -34.097801 -16.244808 11.066795
16920000000 -1.8844421 111.81171 -65.354904 -76.785843 -64.081818 -103.32291 -16.758959 0.93492633
16930000000 -1.7794708 110.29993 -64.25824 -116.33492 -64.957146 -133.55437 -17.178392 -8.6836691
16940000000 -1.6946813 108.7842 -66.005737 -163.52548 -65.416145 -173.92516 -17.698954 -17.421963
16950000000 -1.5918816 107.0326 -65.10569 163.25064 -64.126083 163.27245 -18.35099 -26.098015
16960000000 -1.5102929 105.30463 -65.225327 127.9276 -63.113445 131.31943 -19.231752 -34.830597
16970000000 -1.4244733 103.57327 -65.380959 100.00205 -63.179176 85.823143 -20.28738 -44.792484
16980000000 -1.3511066 101.97295 -63.522762 72.724785 -63.06958 56.336327 -21.624628 -58.19458
16990000000 -1.2678609 100.41494 -66.09552 26.88562 -64.762932 7.7722979 -22.824949 -76.17646
17000000000 -1.186783 99.018036 -67.628548 14.861716 -66.803535 16.0275 -23.162865 -99.251656
