!Keysight Technologies,P9374A,MY57211807,A.19.30.04
!Date: Friday, May 08, 2026 15:21:16
!Correction: S11(C  2-Port  ) 
!S21(C  2-Port  ) 
!S12(C  2-Port  ) 
!S22(C  2-Port  ) 
!S2P File: Measurements: S11, S21, S12, S22:
# Hz S  dB   R 50
13000000000 -18.683043 55.970245 -41.374249 86.048576 -40.878441 86.858665 -8.3643179 -55.494667
13010000000 -19.212387 56.069824 -40.837273 60.399666 -40.373314 59.442852 -8.5415363 -60.007298
13020000000 -19.700787 58.689262 -41.462246 35.069355 -41.04401 34.256512 -8.738925 -64.461037
13030000000 -19.842964 62.386845 -41.597462 14.914891 -41.484695 14.618151 -8.9492245 -68.838875
13040000000 -19.914343 65.264923 -41.470444 -6.9503546 -41.166866 -4.9218688 -9.1685486 -73.230347
13050000000 -19.42012 66.989899 -41.669712 -29.939438 -41.14045 -28.794077 -9.4106741 -77.943085
13060000000 -19.220285 63.619621 -41.870438 -48.904415 -41.140343 -49.597141 -9.6944237 -83.137642
13070000000 -19.388262 61.257175 -41.268963 -71.523384 -40.871326 -73.259232 -9.9721241 -88.654381
13080000000 -19.539724 59.041824 -41.256573 -94.246056 -41.055874 -95.096077 -10.180243 -94.000504
13090000000 -19.768612 57.630936 -41.289051 -118.7123 -41.074501 -118.43872 -10.339208 -99.032494
13100000000 -19.920977 59.065948 -41.350502 -139.71191 -41.077248 -138.59978 -10.523012 -103.83751
13110000000 -20.027729 59.620934 -41.375942 -161.75043 -40.966976 -161.09555 -10.779457 -108.76648
13120000000 -19.950253 63.166424 -41.273991 175.61249 -41.122158 174.86786 -11.06613 -114.2101
13130000000 -19.402142 63.325336 -41.006817 153.10187 -40.709255 154.08748 -11.345353 -120.50952
13140000000 -19.189102 63.134819 -41.068573 127.65805 -40.865414 127.84347 -11.573709 -126.60335
13150000000 -19.09321 60.832138 -41.898685 104.6411 -41.42366 105.25354 -11.748999 -132.33961
13160000000 -19.267168 60.695385 -41.965611 87.480881 -41.723656 87.608482 -11.936756 -137.9803
13170000000 -19.235344 59.596256 -41.25301 67.686203 -40.989059 68.691658 -12.194722 -144.1916
13180000000 -19.295103 57.212627 -40.868633 42.609447 -40.564938 42.540318 -12.456839 -151.45915
13190000000 -19.55167 56.343357 -40.601093 17.08452 -40.356621 17.492947 -12.608442 -159.30348
13200000000 -19.436832 55.291069 -41.047173 -8.8532286 -40.692219 -8.3555593 -12.630096 -166.83287
13210000000 -19.614719 54.051006 -41.607849 -30.77297 -41.334061 -29.960749 -12.568759 -173.43001
13220000000 -19.403099 53.485294 -41.798149 -51.461643 -41.403156 -50.929138 -12.569299 -179.62672
13230000000 -19.73287 53.044891 -41.642139 -70.946983 -41.296291 -71.598633 -12.69192 173.71556
13240000000 -19.384657 55.363888 -41.250759 -93.91861 -40.987106 -94.845932 -12.856025 165.9852
13250000000 -19.048279 54.358894 -41.078671 -118.84733 -41.001194 -118.44301 -12.842399 157.66129
13260000000 -18.784487 52.205719 -41.033924 -143.13266 -40.676476 -142.46263 -12.583115 149.54683
13270000000 -18.84639 48.521866 -41.246414 -169.12164 -40.884518 -168.60931 -12.226407 142.25476
13280000000 -19.025482 45.633415 -41.872658 167.88954 -41.370567 167.21391 -11.948893 135.82245
13290000000 -19.666996 42.915119 -41.932354 147.67349 -41.610897 145.35907 -11.805127 129.51591
13300000000 -19.865297 42.133354 -41.901207 127.12798 -41.904205 125.04922 -11.734912 122.88396
13310000000 -20.679256 41.101612 -41.44862 101.69608 -41.367371 101.54525 -11.572103 115.90974
13320000000 -20.273394 45.416035 -41.430038 76.116234 -41.333351 76.651314 -11.246316 108.93103
13330000000 -20.039452 43.641117 -42.09716 50.27235 -41.629642 50.800694 -10.860661 102.36266
13340000000 -19.444666 43.405602 -42.464218 28.158268 -42.14637 26.490673 -10.553935 96.449837
13350000000 -19.399529 37.653572 -42.645596 7.3525953 -42.585926 5.8461571 -10.358433 90.883972
13360000000 -19.411282 35.778641 -42.392094 -15.633246 -42.2155 -15.330346 -10.219725 85.078079
13370000000 -19.822769 30.924208 -42.471935 -42.143814 -42.040676 -42.419205 -10.028012 78.586624
13380000000 -20.256435 30.074074 -42.746368 -63.819054 -42.429199 -65.334579 -9.7277861 71.708069
13390000000 -21.242256 28.065176 -42.86145 -88.378044 -42.645931 -91.041641 -9.3871851 65.245949
13400000000 -21.468891 33.215672 -43.194778 -112.96888 -42.963726 -114.53526 -9.0253735 59.587502
13410000000 -21.46011 30.831553 -43.294483 -136.61603 -43.264641 -136.98981 -8.7704515 54.519516
13420000000 -21.368876 32.167469 -43.151287 -162.51318 -42.858372 -162.76807 -8.627882 49.424824
13430000000 -21.318762 27.651293 -43.991974 173.86351 -43.452766 171.29187 -8.5223885 43.831982
13440000000 -21.281267 26.479591 -43.836235 150.5045 -43.730225 147.32727 -8.4196386 37.734829
13450000000 -21.228054 22.505432 -44.108879 125.12454 -44.053005 122.80571 -8.2557659 31.306602
13460000000 -21.466541 19.18692 -44.041859 101.17418 -44.116848 99.937912 -8.039566 25.278461
13470000000 -22.182764 15.043929 -44.395416 73.459541 -44.120186 72.819725 -7.8732581 19.610518
13480000000 -22.756374 18.332697 -45.146656 48.825237 -44.796749 45.780369 -7.7815247 14.240328
13490000000 -23.084879 15.270865 -45.234394 27.21941 -45.29776 23.0893 -7.7561798 8.9064417
13500000000 -23.713257 18.187479 -44.85741 1.2695255 -44.797497 -0.45060769 -7.7728448 3.2743695
13510000000 -24.129089 19.464647 -45.405754 -30.877787 -45.260822 -34.424248 -7.7796955 -2.6482527
13520000000 -23.990841 21.397379 -46.229359 -54.215183 -46.041348 -59.22612 -7.816679 -8.6085806
13530000000 -23.825546 18.735073 -46.756973 -77.379524 -46.878643 -82.520493 -7.8839364 -14.391327
13540000000 -23.557142 14.26859 -46.455746 -103.14462 -47.043892 -106.5378 -7.9917164 -20.140438
13550000000 -24.036736 8.4867458 -46.354176 -128.63878 -46.590454 -130.04016 -8.1460228 -26.074327
13560000000 -24.403717 6.1228886 -46.363785 -160.97821 -46.337215 -161.94415 -8.3264971 -32.255108
13570000000 -25.828382 4.5702963 -47.172508 171.94406 -47.224209 167.62828 -8.4836721 -38.363155
13580000000 -26.064846 7.5297689 -47.05114 142.47231 -47.375603 140.72472 -8.638135 -44.176933
13590000000 -27.478315 9.9158907 -47.874943 113.61836 -47.885628 110.29843 -8.805232 -49.806889
13600000000 -27.276529 21.319275 -48.284237 88.279503 -48.570335 86.392609 -9.0272865 -55.33445
13610000000 -26.327671 26.451128 -48.414032 60.386387 -48.528843 58.762234 -9.3381138 -61.071877
13620000000 -25.740398 19.096897 -48.702118 35.345089 -48.92704 32.510712 -9.705039 -67.103905
13630000000 -26.347269 15.127998 -48.67421 10.19481 -49.030357 9.6762056 -10.059698 -73.329491
13640000000 -26.557528 8.650795 -48.221516 -17.9522 -48.529629 -18.342356 -10.365498 -79.726723
13650000000 -28.269083 2.7597072 -47.883183 -46.94054 -47.875427 -44.783569 -10.614006 -86.034248
13660000000 -29.181505 6.8514385 -48.335094 -78.63308 -47.88028 -77.661545 -10.859143 -92.222198
13670000000 -30.548269 9.7468185 -48.546478 -103.77826 -48.132744 -106.87076 -11.153038 -98.207314
13680000000 -30.361551 26.939402 -48.674313 -128.51598 -48.552711 -132.5649 -11.497416 -104.12644
13690000000 -28.504444 31.34798 -48.720039 -151.92366 -49.280155 -154.86247 -11.886562 -110.34832
13700000000 -27.140821 30.021034 -48.120163 -173.93251 -48.640179 -172.20421 -12.26762 -117.04077
13710000000 -26.419731 23.002684 -47.54467 155.96275 -47.237671 159.5853 -12.596434 -124.29276
13720000000 -26.817751 16.486357 -47.679619 129.54601 -47.213348 129.60658 -12.857183 -131.71675
13730000000 -28.021997 13.748358 -47.56406 105.94736 -47.199577 104.1904 -13.087031 -138.90529
13740000000 -29.027573 14.201683 -47.005142 84.51342 -47.188 82.740257 -13.32132 -146.01138
13750000000 -30.79821 15.806132 -46.922615 56.016266 -46.855556 57.706078 -13.584132 -153.32928
13760000000 -30.875198 28.583199 -46.598427 33.137783 -46.272156 34.632145 -13.774746 -161.34125
13770000000 -30.030499 31.885639 -46.298279 9.0046015 -45.8661 9.0341644 -13.832865 -169.8887
13780000000 -28.44227 32.472389 -45.883018 -13.18976 -45.643764 -15.252144 -13.735691 -177.97011
13790000000 -27.143896 23.052784 -45.300491 -39.126183 -45.161667 -39.928093 -13.608537 174.76971
13800000000 -27.387712 13.43974 -44.968418 -63.020023 -44.716969 -63.087616 -13.569243 168.01369
13810000000 -27.196056 12.183283 -44.597397 -90.302734 -44.486557 -89.254326 -13.619599 161.06833
13820000000 -27.01119 2.5829315 -44.560925 -113.03142 -44.39225 -113.20428 -13.648649 153.4621
13830000000 -28.287312 2.3695569 -44.514198 -135.33571 -44.405582 -135.8588 -13.525934 145.22462
13840000000 -28.646036 -3.104619 -44.101055 -156.90895 -43.854839 -158.07402 -13.214195 137.1519
13850000000 -30.441927 8.4365864 -42.962444 179.37827 -43.075443 179.40569 -12.888932 129.75903
13860000000 -29.19593 9.9330168 -42.974163 151.77144 -42.723217 153.67026 -12.618874 123.0226
13870000000 -29.110195 10.762348 -42.506371 125.85815 -42.224293 125.71665 -12.40024 116.49273
13880000000 -28.35165 6.3076186 -42.905003 102.91086 -42.621922 101.29465 -12.157887 109.72651
13890000000 -27.568972 6.2290483 -42.796291 80.206726 -42.822121 78.511101 -11.855971 102.75706
13900000000 -26.345083 -10.200329 -42.10096 58.991299 -42.282711 59.437168 -11.539022 96.136742
13910000000 -27.275723 -17.066444 -41.379635 32.316662 -41.20694 34.107208 -11.254374 89.964287
13920000000 -27.363878 -28.850853 -41.361897 4.7791038 -41.084824 5.3048329 -11.031202 83.960815
13930000000 -29.747698 -34.788288 -41.512108 -19.721022 -41.141155 -20.093941 -10.842437 77.568413
13940000000 -30.657804 -34.687183 -41.791645 -43.661293 -41.599236 -44.708012 -10.641255 70.796913
13950000000 -33.107498 -27.629139 -41.651947 -64.08107 -41.530098 -64.044472 -10.393341 63.965885
13960000000 -32.266228 -19.656244 -40.988094 -87.431587 -40.684921 -86.562515 -10.123439 57.335018
13970000000 -30.438879 -15.223138 -40.995831 -115.21875 -40.521557 -114.03088 -9.8725681 51.280914
13980000000 -28.633684 -30.549417 -41.128883 -139.36618 -40.527843 -140.37828 -9.6750507 45.524158
13990000000 -28.060627 -44.311134 -41.055233 -162.47482 -40.670341 -164.32666 -9.5343456 39.600224
14000000000 -27.269783 -60.708096 -40.814045 174.4315 -40.609447 172.59608 -9.484231 33.526512
14010000000 -27.770748 -72.564682 -41.045509 149.5638 -40.692261 148.70528 -9.4738102 27.187002
14020000000 -28.054317 -81.36367 -40.831615 125.67493 -40.29158 124.97675 -9.4746466 20.49869
14030000000 -29.920837 -89.462784 -41.147842 103.01891 -40.663773 100.30272 -9.5113087 13.766151
14040000000 -31.873556 -86.114403 -40.886402 80.004776 -40.472775 76.908966 -9.5866747 6.8289766
14050000000 -32.435692 -68.243774 -40.474297 55.998249 -40.279324 52.735653 -9.6910801 -0.011862997
14060000000 -30.755486 -67.256683 -40.406185 29.268475 -40.275146 27.224079 -9.8229828 -6.8328743
14070000000 -30.493237 -70.642441 -40.483963 3.7052965 -40.221191 2.0050771 -9.9772043 -14.121854
14080000000 -29.330137 -81.415756 -40.892212 -22.701393 -40.443882 -25.504025 -10.187474 -21.621073
14090000000 -29.310337 -93.291161 -41.723835 -43.633495 -41.304012 -48.902367 -10.428196 -29.069309
14100000000 -28.136946 -108.86091 -41.517502 -62.704292 -41.614269 -67.97683 -10.699671 -36.425095
14110000000 -28.665579 -122.61723 -40.972385 -86.20488 -41.163853 -88.930107 -11.018383 -43.385704
14120000000 -28.686464 -134.26224 -40.640297 -114.35172 -40.508575 -116.16788 -11.403852 -50.564972
14130000000 -30.065603 -137.89153 -41.099827 -141.79042 -40.720795 -144.43161 -11.89841 -58.388481
14140000000 -29.679655 -135.01241 -41.819794 -167.36206 -41.58252 -171.67096 -12.433331 -66.94767
14150000000 -30.500355 -134.81407 -42.440838 172.49486 -42.460052 166.70415 -12.917085 -75.836052
14160000000 -29.470404 -131.5594 -42.586174 150.42786 -42.935638 145.61832 -13.331663 -84.508385
14170000000 -30.176867 -132.77155 -42.388256 127.29368 -42.578732 126.9623 -13.74515 -92.508125
14180000000 -28.513668 -132.48705 -42.743713 102.56408 -42.506638 101.07974 -14.257143 -100.5649
14190000000 -28.002625 -141.78384 -43.189564 78.907143 -42.927597 73.534836 -14.882763 -109.86398
14200000000 -27.324684 -149.93979 -43.340664 56.575069 -43.594658 50.638817 -15.501014 -120.38442
14210000000 -27.474068 -159.1635 -43.555714 34.394371 -43.95377 31.416822 -15.910929 -131.67424
14220000000 -27.347542 -162.38609 -43.631142 6.7860708 -43.555126 5.0844626 -16.076893 -142.53372
14230000000 -27.271814 -170.75175 -45.047665 -15.114736 -44.770622 -18.588051 -16.09844 -152.45329
14240000000 -27.981325 -173.37778 -44.918823 -33.615932 -45.116177 -38.97155 -16.142662 -162.17937
14250000000 -28.955711 -173.36554 -45.246971 -54.966667 -45.449421 -61.417034 -16.173161 -172.08409
14260000000 -29.212778 -164.7975 -44.988693 -76.571938 -45.491199 -81.089737 -16.054575 177.98624
14270000000 -28.219509 -160.38097 -45.189972 -101.73254 -45.48278 -104.71452 -15.843929 168.9787
14280000000 -27.757681 -164.16867 -45.682331 -125.94125 -45.759838 -129.35406 -15.539799 161.24947
14290000000 -26.728365 -165.80499 -46.472519 -147.58049 -46.456421 -154.54469 -15.302687 154.34515
14300000000 -26.82057 -176.4135 -46.710728 -162.19244 -47.381062 -170.02061 -15.143031 147.4305
14310000000 -26.456665 179.35269 -45.955849 173.34993 -46.910549 167.01802 -14.959719 140.03978
14320000000 -27.080256 165.9624 -45.706902 148.70151 -46.558327 145.5854 -14.682141 132.59955
14330000000 -28.180674 167.30495 -46.113308 118.4201 -46.501602 115.31761 -14.278307 125.56114
14340000000 -29.752132 166.81149 -48.042465 97.569527 -48.409275 91.586861 -13.796545 119.59571
14350000000 -29.09779 -176.74008 -47.846882 88.364891 -48.761944 79.591606 -13.347751 114.38762
14360000000 -28.624176 -177.23277 -46.451038 63.961975 -47.708645 57.444542 -13.005253 109.86884
14370000000 -27.12035 -174.13033 -46.113499 34.952286 -47.333103 29.967567 -12.741414 105.73515
14380000000 -26.855116 176.33289 -46.245609 5.8415828 -47.046947 4.7764692 -12.528853 101.64765
14390000000 -26.563108 175.79109 -47.080383 -24.879383 -47.623837 -29.676977 -12.311579 97.110939
14400000000 -27.033895 163.4418 -48.704369 -44.952702 -49.96693 -52.216648 -12.07071 92.257378
14410000000 -28.410231 161.17471 -48.691956 -59.858467 -50.260017 -64.515762 -11.80745 87.425217
14420000000 -29.974529 163.65555 -48.240803 -80.514236 -49.852291 -81.279366 -11.505543 82.823944
14430000000 -29.191366 174.78261 -47.353905 -110.06596 -48.38361 -110.20579 -11.265092 78.734619
14440000000 -29.070181 175.50757 -47.128868 -139.80087 -47.940521 -140.68593 -11.026917 75.106499
14450000000 -27.207251 -177.96677 -48.089245 -167.85493 -48.947079 -170.15317 -10.792162 71.378288
14460000000 -26.755863 173.99072 -48.689316 165.32506 -49.784767 162.56908 -10.599072 67.345955
14470000000 -26.392082 173.33197 -49.107006 142.26979 -50.385483 141.19124 -10.410891 63.332184
14480000000 -26.728067 171.21915 -49.054729 116.31363 -50.248894 116.10783 -10.277159 59.495464
14490000000 -27.172348 168.59103 -48.927616 86.405052 -49.832542 90.076057 -10.191418 55.974632
14500000000 -28.154627 176.0694 -49.551521 60.858768 -49.679157 61.673946 -10.12627 52.258869
14510000000 -27.43236 178.51495 -49.2691 34.781929 -49.789536 30.575104 -10.109279 47.820156
14520000000 -27.415709 -176.51715 -48.783665 3.2646203 -49.227665 0.22904089 -10.102238 42.786171
14530000000 -26.401766 178.30925 -48.966026 -25.092201 -49.654621 -28.74815 -10.076626 37.860027
14540000000 -26.411154 -179.16972 -48.834179 -63.180569 -49.296703 -63.590954 -9.9922705 33.521809
14550000000 -25.476797 175.92368 -50.750324 -92.463127 -50.857208 -91.877243 -9.913352 29.654707
14560000000 -25.663557 176.18517 -50.304012 -112.17886 -50.206745 -115.44404 -9.9462595 25.844128
14570000000 -24.997562 173.60846 -49.831432 -135.64528 -50.257755 -138.46634 -10.094337 21.72353
14580000000 -24.823191 175.29614 -47.945229 -165.60555 -48.330402 -167.16226 -10.376328 17.124866
14590000000 -24.779947 172.32616 -47.320332 160.14345 -47.531448 159.56238 -10.675178 12.322637
14600000000 -24.555359 177.48338 -47.432453 120.7608 -47.300884 121.91457 -10.999346 7.5618896
14610000000 -24.020508 172.17081 -48.654423 96.541145 -48.575703 94.060234 -11.344129 3.1691024
14620000000 -24.526905 175.91528 -47.681248 71.95269 -47.741611 73.388382 -11.751073 -1.2971528
14630000000 -23.669624 176.9819 -47.7141 41.958691 -47.541142 42.292454 -12.2637 -6.3268819
14640000000 -23.115242 174.14166 -47.16502 17.348042 -47.134918 18.411514 -12.902043 -11.522151
14650000000 -22.702484 172.04895 -46.308193 -6.3372607 -46.171436 -6.6954637 -13.50952 -16.436651
14660000000 -22.1565 167.8679 -45.770275 -40.34499 -45.741222 -39.97007 -14.142141 -20.801922
14670000000 -22.523592 164.0735 -45.684052 -68.171539 -45.729111 -65.98278 -14.862299 -23.916079
14680000000 -22.165428 162.86671 -46.25663 -93.441452 -45.898018 -89.805473 -15.749628 -26.254776
14690000000 -22.714407 162.31059 -45.847336 -120.35627 -45.315632 -118.56944 -16.92259 -28.057468
14700000000 -22.301113 165.32239 -45.481365 -141.01404 -45.085049 -142.33368 -18.393105 -29.518076
14710000000 -22.174854 166.80591 -44.604012 -168.06328 -44.875713 -168.20834 -20.10218 -30.716618
14720000000 -21.264511 165.94064 -44.303455 162.24255 -44.6366 163.57755 -22.041321 -31.436628
14730000000 -20.904884 162.6227 -45.042725 130.84436 -44.935589 135.89108 -24.457756 -31.707367
14740000000 -20.401844 155.99501 -45.886139 109.62698 -45.424366 113.30556 -27.195435 -27.251654
14750000000 -20.983183 151.73943 -45.659901 94.231453 -45.012875 94.592468 -29.964405 -15.838718
14760000000 -20.931042 148.90857 -44.097904 68.325943 -44.001488 68.009575 -31.274765 6.8837023
14770000000 -21.641298 147.45509 -43.71764 37.308578 -43.983322 39.199631 -30.21096 29.262125
14780000000 -21.256973 149.42706 -44.315681 7.452415 -44.130074 13.577968 -28.080317 47.746239
14790000000 -21.272615 150.1353 -45.126232 -20.538534 -44.436226 -16.056772 -25.3843 58.289257
14800000000 -20.438459 151.72862 -46.538597 -35.520557 -45.818241 -37.090965 -23.335464 63.760143
14810000000 -19.884123 148.70508 -45.816742 -50.434288 -45.771042 -49.458721 -21.901834 65.855896
14820000000 -19.377502 143.77843 -44.752445 -75.098755 -44.387199 -72.173462 -20.781616 66.125069
14830000000 -19.971775 138.4059 -44.09182 -104.49201 -43.597229 -100.10476 -19.993109 64.625389
14840000000 -20.241375 136.21133 -44.587902 -136.02361 -43.566746 -131.84109 -19.171423 63.821396
14850000000 -21.121433 134.69856 -46.133385 -161.61227 -44.884396 -162.48703 -18.369177 62.138588
14860000000 -21.1388 136.51714 -47.040527 -171.64821 -46.46965 -177.20018 -17.755058 60.736542
14870000000 -21.442455 135.26132 -45.453568 170.60924 -45.674637 170.79297 -17.336733 58.650227
14880000000 -21.04352 136.19434 -45.248501 139.57953 -44.803791 143.78485 -17.06082 55.052162
14890000000 -20.575274 134.15054 -45.35136 114.29462 -44.433517 117.50965 -16.83688 50.607662
14900000000 -19.985792 128.7337 -46.716179 89.557251 -45.019566 88.606224 -16.432001 46.56163
14910000000 -20.258024 124.29845 -46.945137 79.212563 -46.15435 69.98494 -15.921946 43.639206
14920000000 -20.455364 119.8951 -45.427685 58.933598 -45.703667 53.956177 -15.436264 42.566967
14930000000 -21.297319 121.11993 -44.667587 26.124592 -44.788029 26.04948 -15.084736 41.052238
14940000000 -21.158768 121.6631 -45.709038 -4.0834923 -44.954102 -1.2049986 -15.118925 39.336559
14950000000 -21.536335 122.94171 -47.577991 -28.459957 -46.220192 -32.146885 -15.255166 36.530411
14960000000 -21.668121 121.94044 -49.195869 -33.9646 -48.634895 -46.006443 -15.462778 32.945717
14970000000 -21.733587 125.26141 -46.730576 -39.300709 -47.767551 -47.789463 -15.559085 30.115837
14980000000 -21.617348 120.01453 -44.369965 -73.611923 -44.617332 -72.40081 -15.562889 27.66898
14990000000 -21.799465 118.94199 -44.180969 -110.3818 -43.797504 -110.43459 -15.695089 25.423605
15000000000 -22.345783 112.14507 -46.220352 -142.26492 -45.175434 -148.22183 -15.952436 23.565096
15010000000 -23.062075 116.58124 -48.428837 -155.66452 -48.380116 -169.25893 -16.135193 20.296679
15020000000 -22.818216 112.65503 -48.162277 -171.09256 -49.5271 -179.50475 -16.351444 16.499857
15030000000 -23.10313 113.94829 -46.940426 171.76871 -48.025517 173.70764 -16.364529 13.844943
15040000000 -23.426119 110.9809 -46.892883 142.66698 -46.710815 145.00468 -16.372034 12.568408
15050000000 -23.767464 115.61192 -47.679188 125.23637 -46.739716 119.10696 -16.692423 13.611733
15060000000 -23.827709 118.24846 -47.695583 106.79224 -48.240162 90.431572 -17.034504 16.09866
15070000000 -23.295383 119.1644 -46.377491 85.720306 -48.330158 81.63192 -17.476543 16.570936
15080000000 -24.009712 118.39189 -45.566849 52.429188 -46.626392 55.754932 -18.072788 15.050688
15090000000 -23.631212 120.66125 -46.539608 15.247277 -46.542049 18.572969 -18.65984 11.90068
15100000000 -23.914686 118.20616 -51.071049 -7.0808725 -50.14275 -11.190925 -19.301477 10.759242
15110000000 -24.169441 115.88427 -51.696705 1.5959836 -53.426762 -12.813418 -19.384165 12.028877
15120000000 -25.362682 115.86504 -47.882862 -8.8957119 -50.390007 -6.8320503 -19.418953 12.750955
15130000000 -25.656496 119.64043 -46.379982 -43.265427 -47.323364 -35.885223 -19.473579 13.317403
15140000000 -25.734077 128.98029 -46.184544 -79.739655 -46.022972 -76.303856 -19.609516 12.786694
15150000000 -24.116287 128.74039 -48.206627 -108.2453 -48.023861 -111.42027 -19.813021 13.04973
15160000000 -24.097052 127.36842 -49.16552 -126.63951 -50.211506 -135.98009 -19.791965 15.610592
15170000000 -23.236197 126.06522 -49.37571 -143.83566 -51.394073 -139.71408 -19.523636 16.970182
15180000000 -23.276892 123.28363 -49.507813 -169.01219 -50.632027 -157.64569 -19.587744 17.802519
15190000000 -23.135 119.58923 -50.480804 169.76837 -50.107704 176.37666 -19.915243 18.142206
15200000000 -24.547277 117.97169 -51.651325 153.94165 -51.099506 152.88565 -20.550308 17.800924
15210000000 -24.697069 126.03046 -50.893509 142.85516 -51.345078 139.89301 -20.955919 18.578594
15220000000 -24.696615 132.71228 -49.201801 118.71442 -50.14999 120.87508 -20.931261 15.582358
15230000000 -23.194368 133.13506 -48.805923 83.296432 -49.418655 90.428566 -21.080805 10.377402
15240000000 -22.975243 130.14053 -50.420689 49.583477 -50.0243 57.011211 -21.466099 6.0783105
15250000000 -22.454411 126.02397 -53.749619 22.335106 -52.390636 21.839916 -21.99472 3.0686364
15260000000 -22.635969 121.88794 -57.970257 32.879959 -58.533867 19.107283 -22.414532 3.2130849
15270000000 -22.328371 118.48697 -52.810654 27.263308 -53.640514 30.226173 -22.452641 3.5351448
15280000000 -23.038155 112.48678 -52.642799 -2.84851 -51.748936 -1.0508668 -22.696531 2.176554
15290000000 -23.70232 115.71542 -52.859005 -32.346806 -51.819824 -32.216442 -23.79146 0.7864179
15300000000 -23.730724 119.46968 -53.185741 -51.997314 -52.288399 -59.910637 -26.07173 0.42228061
15310000000 -22.979805 121.97535 -54.966099 -77.643059 -56.06625 -98.123848 -29.340668 4.8376737
15320000000 -22.679005 117.53107 -54.660797 -88.314377 -57.491535 -87.962219 -32.863304 11.348945
15330000000 -22.60891 118.23694 -55.886078 -111.26682 -57.384151 -104.00209 -37.411766 8.016386
15340000000 -22.316183 113.64277 -58.611141 -120.62907 -58.806942 -119.63703 -54.203838 25.134249
15350000000 -22.433075 112.23997 -55.293774 -112.49075 -56.696541 -117.08826 -38.78117 152.74492
15360000000 -22.577188 105.04204 -52.507313 -144.65895 -54.601948 -148.28067 -31.713308 147.86099
15370000000 -23.708918 104.83086 -52.98037 -176.72891 -55.389038 -175.03722 -28.198683 142.31828
15380000000 -23.610165 103.55513 -54.504803 155.51393 -55.945179 173.05031 -26.118511 140.75937
15390000000 -23.992184 104.40904 -55.506786 152.91956 -54.422241 161.93095 -24.456223 137.82259
15400000000 -24.19838 99.211479 -53.305676 138.6387 -53.319756 140.71576 -22.686905 133.05292
15410000000 -24.624514 103.19281 -52.752106 114.57178 -53.721691 115.25947 -20.893229 126.85589
15420000000 -24.655952 99.808426 -51.20462 90.406113 -52.362125 98.05349 -19.31986 122.64294
15430000000 -24.366932 104.08694 -52.468185 58.090336 -52.86174 67.74572 -17.970892 120.868
15440000000 -24.068035 95.145912 -53.721245 49.338238 -52.937347 54.171322 -16.990297 120.44815
15450000000 -24.874239 92.435143 -52.990372 34.993019 -52.720013 34.073296 -16.267323 119.5189
15460000000 -25.376797 88.358887 -50.511272 16.094885 -51.073563 17.853794 -15.780028 117.06281
15470000000 -25.996849 86.394043 -50.294266 -21.68248 -50.790089 -18.425993 -15.320971 113.19705
15480000000 -26.892567 78.83091 -50.742462 -45.622437 -51.117012 -42.91114 -14.83339 108.6235
15490000000 -28.913328 82.670876 -52.901108 -71.607231 -52.727631 -69.100502 -14.291176 104.75747
15500000000 -29.976171 86.571838 -54.398628 -78.513298 -54.852356 -79.024139 -13.711419 101.65507
15510000000 -28.814383 96.96096 -52.049828 -82.434761 -52.921089 -80.4692 -13.163767 98.658287
15520000000 -28.940945 85.105316 -50.10788 -110.1425 -50.448406 -106.10155 -12.687257 95.520226
15530000000 -28.851452 88.575645 -50.018398 -146.52763 -50.22789 -144.10129 -12.261908 92.769485
15540000000 -29.780893 70.862839 -51.295986 -166.56509 -52.232216 -164.36295 -11.821239 90.370811
15550000000 -31.474871 74.666222 -52.359768 176.73705 -52.921387 -179.18568 -11.429676 88.139626
15560000000 -33.345825 56.968243 -51.016045 163.76601 -51.909225 166.80388 -11.137392 85.958572
15570000000 -38.561142 61.93391 -50.863811 139.14464 -51.87846 145.44792 -10.927033 83.666267
15580000000 -47.249596 66.805099 -50.48946 115.88 -51.037998 124.77992 -10.782804 81.075439
15590000000 -39.419876 126.8863 -51.314171 94.066093 -51.737106 101.83389 -10.660589 78.08091
15600000000 -45.34602 100.69921 -50.514065 80.939445 -50.886673 88.155746 -10.516091 74.783669
15610000000 -42.368057 141.35367 -49.446754 60.702301 -49.85635 68.464043 -10.301548 71.297134
15620000000 -57.721989 121.20858 -48.476807 33.836685 -48.827751 42.31897 -10.053303 67.710091
15630000000 -42.924595 -172.81625 -48.80978 6.5245318 -48.88306 15.617195 -9.8037453 64.416595
15640000000 -45.089653 -108.32685 -49.721767 -17.152266 -49.613987 -7.0160813 -9.5786562 61.794205
15650000000 -36.957336 -129.3748 -49.556255 -33.136112 -49.499039 -24.569483 -9.358592 59.656429
15660000000 -35.521652 -129.61974 -48.454857 -52.713036 -48.644749 -45.36607 -9.2166214 57.428844
15670000000 -33.20607 -140.55058 -48.659309 -79.359886 -48.65379 -71.21241 -9.1718664 54.889919
15680000000 -32.39254 -133.06978 -48.57106 -100.98705 -48.220238 -89.453606 -9.1888475 51.731789
15690000000 -30.173489 -138.35857 -47.894825 -124.97539 -47.572754 -114.46713 -9.1959658 48.150703
15700000000 -28.744286 -141.5499 -48.047829 -148.41814 -47.587383 -138.81502 -9.1843271 44.461994
15710000000 -28.441801 -149.19624 -47.686527 -173.51442 -47.374481 -164.04599 -9.1174889 40.979752
15720000000 -28.206696 -148.379 -48.135895 162.01718 -47.547222 170.81544 -9.0579767 37.45718
15730000000 -28.32272 -148.59688 -48.581886 137.798 -47.701302 147.56293 -9.0521955 33.652794
15740000000 -27.710287 -143.74168 -48.855808 112.61315 -47.895683 121.35289 -9.0682001 29.535255
15750000000 -27.22616 -142.46864 -50.102909 95.149864 -49.08289 104.14309 -9.0527658 25.415474
15760000000 -26.395966 -140.36841 -49.246384 75.489563 -48.332165 84.398582 -9.017271 21.667645
15770000000 -25.181581 -140.64714 -49.743282 51.425308 -48.409298 58.939171 -8.9969425 18.669771
15780000000 -24.035406 -146.63538 -49.581203 28.380955 -48.190399 35.160755 -9.1216335 15.833446
15790000000 -23.816643 -152.94524 -50.897457 2.8588467 -49.320526 8.3380909 -9.4247332 12.463899
15800000000 -23.763149 -157.70815 -51.487766 -13.743881 -49.921284 -9.7367525 -9.8534374 7.8557115
15810000000 -24.314312 -157.38327 -51.175171 -38.389046 -49.424362 -31.426558 -10.293635 1.7554429
15820000000 -23.971817 -154.59758 -52.934837 -58.440098 -49.953747 -57.252728 -10.64857 -4.9740849
15830000000 -23.781328 -151.617 -53.306126 -66.656258 -51.330353 -74.399773 -10.858582 -11.397847
15840000000 -23.080147 -148.63354 -52.855671 -84.922455 -51.379784 -92.366135 -11.101994 -17.263254
15850000000 -22.41889 -149.51311 -52.254101 -110.13106 -51.155529 -113.21519 -11.46203 -22.490589
15860000000 -21.752842 -149.98651 -53.126019 -126.72086 -51.708691 -132.34602 -11.936465 -27.549582
15870000000 -21.302507 -155.38126 -53.131355 -138.72226 -51.930008 -145.54637 -12.532269 -33.043846
15880000000 -21.850512 -158.32439 -52.131447 -153.94926 -51.610317 -165.31459 -13.241525 -39.020737
15890000000 -21.897781 -157.6114 -51.617931 -176.2285 -51.629028 173.73317 -14.129239 -45.174583
15900000000 -22.000969 -157.34657 -50.37421 162.40036 -50.776031 154.99576 -15.239302 -51.973843
15910000000 -21.626331 -155.19673 -50.544174 138.36961 -50.689514 133.02623 -16.554811 -60.424149
15920000000 -21.064625 -154.75056 -50.443008 116.27606 -50.485336 107.64876 -17.950796 -71.484924
15930000000 -20.684462 -155.36566 -50.638069 99.394119 -51.55405 88.522743 -19.191607 -85.608673
15940000000 -20.101246 -155.00461 -50.021259 78.836227 -51.905762 77.71521 -20.065447 -101.38374
15950000000 -19.765402 -157.82892 -49.261276 55.870277 -49.799164 57.607536 -20.556606 -117.27714
15960000000 -19.84454 -157.86702 -49.271294 32.52253 -49.477943 29.498579 -20.876781 -133.01929
15970000000 -19.705114 -156.35959 -49.149487 10.537223 -50.172962 4.4852548 -21.157923 -148.16206
15980000000 -19.510448 -155.10074 -47.799446 -8.5582199 -49.222542 -9.4805813 -21.284937 -163.34898
15990000000 -19.072742 -154.48573 -47.555244 -38.71122 -48.825195 -38.049683 -21.139105 -179.65543
16000000000 -19.033979 -155.72653 -48.000408 -64.5187 -49.268925 -62.974743 -20.489098 163.69757
16010000000 -18.612497 -154.26996 -48.778999 -87.350883 -49.774067 -84.279671 -19.381956 149.6839
16020000000 -18.397396 -156.82404 -48.37587 -102.51742 -49.218628 -100.10874 -18.116987 139.84193
16030000000 -18.286659 -155.80528 -47.627964 -128.31973 -48.801506 -124.28751 -17.025585 133.1235
16040000000 -17.857061 -156.61604 -48.021431 -150.60042 -49.13945 -146.81369 -16.241756 128.17451
16050000000 -17.544636 -156.50607 -47.215755 -174.43947 -48.420227 -168.10553 -15.733991 123.32904
16060000000 -17.109827 -156.35022 -47.284916 159.20044 -48.361103 166.31575 -15.313848 118.44208
16070000000 -16.639452 -156.88396 -47.39333 133.02267 -48.041645 141.32301 -14.877157 112.98633
16080000000 -16.381548 -158.64435 -47.358723 109.04154 -48.109894 115.64823 -14.440477 108.1329
16090000000 -16.223354 -157.95779 -48.195084 85.355263 -49.134346 92.348358 -14.105621 103.59267
16100000000 -16.007402 -158.70921 -47.6497 60.542736 -48.835052 70.681664 -13.821787 99.41124
16110000000 -15.906317 -158.14388 -48.219589 38.362007 -48.866665 49.613403 -13.522338 94.511551
16120000000 -15.50264 -157.69086 -48.023563 11.031427 -48.2906 23.197283 -13.183953 89.505775
16130000000 -15.129471 -158.36192 -49.049992 -16.502771 -49.386696 -7.136724 -12.730525 85.347542
16140000000 -14.745622 -159.23544 -49.371166 -34.681015 -50.25687 -24.87944 -12.274308 82.455032
16150000000 -14.395167 -161.51744 -49.22308 -60.62719 -50.087082 -45.94886 -11.939906 80.540901
16160000000 -14.159923 -162.69344 -49.547634 -85.740814 -50.240826 -70.632431 -11.813304 78.487427
16170000000 -13.840255 -164.36903 -49.685333 -118.97602 -49.70187 -102.20858 -11.825334 75.739952
16180000000 -13.709622 -164.72789 -52.014706 -148.27353 -52.201767 -134.68434 -11.881813 71.945068
16190000000 -13.474309 -165.1393 -53.804108 -166.59541 -54.143139 -148.21793 -11.884851 67.665405
16200000000 -13.235264 -164.61868 -53.944263 177.3768 -54.836449 -160.15709 -11.779253 63.592449
16210000000 -12.826761 -164.92401 -54.261307 155.94908 -53.719357 -175.09865 -11.659161 59.973633
16220000000 -12.558128 -165.58827 -54.667816 123.44702 -53.128864 143.80399 -11.549948 56.470478
16230000000 -12.258338 -167.3149 -56.458237 95.787117 -56.1884 114.28448 -11.476045 52.687965
16240000000 -12.095862 -167.93181 -57.530567 65.990196 -58.388794 87.939545 -11.383434 48.817795
16250000000 -11.817142 -170.52789 -59.741257 27.635006 -61.129082 69.301407 -11.251567 45.333576
16260000000 -11.774287 -171.67181 -63.45155 -14.700203 -63.419617 63.381996 -11.167435 42.715889
16270000000 -11.529031 -173.35796 -80.327217 -124.05296 -67.253929 64.494156 -11.184235 40.420109
16280000000 -11.423408 -174.08316 -71.499954 72.178207 -64.124611 59.121578 -11.339931 37.728298
16290000000 -11.085352 -174.99637 -82.368607 107.2731 -74.274178 37.977848 -11.63693 33.63134
16300000000 -10.898774 -175.73093 -74.764717 138.57442 -66.559135 72.510017 -11.983707 28.591333
16310000000 -10.551372 -176.65343 -62.590611 104.04797 -60.430275 74.686142 -12.208538 23.052135
16320000000 -10.363872 -177.20294 -60.342705 79.436668 -61.452534 48.950466 -12.379036 17.498688
16330000000 -10.024751 -178.4012 -56.61792 44.506886 -58.379894 40.905239 -12.552864 12.222626
16340000000 -9.8982029 -179.83852 -55.281815 5.0860667 -55.274162 7.6807895 -12.810524 6.790113
16350000000 -9.7451172 178.43555 -56.418156 -22.678341 -54.722401 -24.380079 -13.116088 1.3662797
16360000000 -9.7371988 177.31892 -56.803371 -40.296528 -55.455151 -52.096333 -13.506037 -3.9301186
16370000000 -9.5895243 176.00221 -56.40736 -52.630207 -56.775799 -59.33305 -13.964761 -8.2841482
16380000000 -9.4979963 174.91307 -52.567993 -79.581429 -52.563545 -74.63118 -14.595707 -12.359948
16390000000 -9.3643866 173.80728 -52.927376 -110.95614 -51.840534 -105.5182 -15.456059 -17.480247
16400000000 -9.1410446 173.52652 -51.998222 -136.16019 -50.823936 -136.66313 -16.59981 -25.675915
16410000000 -8.8357906 172.14867 -52.538059 -160.183 -51.192539 -163.50784 -17.782753 -35.815887
16420000000 -8.5760784 171.10794 -52.349861 175.89255 -51.457802 175.43372 -18.709435 -46.834793
16430000000 -8.3247395 169.21786 -52.38834 155.02946 -51.805313 159.99205 -19.546171 -57.057049
16440000000 -8.2607822 168.05237 -50.726284 138.23997 -49.525867 139.60909 -20.453241 -67.54071
16450000000 -8.1594629 166.69478 -49.936367 103.31687 -48.921818 105.72147 -21.653667 -80.559868
16460000000 -8.1498003 166.05214 -51.090637 73.351654 -49.433891 78.326141 -22.706736 -96.714333
16470000000 -8.1005287 165.42252 -51.342808 59.252014 -50.064205 59.887905 -23.397465 -113.33516
16480000000 -7.9948354 165.33902 -50.286613 34.661488 -49.178143 38.79483 -23.926498 -129.21515
16490000000 -7.7568636 164.43056 -50.39558 8.4778576 -48.978642 12.188189 -24.468555 -147.36708
16500000000 -7.5241051 163.47472 -49.946083 -14.299203 -48.55608 -8.3089285 -24.136023 -168.21144
16510000000 -7.295342 161.1489 -50.419586 -44.04966 -48.468922 -38.743015 -22.4552 172.79405
16520000000 -7.193974 159.90092 -51.643402 -67.415718 -50.009315 -61.851784 -20.535414 161.80882
16530000000 -7.032548 158.03444 -51.213047 -83.219101 -49.068184 -79.16658 -19.206938 155.60522
16540000000 -7.034615 157.30589 -51.036842 -111.175 -48.693123 -107.4898 -18.569574 152.0159
16550000000 -6.9072862 156.5619 -52.478962 -130.84436 -49.6912 -130.31262 -18.194777 147.27959
16560000000 -6.8332191 156.80553 -51.293831 -153.35493 -49.241787 -150.90729 -17.829767 141.06783
16570000000 -6.6034455 156.21422 -51.871143 177.4845 -49.519768 -178.29382 -17.311947 134.3828
16580000000 -6.4036112 155.60568 -52.67725 156.39421 -49.909607 159.21638 -16.693411 128.73273
16590000000 -6.2146006 154.00905 -53.932407 132.59975 -50.977333 134.19319 -16.188477 124.00144
16600000000 -6.1128035 152.70399 -53.693241 125.98875 -51.089115 121.98124 -15.781802 120.21953
16610000000 -5.9765477 151.02568 -53.357533 100.20622 -50.649818 97.798027 -15.33484 115.5753
16620000000 -5.9097195 149.75777 -54.612411 81.665031 -51.345169 75.104439 -14.818674 110.96488
16630000000 -5.7946286 148.54736 -53.236469 68.485703 -50.94537 59.038311 -14.231041 107.31692
16640000000 -5.6845918 147.95683 -53.257393 39.058475 -50.822151 31.988058 -13.78461 105.28396
16650000000 -5.4569907 147.18257 -53.513309 23.316418 -51.624184 11.723212 -13.508874 104.0592
16660000000 -5.2696967 146.37173 -53.135769 3.0116496 -51.389851 -4.842833 -13.438498 102.46404
16670000000 -5.0518208 145.2668 -52.708561 -24.60433 -50.89394 -31.022955 -13.462105 99.588432
16680000000 -4.9054713 144.17319 -54.00156 -47.158974 -51.843792 -55.432369 -13.46137 95.255531
16690000000 -4.7475719 143.05106 -54.73016 -59.270531 -52.605835 -70.7957 -13.330167 90.390312
16700000000 -4.6346588 141.82625 -53.22332 -76.736206 -52.19381 -86.403206 -13.143497 85.889244
16710000000 -4.500205 140.53798 -51.998039 -99.752655 -50.742603 -109.85848 -12.870024 82.547638
16720000000 -4.4226313 139.42473 -51.841038 -127.05776 -50.849617 -133.71381 -12.595174 79.880959
16730000000 -4.2350855 138.2489 -51.976658 -153.7778 -50.748692 -160.76151 -12.360649 77.404915
16740000000 -4.1073103 136.82085 -52.40337 -172.32553 -51.088974 179.11946 -12.192965 74.869781
16750000000 -3.9413619 135.55051 -51.562111 165.01723 -50.567791 157.8226 -12.120527 72.719536
16760000000 -3.7962985 134.27072 -52.031467 138.01453 -50.819801 134.24051 -12.107917 70.401176
16770000000 -3.620414 132.98907 -51.940788 111.29503 -50.541161 107.12178 -12.18817 67.814102
16780000000 -3.4771481 131.73956 -53.347572 90.013451 -51.927345 83.0187 -12.312902 64.511574
16790000000 -3.3334868 130.42471 -52.779243 72.762291 -51.939915 68.082115 -12.478297 60.321705
16800000000 -3.2166696 129.12927 -52.469395 51.443748 -51.016472 46.995525 -12.612092 55.562435
16810000000 -3.092694 127.77666 -51.732365 23.148134 -50.456051 20.12549 -12.706301 50.641556
16820000000 -2.984638 126.30438 -52.870415 -6.0015669 -51.005627 -8.7960758 -12.705526 45.658329
16830000000 -2.8705921 124.67661 -53.475273 -29.511263 -52.083496 -30.910383 -12.628701 41.055054
16840000000 -2.7844551 123.2936 -54.389458 -50.798515 -51.877377 -53.527489 -12.526204 36.699009
16850000000 -2.6342778 121.81037 -54.666527 -68.228432 -52.605057 -75.811852 -12.526975 33.047928
16860000000 -2.5106215 120.26019 -54.827934 -89.142509 -53.075584 -96.940796 -12.641829 30.272533
16870000000 -2.3734505 118.73457 -55.208626 -109.32766 -53.374485 -117.56777 -12.996083 27.382706
16880000000 -2.2578878 117.29482 -54.641453 -134.29181 -52.908657 -141.36102 -13.522758 24.001549
16890000000 -2.1349089 115.89063 -55.007786 -161.1375 -53.637791 -165.97453 -14.205675 18.551483
16900000000 -2.0281973 114.53123 -57.577637 176.65883 -55.116947 167.69385 -14.807854 11.523437
16910000000 -1.9418963 113.0387 -57.999641 166.58896 -55.931953 155.79713 -15.305887 2.8225846
16920000000 -1.8750952 111.75576 -56.415852 144.05917 -55.567959 138.04987 -15.688547 -5.6090245
16930000000 -1.7789966 110.29075 -56.089542 120.92483 -54.79871 116.17231 -16.080996 -13.601269
16940000000 -1.6971103 108.73232 -56.416496 98.217278 -55.100384 87.975372 -16.606499 -20.803804
16950000000 -1.6026943 106.99776 -58.140133 74.849083 -56.410385 62.612671 -17.260075 -27.977188
16960000000 -1.5305744 105.33772 -57.751507 65.957321 -57.348026 51.059994 -18.152893 -35.295467
16970000000 -1.4297247 103.70789 -57.030098 41.492355 -56.298141 35.610443 -19.302029 -43.745823
16980000000 -1.3454003 102.03878 -56.745804 12.06799 -55.563599 9.1469431 -20.801912 -54.301342
16990000000 -1.2580029 100.45985 -57.758949 -17.42639 -56.101727 -25.523169 -22.369488 -68.989639
17000000000 -1.1816742 99.003754 -58.551754 -30.573965 -57.384922 -41.766537 -23.378706 -89.530663
