!Keysight Technologies,P9374A,MY57211807,A.19.30.04
!Date: Friday, May 08, 2026 14:01:06
!Correction: S11(C  2-Port  ) 
!S21(C  2-Port  ) 
!S12(C  2-Port  ) 
!S22(C  2-Port  ) 
!S2P File: Measurements: S11, S21, S12, S22:
# Hz S  dB   R 50
13000000000 -18.605362 57.636608 -46.186531 165.22711 -46.085815 163.69911 -9.7229977 26.300877
13010000000 -18.040445 58.910828 -47.526173 145.36862 -47.449348 143.86902 -9.8313036 20.681068
13020000000 -19.155043 52.84444 -48.753094 121.53053 -48.690456 120.21671 -9.994915 15.351627
13030000000 -19.426607 56.610554 -50.089947 106.5472 -50.251331 106.38794 -10.185942 10.138505
13040000000 -20.85825 56.424931 -49.553387 97.223206 -49.339104 95.869316 -10.367948 5.4289346
13050000000 -20.389065 65.388031 -48.615658 64.937218 -48.61924 61.629044 -10.65691 0.41292146
13060000000 -21.035652 66.054794 -51.267296 42.618645 -51.259293 42.390427 -11.104426 -4.6781898
13070000000 -19.752645 71.691849 -51.837711 28.038383 -52.054016 25.065044 -11.6387 -9.8120413
13080000000 -19.372971 67.068619 -52.151787 14.965232 -51.996037 12.13788 -12.177329 -15.49894
13090000000 -18.708813 64.064156 -51.240238 -4.6699557 -51.334679 -5.8793826 -12.613012 -21.650175
13100000000 -18.947851 58.24107 -52.098366 -37.257114 -52.391949 -38.14856 -13.021636 -27.766151
13110000000 -19.017553 56.383186 -54.004162 -55.377968 -53.65321 -58.026371 -13.578301 -33.908031
13120000000 -20.046858 53.322113 -55.885559 -74.273636 -56.938953 -77.217194 -14.324988 -39.059437
13130000000 -20.138401 58.481781 -57.334064 -74.407272 -57.555126 -73.80162 -15.050035 -44.423088
13140000000 -20.709303 60.62627 -56.485912 -80.244431 -56.98299 -76.333771 -15.753576 -50.853966
13150000000 -20.230604 67.41098 -54.290585 -101.84557 -53.570442 -97.232994 -16.403204 -57.863022
13160000000 -19.643806 69.508057 -55.076363 -114.27821 -55.133224 -119.41035 -17.200821 -65.257126
13170000000 -18.661572 66.733734 -53.336258 -140.48958 -53.408108 -140.06915 -18.186422 -71.607239
13180000000 -18.512957 60.702324 -53.491253 -163.34688 -53.92942 -166.01009 -19.382807 -79.841454
13190000000 -18.513184 56.817074 -55.624786 -179.71324 -55.601341 179.62257 -20.750025 -91.259995
13200000000 -18.816301 50.44875 -54.112366 169.12508 -54.082531 170.22852 -21.720402 -105.95602
13210000000 -19.516426 48.834278 -54.271049 149.83203 -54.040222 147.21074 -22.116568 -121.13894
13220000000 -20.256525 49.208172 -51.653877 138.08951 -52.241222 135.3567 -22.125219 -132.56749
13230000000 -20.604128 52.977791 -51.019245 105.87844 -51.449692 106.00484 -22.206842 -143.65009
13240000000 -20.216736 58.563915 -52.667412 76.870605 -53.3046 80.410278 -22.565121 -157.41847
13250000000 -19.56476 60.304573 -51.712425 68.064049 -52.112507 67.016434 -22.625374 -175.03365
13260000000 -18.611683 58.177303 -52.760494 48.185246 -52.400974 49.036137 -21.794127 168.25255
13270000000 -18.524527 52.40609 -50.788788 29.88973 -51.042912 28.691942 -20.501726 156.85181
13280000000 -18.34374 48.329811 -50.202454 -0.78954393 -50.473045 0.27519464 -19.330387 149.7518
13290000000 -18.917681 41.346596 -51.289932 -24.753754 -51.425354 -25.037315 -18.427824 143.80884
13300000000 -19.466105 38.46106 -51.203167 -29.087543 -51.120083 -28.165504 -17.895451 136.9935
13310000000 -20.990402 36.16206 -49.708992 -60.910351 -49.017139 -62.837086 -17.33787 129.98976
13320000000 -20.92556 43.732128 -49.90873 -71.402069 -49.989548 -72.830673 -16.665791 123.07111
13330000000 -21.179226 44.467232 -48.454964 -102.75491 -48.337074 -102.82175 -15.920137 117.65811
13340000000 -20.095808 50.643467 -48.338234 -129.86577 -48.497173 -132.0714 -15.316475 113.37366
13350000000 -19.567253 45.239208 -49.424885 -146.5121 -49.089798 -146.55228 -14.897174 109.63603
13360000000 -18.767635 43.3069 -47.221207 -168.31007 -47.312912 -169.7917 -14.650165 104.93942
13370000000 -19.220673 33.767151 -48.160576 169.73717 -48.150352 168.31371 -14.499541 99.163933
13380000000 -19.091721 31.110945 -46.79417 146.17368 -46.98518 144.56328 -14.164849 92.846329
13390000000 -20.627073 22.310408 -46.827549 120.23988 -46.774246 120.6285 -13.664124 86.906006
13400000000 -21.456455 27.699423 -46.603722 97.984726 -46.61544 98.165924 -13.130937 82.154976
13410000000 -22.751148 24.514057 -44.876526 73.25808 -44.798748 73.566757 -12.747583 78.775368
13420000000 -22.454586 40.371365 -45.459846 40.921486 -45.276665 39.937614 -12.555542 75.746086
13430000000 -21.957554 34.624714 -45.33144 20.249266 -45.506824 18.180225 -12.563547 72.193718
13440000000 -20.864214 38.049973 -45.279446 -5.3765092 -45.321159 -6.0775604 -12.634562 68.183235
13450000000 -20.540876 28.646402 -45.602314 -29.119925 -45.564083 -29.573595 -12.6593 63.151787
13460000000 -20.125217 25.832771 -44.896793 -48.968296 -44.855263 -49.450809 -12.643797 58.185059
13470000000 -20.930023 12.470812 -44.415001 -76.592278 -44.235458 -78.020554 -12.587608 54.106106
13480000000 -21.65645 15.478283 -44.629002 -95.529839 -44.541534 -95.72805 -12.591779 50.774998
13490000000 -23.516071 2.9824522 -42.900154 -120.47226 -42.904884 -123.30013 -12.646597 47.755852
13500000000 -24.647032 20.91711 -42.717701 -155.07614 -42.738544 -155.9277 -12.873832 44.726509
13510000000 -25.293941 20.953253 -42.730812 175.43263 -42.906883 174.90096 -13.212324 42.042999
13520000000 -24.050404 33.944393 -43.344421 147.81715 -43.283642 146.7744 -13.484159 40.439552
13530000000 -23.524616 26.26753 -44.034283 124.06252 -44.135693 122.74469 -13.712067 38.671925
13540000000 -22.297533 26.269844 -43.729931 107.1717 -43.716717 106.6885 -14.054536 36.910824
13550000000 -22.396254 10.428997 -42.924397 77.791664 -42.870815 76.550598 -14.553587 36.250744
13560000000 -22.662271 10.741098 -43.201958 51.824654 -43.287239 51.283001 -15.009364 36.406181
13570000000 -24.054049 -5.1581335 -43.011745 28.24308 -43.009621 27.610226 -15.251239 36.185757
13580000000 -25.999308 2.3980141 -42.449078 5.2579303 -42.386204 3.7780731 -15.444062 35.086555
13590000000 -28.016768 -0.37359533 -42.00235 -24.343706 -41.910236 -25.262568 -15.600226 35.264133
13600000000 -27.983438 27.278044 -41.777954 -52.90324 -41.897659 -53.860748 -15.573602 36.381611
13610000000 -27.198233 28.613998 -42.89426 -84.787186 -42.969784 -85.267708 -15.367828 38.285213
13620000000 -25.200109 35.656586 -43.320435 -100.09793 -43.256371 -101.52454 -15.135055 39.087936
13630000000 -24.670502 21.745356 -42.491791 -125.87634 -42.471596 -126.88284 -15.094863 40.103371
13640000000 -24.678465 17.850964 -42.897209 -153.02293 -42.826042 -153.34404 -14.973629 40.887051
13650000000 -25.016787 2.2206066 -43.046936 -176.18069 -42.983681 -177.20229 -14.816325 40.651215
13660000000 -26.755726 0.78490072 -42.78133 161.32567 -42.799004 159.20457 -14.590094 38.927025
13670000000 -28.28006 -9.5818605 -42.46579 136.45575 -42.574646 136.23276 -14.408465 36.737209
13680000000 -31.58219 12.810905 -41.65937 110.18159 -41.62941 109.35656 -14.173856 34.7626
13690000000 -30.290659 20.212639 -41.57999 78.572998 -41.515388 77.086182 -13.887671 32.656399
13700000000 -28.740431 43.355438 -42.846176 51.17683 -42.86549 48.992596 -13.65246 30.254766
13710000000 -25.91853 33.978283 -43.46331 29.645805 -43.453621 28.470148 -13.56407 27.744978
13720000000 -25.514105 30.085129 -43.334927 8.8696289 -43.302025 8.8744335 -13.549 25.100138
13730000000 -24.859854 17.256445 -42.723427 -14.627168 -42.84491 -16.015392 -13.476541 22.318747
13740000000 -25.78422 11.637764 -43.058468 -41.350582 -42.802567 -42.756836 -13.479585 18.975546
13750000000 -26.990839 -3.9741485 -43.231068 -67.324753 -43.271248 -69.17215 -13.524213 15.806027
13760000000 -30.15019 0.68310612 -43.029228 -90.372444 -43.110996 -90.651779 -13.714875 13.181938
13770000000 -30.963543 3.1871812 -42.660339 -121.27091 -42.626419 -121.8131 -14.023377 10.364166
13780000000 -32.500412 27.371483 -43.912823 -149.8102 -43.86327 -149.73871 -14.50044 7.1355939
13790000000 -29.174479 31.651861 -44.25111 -172.0723 -44.223808 -173.76768 -15.059566 3.5492153
13800000000 -27.757694 30.845398 -45.623947 162.34401 -45.580414 161.63968 -15.555493 -0.33609024
13810000000 -25.394379 20.273485 -46.00597 147.29233 -46.074703 145.59642 -15.896188 -3.9473319
13820000000 -25.367167 7.6641417 -45.466698 121.81104 -45.440712 121.46549 -16.307547 -7.0065236
13830000000 -25.157728 0.98068911 -46.640862 95.327835 -46.456806 93.104713 -16.902586 -8.4100971
13840000000 -26.26058 -14.330482 -46.806465 75.50927 -46.695015 73.477776 -17.736828 -8.6271801
13850000000 -27.754072 -15.633552 -47.542042 51.68858 -47.660542 49.279175 -18.665602 -7.4849944
13860000000 -30.033361 -19.366653 -48.018406 32.008492 -48.115986 31.47764 -19.616982 -6.6503859
13870000000 -30.847193 -4.86343 -47.546196 7.1489286 -47.658531 5.7715278 -20.49519 -5.6711192
13880000000 -32.149582 3.7848926 -49.520973 -25.204996 -49.507172 -24.916634 -21.410364 -3.4053049
13890000000 -28.277956 14.850084 -51.693588 -31.529594 -51.951893 -34.630177 -22.249279 1.9515793
13900000000 -27.366228 -0.936463 -50.980289 -52.006519 -51.252361 -54.644131 -22.773588 9.7691736
13910000000 -25.991327 -4.3360972 -52.142117 -63.236694 -52.269558 -61.441391 -23.069458 17.665598
13920000000 -25.804592 -19.746531 -50.881912 -84.114883 -50.804722 -85.078072 -23.214842 23.098661
13930000000 -25.988277 -31.682243 -52.9006 -111.39863 -52.925266 -112.83393 -23.124887 27.584272
13940000000 -27.642843 -47.508038 -52.946838 -120.53537 -52.870693 -122.79346 -22.607105 30.248787
13950000000 -29.22258 -47.771465 -52.354565 -142.42554 -52.567707 -143.53429 -21.863037 31.476295
13960000000 -31.140186 -65.847252 -53.666607 -156.5674 -53.803143 -155.50508 -21.012043 33.150585
13970000000 -34.184441 -38.026207 -53.400177 -174.51228 -53.24638 -173.61839 -20.285654 35.018536
13980000000 -33.074394 -45.228729 -55.13171 171.43034 -55.25835 168.39839 -19.695444 36.604523
13990000000 -30.474628 -31.123814 -55.400112 171.03253 -55.686478 173.23135 -19.457314 37.424118
14000000000 -28.492428 -48.097614 -51.457672 154.93729 -51.628059 152.92609 -19.385813 37.978676
14010000000 -27.285778 -51.414761 -51.611198 128.53101 -52.108562 128.09853 -19.409119 37.489117
14020000000 -25.93784 -68.846794 -50.964165 107.66376 -51.165054 109.31634 -19.394339 35.856812
14030000000 -26.782482 -77.871506 -50.117615 88.864876 -50.282177 89.896408 -19.445656 33.894905
14040000000 -26.821577 -91.470123 -51.075634 70.176277 -50.652248 70.406349 -19.613539 33.112804
14050000000 -29.141184 -95.217392 -49.211224 59.109898 -49.324654 56.75967 -19.675709 32.492863
14060000000 -30.190371 -104.76228 -49.170845 35.300537 -49.040981 35.47551 -19.902851 31.958462
14070000000 -34.383495 -92.485786 -47.922382 19.582611 -47.860786 20.181814 -20.135611 30.729708
14080000000 -31.481537 -92.630203 -45.881298 -5.346981 -45.645866 -5.1439829 -20.444296 29.135633
14090000000 -32.92054 -82.527664 -46.13306 -33.100204 -45.929058 -33.854958 -20.647585 27.754169
14100000000 -29.065893 -93.43161 -45.396286 -50.902794 -45.043568 -52.766182 -20.744028 27.181326
14110000000 -28.50773 -101.49969 -45.166801 -78.132271 -45.28537 -79.452812 -20.677097 27.2138
14120000000 -26.450809 -116.45922 -44.895283 -95.4478 -44.695339 -96.370827 -20.869759 27.725723
14130000000 -27.100365 -131.72707 -43.507412 -121.68324 -43.478043 -121.85757 -21.096243 29.446684
14140000000 -26.604967 -135.7778 -44.064163 -150.16231 -43.878899 -150.26732 -21.684435 29.920778
14150000000 -28.024939 -150.85107 -43.573986 -168.57735 -43.484955 -171.22981 -22.417208 30.312664
14160000000 -28.588661 -147.89622 -43.221451 168.31302 -43.285061 166.03333 -23.276762 30.775385
14170000000 -30.568588 -150.39636 -42.636112 142.48981 -42.641827 141.98393 -23.865252 33.027508
14180000000 -30.454441 -139.18365 -42.426731 118.6857 -42.500385 117.80947 -24.140381 35.372631
14190000000 -30.021189 -141.75687 -42.805847 88.965424 -42.794117 89.105942 -24.633791 39.616268
14200000000 -28.002342 -132.63475 -43.261887 69.706558 -43.134136 68.875885 -25.41703 48.447319
14210000000 -26.421507 -150.76207 -42.801315 47.065426 -42.721996 46.366913 -25.804344 61.921574
14220000000 -26.289652 -151.36136 -42.919518 19.856022 -42.925777 18.647779 -25.395798 74.042152
14230000000 -25.407013 -166.18777 -43.753796 -0.54978281 -43.576115 -2.3673766 -24.699808 81.988655
14240000000 -26.093744 -171.44582 -43.470272 -24.853584 -43.412479 -25.170658 -23.966295 87.382507
14250000000 -26.195654 179.23991 -44.509781 -43.201389 -44.531616 -44.661411 -22.962143 93.63269
14260000000 -28.90284 -179.8192 -43.686268 -61.727711 -43.551926 -62.390793 -21.552517 97.522011
14270000000 -28.664042 -174.74539 -43.464939 -90.072243 -43.546852 -90.330841 -20.341894 99.718185
14280000000 -30.148977 -165.59834 -44.455444 -112.97253 -44.258118 -113.9283 -19.316799 100.59637
14290000000 -27.655313 -160.38741 -44.56699 -134.83891 -44.655212 -136.80037 -18.618326 100.18288
14300000000 -27.369146 -163.75284 -45.280144 -156.11896 -45.264069 -156.09369 -17.946756 99.0158
14310000000 -25.513683 -171.25047 -45.66972 -173.40308 -45.63792 -174.13182 -17.325375 96.644745
14320000000 -26.085411 -179.23366 -45.533466 166.94954 -45.410931 165.23944 -16.574965 94.583839
14330000000 -25.021908 171.03175 -46.13409 144.73277 -46.212524 143.82249 -15.785099 91.983917
14340000000 -26.686031 161.07179 -46.146744 130.07297 -46.065067 128.69066 -15.070199 89.913345
14350000000 -27.485941 161.79832 -46.487907 107.96973 -46.440517 106.60862 -14.518123 88.134033
14360000000 -30.114758 162.45605 -46.229191 93.247253 -46.145668 92.737076 -14.106627 87.101921
14370000000 -29.076946 179.72624 -46.192661 70.271614 -46.278538 67.344315 -13.749118 85.62355
14380000000 -29.722328 -176.34853 -46.294823 48.587212 -46.215729 47.830761 -13.465501 83.474678
14390000000 -26.672939 -170.66422 -46.796349 36.920925 -46.85799 34.709858 -13.241885 80.59404
14400000000 -26.574678 178.41476 -45.743427 15.620373 -45.591618 14.298311 -13.017542 77.731987
14410000000 -25.84754 175.33829 -45.552044 -1.842893 -45.513042 -5.0315752 -12.776967 75.09314
14420000000 -26.168247 164.11446 -44.790516 -24.506788 -44.857246 -26.21525 -12.513282 72.722893
14430000000 -26.109995 158.00969 -45.245808 -43.976028 -45.134834 -45.386345 -12.328339 70.469994
14440000000 -29.096573 148.40677 -44.141354 -63.004745 -44.054142 -64.074387 -12.161767 68.23407
14450000000 -28.567669 169.37152 -43.673294 -87.096909 -43.730515 -89.098068 -12.09079 66.102966
14460000000 -30.021835 170.03223 -43.597816 -109.14165 -43.504456 -110.26445 -12.013478 63.96104
14470000000 -27.853401 -172.5195 -43.343208 -131.46414 -43.349358 -133.1407 -11.969093 62.345135
14480000000 -27.029993 -175.50729 -43.48069 -153.77544 -43.611679 -155.60219 -11.911077 60.881233
14490000000 -25.282509 -177.53981 -42.850937 -173.93968 -42.839794 -175.01332 -11.968599 59.774441
14500000000 -25.754461 176.29916 -42.594692 161.45697 -42.600246 159.05632 -12.071409 58.802711
14510000000 -24.775881 171.09337 -42.552132 137.48495 -42.565517 135.74533 -12.266295 57.531723
14520000000 -26.890455 162.6313 -42.722221 113.26754 -42.742973 111.23845 -12.401496 56.236561
14530000000 -26.744944 167.17888 -43.041241 87.047302 -43.108585 86.55204 -12.415824 54.680634
14540000000 -28.181658 168.76753 -43.687069 68.432716 -43.71722 66.703201 -12.331436 53.427185
14550000000 -27.044075 -178.57732 -43.845135 47.563728 -43.850506 47.013203 -12.236214 52.551758
14560000000 -26.702053 -178.57196 -44.166866 26.712946 -44.113361 23.476099 -12.173059 52.61607
14570000000 -24.585234 -174.41177 -44.382355 8.5167933 -44.322136 6.6169505 -12.168735 52.743698
14580000000 -23.890327 177.72383 -44.270725 -12.259356 -44.213177 -13.369082 -12.19731 53.116734
14590000000 -23.147863 174.62737 -44.763645 -34.677685 -44.800598 -35.941471 -12.167581 52.975254
14600000000 -23.489504 169.01289 -44.703701 -52.45607 -44.588421 -52.903046 -12.120346 52.536793
14610000000 -23.462069 167.72298 -44.344654 -73.875237 -44.403599 -76.600227 -12.076722 51.921085
14620000000 -24.417416 163.22839 -45.354259 -92.879578 -45.401367 -93.795921 -12.049047 51.610561
14630000000 -24.44795 171.71173 -44.651684 -107.50384 -44.541107 -107.84956 -12.037035 51.328499
14640000000 -24.43063 170.33868 -44.680237 -128.72813 -44.477142 -130.54727 -11.996985 50.73056
14650000000 -23.668795 178.40109 -44.515411 -146.4919 -44.461693 -147.90845 -11.897943 49.534447
14660000000 -22.421103 172.24924 -43.94334 -167.68681 -43.918045 -168.72455 -11.771364 47.894238
14670000000 -22.09198 172.61636 -44.235386 174.53606 -44.179642 173.15883 -11.603114 46.193077
14680000000 -21.130493 164.04524 -42.686951 156.32793 -42.508808 154.98544 -11.466469 44.980228
14690000000 -21.591639 162.97809 -42.342243 131.67554 -42.358746 129.70267 -11.348543 44.369316
14700000000 -21.238565 156.61945 -42.620911 112.72102 -42.566654 110.19537 -11.243363 43.904213
14710000000 -22.062181 158.37973 -41.610397 92.216423 -41.634945 90.230042 -11.246096 43.189987
14720000000 -21.995745 155.68427 -41.270649 65.05484 -41.347057 64.178268 -11.32381 42.335854
14730000000 -22.367203 160.91647 -41.505314 46.483932 -41.359161 44.900757 -11.47195 41.003929
14740000000 -21.595213 158.00133 -40.36301 24.110552 -40.277439 21.651749 -11.671847 39.496124
14750000000 -21.493176 161.34128 -40.421829 1.7695723 -40.47504 -0.62641984 -11.838433 37.865788
14760000000 -20.211977 154.06598 -39.786549 -21.385084 -39.876511 -22.876152 -11.935361 36.068203
14770000000 -20.779325 152.35104 -39.297932 -47.25758 -39.256332 -48.833275 -11.998143 34.349842
14780000000 -20.00186 147.15936 -39.380997 -69.287071 -39.318947 -71.543213 -12.022326 33.266117
14790000000 -20.589081 144.6964 -38.470768 -93.908974 -38.515858 -95.244186 -12.098779 32.606728
14800000000 -20.130962 142.5106 -38.883408 -120.37273 -38.896397 -121.79167 -12.219758 32.628834
14810000000 -20.883001 142.44804 -38.344753 -140.66306 -38.46574 -142.09184 -12.380177 32.574322
14820000000 -20.510988 141.68051 -37.985512 -170.17206 -37.985214 -171.0106 -12.549933 32.803528
14830000000 -21.122499 144.24785 -38.533165 165.89505 -38.504505 164.8192 -12.717637 32.60918
14840000000 -20.142138 141.50078 -38.181675 141.22165 -38.221107 140.00079 -12.911866 32.859875
14850000000 -20.888462 139.62656 -38.61356 115.71435 -38.58868 114.35135 -13.099602 33.124893
14860000000 -20.000443 137.56294 -38.512455 94.378159 -38.562374 93.611435 -13.372675 33.654285
14870000000 -20.885651 134.10042 -38.102673 66.953278 -38.073036 66.2948 -13.627638 33.977119
14880000000 -20.064114 130.91383 -38.522545 40.864628 -38.517502 39.813984 -13.820323 33.347454
14890000000 -20.966543 127.02924 -38.633209 16.403431 -38.709797 15.26993 -13.883531 32.116642
14900000000 -20.291697 125.07695 -38.966274 -10.996183 -38.95533 -11.703115 -13.885185 31.110983
14910000000 -21.230492 123.92637 -39.620457 -35.790798 -39.577965 -36.271347 -13.805144 31.642252
14920000000 -20.645647 122.96637 -39.517448 -60.286049 -39.596748 -60.638271 -13.709419 33.791588
14930000000 -21.699669 124.06058 -40.449207 -85.920067 -40.435497 -87.069405 -13.686182 35.862659
14940000000 -20.668432 123.30457 -41.017338 -108.72826 -41.049744 -109.53738 -13.849051 37.745789
14950000000 -21.622938 123.99791 -41.041935 -134.11574 -41.084743 -135.21344 -14.104682 38.77803
14960000000 -20.902277 122.83194 -41.791431 -162.39809 -41.83709 -162.63219 -14.293788 39.5023
14970000000 -21.467613 121.76189 -42.597607 177.72052 -42.5933 176.27774 -14.419803 39.98283
14980000000 -21.301468 115.97216 -42.716019 151.9646 -42.729546 150.13353 -14.475562 41.172596
14990000000 -22.171677 114.97602 -43.929985 123.70097 -44.027985 123.18958 -14.463712 42.423988
15000000000 -22.213829 111.09283 -44.803993 99.265419 -44.685299 98.559532 -14.468411 43.399536
15010000000 -23.517452 110.866 -46.052013 73.242363 -46.194 72.303528 -14.487057 43.217644
15020000000 -23.572025 113.87804 -47.826427 51.478027 -48.068691 51.663509 -14.431303 42.989944
15030000000 -23.750303 116.01125 -48.687233 35.746605 -48.677483 36.134556 -14.168576 42.911217
15040000000 -23.315536 118.36938 -49.914021 10.888521 -50.065624 11.522282 -13.743696 43.62838
15050000000 -23.173899 118.296 -50.602894 1.605719 -50.621056 1.5576081 -13.371597 45.162758
15060000000 -22.532644 118.68312 -51.887234 -33.309181 -51.878788 -33.351479 -13.151529 46.828835
15070000000 -22.775846 110.89384 -55.681503 -43.21299 -55.755116 -46.415417 -13.108733 48.170372
15080000000 -23.909203 112.28209 -54.434109 -35.294514 -54.967266 -39.544975 -13.17097 48.666538
15090000000 -24.088177 110.07328 -54.77121 -73.572281 -54.963146 -72.1931 -13.235552 48.082809
15100000000 -25.865993 114.83418 -56.5858 -64.638458 -55.792114 -63.88298 -13.191507 47.225334
15110000000 -25.899044 120.06461 -56.365967 -95.140015 -55.9188 -99.329674 -13.051417 45.835972
15120000000 -26.0058 130.88016 -55.690304 -80.456047 -55.982967 -84.021599 -12.894035 44.78373
15130000000 -24.382074 128.8008 -52.882408 -109.09888 -53.403999 -109.41831 -12.765598 43.584023
15140000000 -24.258141 129.4951 -51.707386 -135.83701 -51.431526 -134.88115 -12.674607 42.550388
15150000000 -22.836969 123.22676 -52.652622 -158.76262 -52.10154 -161.14838 -12.541922 41.814053
15160000000 -23.802441 118.81508 -52.102207 174.92789 -52.086395 173.42342 -12.385561 41.271931
15170000000 -23.889427 114.54427 -53.391762 160.95787 -53.379425 161.32623 -12.243901 40.984562
15180000000 -25.027416 119.32932 -52.001785 148.8376 -51.995262 145.79901 -12.23204 40.789234
15190000000 -24.818415 120.32088 -50.472858 125.68333 -50.335842 125.75359 -12.350454 40.658058
15200000000 -25.950773 132.37132 -49.617363 96.636734 -49.399864 93.960724 -12.568572 40.283615
15210000000 -23.681122 134.1904 -49.612156 71.800148 -49.626442 69.348892 -12.757974 39.662228
15220000000 -23.778759 136.52472 -49.707981 48.464634 -49.600403 47.438732 -12.911068 38.285999
15230000000 -22.194536 130.6637 -49.435665 22.62726 -49.370209 22.372654 -13.043887 36.763161
15240000000 -22.472605 126.08397 -49.70787 -3.4181087 -49.70171 -4.5142307 -13.179394 35.644344
15250000000 -22.121313 117.86168 -50.333866 -25.808952 -50.075802 -27.542158 -13.26193 34.744156
15260000000 -23.474403 116.02101 -49.380527 -40.530949 -49.651665 -43.463558 -13.266635 34.405766
15270000000 -23.346462 115.59433 -48.943943 -66.281593 -48.965111 -69.311302 -13.246672 34.417812
15280000000 -24.360437 116.50386 -48.795261 -89.921509 -48.813801 -90.886368 -13.211464 35.219589
15290000000 -24.071932 120.56397 -48.963757 -118.37655 -48.84885 -120.73642 -13.258091 36.488918
15300000000 -23.750685 126.73512 -48.714478 -144.99985 -48.792671 -147.69649 -13.429643 38.02235
15310000000 -22.45435 124.0365 -48.796875 -165.88042 -48.838985 -168.80029 -13.681237 39.162449
15320000000 -22.184151 121.5424 -49.820786 166.70963 -50.003326 166.84486 -13.9466 39.76474
15330000000 -21.562813 115.77956 -49.494701 149.8203 -49.654434 148.06676 -14.12174 39.52702
15340000000 -21.99626 108.50877 -49.596218 128.56912 -49.8801 128.74083 -14.227573 39.241577
15350000000 -22.628424 105.86901 -48.446037 103.99558 -48.716248 102.96825 -14.179334 39.290573
15360000000 -23.373419 100.52618 -48.966293 83.359718 -48.983257 81.662025 -14.193823 39.527771
15370000000 -24.552935 102.59131 -47.934723 58.423302 -47.689442 57.214077 -14.240426 39.880943
15380000000 -25.055246 106.20705 -47.649174 32.536564 -47.576649 31.55155 -14.239109 40.000427
15390000000 -24.664242 111.83939 -47.635139 10.889736 -47.562115 8.9713669 -14.120487 39.692097
15400000000 -24.171492 109.0841 -47.149498 -12.667393 -47.047081 -13.534412 -13.92783 39.813072
15410000000 -23.136229 108.21523 -46.693897 -40.987576 -46.622288 -42.554478 -13.723509 40.65321
15420000000 -23.708204 99.565796 -46.785698 -61.093815 -46.597118 -63.329208 -13.68427 42.195393
15430000000 -23.074574 97.669586 -46.491043 -87.175728 -46.655361 -90.003357 -13.782902 43.907043
15440000000 -24.309484 83.975983 -46.261276 -106.94086 -46.329144 -108.94092 -14.063025 44.761669
15450000000 -25.404099 87.132484 -46.04678 -129.21101 -46.127487 -130.17197 -14.342656 44.375435
15460000000 -27.112604 78.772415 -44.762375 -153.71434 -44.825108 -155.57365 -14.523225 42.814209
15470000000 -28.249668 95.128677 -44.187119 -176.98509 -44.340244 -178.23167 -14.551998 41.064548
15480000000 -28.996777 91.187653 -43.352097 157.53163 -43.439987 156.28581 -14.520749 40.214081
15490000000 -27.634262 100.71777 -43.256607 132.40166 -43.326454 130.58226 -14.482291 40.58707
15500000000 -28.077093 90.035515 -42.737457 104.30075 -42.784882 104.38816 -14.469563 41.639427
15510000000 -27.049913 95.553726 -42.493259 79.760605 -42.539318 78.633896 -14.415658 42.689934
15520000000 -27.889069 74.538857 -42.251747 57.823639 -42.237209 56.911446 -14.429862 43.280777
15530000000 -28.80232 78.425842 -41.374496 31.645617 -41.260395 30.207087 -14.45861 44.607342
15540000000 -30.596041 53.165554 -41.264534 7.5188723 -41.412502 6.4008203 -14.489073 46.517776
15550000000 -34.015804 75.877495 -40.808609 -18.978745 -40.64003 -19.889044 -14.551149 48.563652
15560000000 -37.431267 54.735359 -40.53698 -42.867695 -40.523312 -44.738258 -14.660521 50.506779
15570000000 -38.624393 122.27574 -40.006355 -68.313385 -39.99855 -69.520454 -14.810928 51.482548
15580000000 -41.052074 87.725395 -39.746933 -91.988686 -39.68446 -93.536736 -14.990136 52.100018
15590000000 -37.633945 132.81157 -39.131058 -119.6403 -39.109657 -121.08912 -15.090711 52.178459
15600000000 -41.850212 99.900406 -38.877777 -144.8369 -38.862076 -146.50133 -15.052706 51.987442
15610000000 -38.378468 134.47668 -38.731216 -171.81116 -38.71645 -173.52136 -14.937216 51.452831
15620000000 -44.199451 39.356995 -38.724178 163.36888 -38.686855 161.86757 -14.761795 51.344196
15630000000 -43.208328 -125.02783 -38.559898 138.06235 -38.628735 136.25487 -14.499728 51.761242
15640000000 -42.233711 -91.539543 -38.237717 113.66566 -38.281883 112.44083 -14.239391 52.509747
15650000000 -34.566605 -129.12819 -38.430653 88.868454 -38.459751 87.010643 -14.096395 54.004501
15660000000 -35.251606 -124.67367 -37.907875 63.91465 -37.907585 62.346027 -14.044044 56.105595
15670000000 -30.653984 -139.31883 -37.983944 36.836826 -38.011265 34.701916 -14.087333 57.862576
15680000000 -31.21269 -144.37274 -37.968811 10.831281 -37.990349 9.57868 -14.184669 58.730545
15690000000 -29.354965 -150.69371 -37.86478 -14.133091 -37.878204 -15.590101 -14.293315 58.716827
15700000000 -30.54985 -154.10594 -38.004013 -40.771812 -38.058563 -41.329453 -14.410197 58.706131
15710000000 -29.767096 -147.65607 -38.217793 -65.199364 -38.216621 -66.85833 -14.369722 59.495144
15720000000 -29.409603 -144.85651 -38.378994 -90.221313 -38.393723 -90.942871 -14.24773 60.258656
15730000000 -28.182558 -140.12694 -38.639053 -114.77087 -38.516544 -116.30651 -14.171876 60.639431
15740000000 -27.80258 -138.14833 -38.658813 -139.01971 -38.714272 -140.1003 -14.075373 60.779308
15750000000 -25.708355 -137.19432 -38.753593 -164.08946 -38.801704 -165.17157 -13.899711 60.703281
15760000000 -25.137701 -146.37163 -39.046013 171.81287 -39.05547 171.12764 -13.544062 61.072212
15770000000 -24.451286 -147.42044 -39.240025 145.73544 -39.187294 144.75137 -13.097695 62.208702
15780000000 -24.403118 -155.66907 -39.925331 121.11562 -39.849117 119.97781 -12.698053 63.943146
15790000000 -24.481474 -155.42366 -40.150597 96.478172 -40.041916 95.68795 -12.417897 66.021881
15800000000 -24.772371 -159.98471 -41.067623 72.900314 -41.064106 70.878265 -12.316975 67.496002
15810000000 -24.671671 -152.42685 -41.497692 52.170837 -41.449379 50.687054 -12.326085 67.950745
15820000000 -24.385408 -152.27411 -41.729382 30.386087 -41.750069 28.927139 -12.344526 67.202682
15830000000 -23.373297 -145.94844 -42.132622 5.489532 -42.09206 4.8884354 -12.249046 65.720161
15840000000 -22.608891 -147.68163 -42.261002 -13.513543 -42.242039 -14.54258 -12.026772 63.754421
15850000000 -21.569208 -149.64435 -42.585266 -42.036839 -42.535587 -43.713139 -11.769001 61.962536
15860000000 -21.583963 -155.36974 -43.379105 -61.426159 -43.241951 -63.476322 -11.501539 60.568821
15870000000 -21.410063 -157.1024 -43.808163 -87.185211 -44.002003 -87.819305 -11.215631 59.52206
15880000000 -21.871504 -161.22241 -45.183094 -110.79829 -45.117672 -112.17884 -10.917162 58.528793
15890000000 -22.089542 -159.31059 -45.818424 -127.18833 -45.798489 -127.96131 -10.639115 57.722809
15900000000 -22.544607 -159.46036 -46.045811 -148.38933 -46.026722 -150.6694 -10.418816 57.094059
15910000000 -22.029608 -152.87897 -47.552834 -165.73598 -47.693638 -166.72186 -10.304605 56.65929
15920000000 -21.483187 -152.42238 -47.411152 175.30881 -47.599434 173.2887 -10.279935 56.388054
15930000000 -20.259829 -150.24323 -48.242031 157.76645 -48.253029 155.62376 -10.295077 55.596203
15940000000 -19.837509 -155.20424 -47.836517 138.46565 -47.802387 135.9408 -10.379068 54.075951
15950000000 -19.298594 -155.58258 -48.607059 109.91813 -48.533134 109.01414 -10.478262 52.11647
15960000000 -19.346191 -161.25775 -50.059841 95.650932 -49.909569 92.526794 -10.541106 49.481071
15970000000 -19.356852 -160.07776 -51.30201 77.470917 -51.103161 76.513992 -10.582557 46.723141
15980000000 -19.955269 -161.7253 -51.76511 78.696945 -51.560173 74.740692 -10.507012 44.212418
15990000000 -19.808037 -155.16594 -50.102459 63.027763 -50.266071 60.623013 -10.402415 42.262146
16000000000 -19.854193 -154.22115 -49.214779 35.290779 -49.14397 35.063889 -10.269691 41.330082
16010000000 -18.859179 -149.13567 -50.039997 19.861492 -49.90527 16.60606 -10.198889 40.801605
16020000000 -18.238625 -153.25574 -49.894455 -0.42085591 -49.698925 -1.3353422 -10.281568 40.538551
16030000000 -17.592524 -152.41559 -50.340385 -16.914312 -50.595257 -17.268314 -10.503411 39.933884
16040000000 -17.189657 -157.69635 -49.254856 -27.042034 -49.140179 -28.659758 -10.819186 38.920601
16050000000 -17.032835 -158.88136 -48.537563 -48.737324 -48.655952 -49.135426 -11.110391 37.204414
16060000000 -17.113798 -162.37914 -47.444195 -69.869705 -47.350342 -70.896065 -11.403147 35.155972
16070000000 -17.323641 -159.32684 -47.580536 -92.881989 -47.33474 -94.305618 -11.659915 33.331978
16080000000 -16.990992 -158.58542 -46.925625 -116.45856 -46.888165 -117.54174 -11.926361 31.696886
16090000000 -16.739523 -154.62367 -47.43269 -134.79395 -47.177887 -136.87558 -12.213359 30.038065
16100000000 -16.060129 -154.91478 -46.449776 -158.99631 -46.492668 -160.14674 -12.451268 28.52458
16110000000 -15.607051 -155.00684 -46.876701 -178.03851 -46.925846 179.68877 -12.544316 27.216278
16120000000 -14.988238 -157.54431 -46.348854 160.13559 -46.389759 158.37941 -12.585407 26.783758
16130000000 -14.748585 -159.42209 -47.133873 139.71252 -47.100746 136.99606 -12.623895 28.047672
16140000000 -14.515262 -162.38242 -46.046162 121.62253 -46.075096 119.83134 -12.75281 30.279366
16150000000 -14.629638 -163.76707 -46.482758 96.647964 -46.469917 94.828011 -13.051277 32.631855
16160000000 -14.459859 -164.32886 -45.942596 76.732414 -46.174007 74.542618 -13.527527 34.056541
16170000000 -14.346536 -163.30202 -45.519707 51.653458 -45.690296 51.449013 -14.092016 34.399246
16180000000 -13.787114 -162.47224 -46.300671 29.497955 -46.14687 27.591497 -14.53609 33.497017
16190000000 -13.545961 -162.91344 -46.826736 5.9271173 -46.703655 3.6058896 -14.809521 32.199245
16200000000 -12.980199 -162.41203 -47.437519 -10.616022 -47.211018 -10.676613 -14.917729 31.218565
16210000000 -12.596253 -165.2993 -46.317467 -29.365541 -46.245205 -32.075485 -14.976675 30.742771
16220000000 -12.350103 -165.55849 -47.533192 -50.684166 -47.381435 -52.22945 -15.020384 30.634586
16230000000 -12.127356 -169.40802 -46.600113 -67.491348 -46.554913 -69.468552 -15.016319 30.760921
16240000000 -12.175323 -169.22629 -46.853226 -89.402573 -46.665253 -91.683769 -14.92655 31.253536
16250000000 -12.148314 -171.6015 -46.531345 -109.04086 -46.488579 -110.51053 -14.760223 32.614502
16260000000 -11.933431 -170.53061 -46.320217 -129.59792 -46.234673 -131.83049 -14.683052 34.732529
16270000000 -11.683483 -172.62439 -46.472454 -153.89735 -46.417782 -155.72781 -14.789595 37.337673
16280000000 -11.421063 -171.99901 -47.129036 -168.64294 -47.036602 -170.9386 -15.114101 39.587399
16290000000 -11.003962 -173.83601 -46.296528 169.45303 -46.127308 168.6864 -15.538668 40.215935
16300000000 -10.62338 -174.65845 -46.43642 146.44267 -46.512932 145.12721 -16.011692 38.980522
16310000000 -10.417498 -177.72522 -46.174713 131.13461 -46.044014 131.04408 -16.38171 36.599503
16320000000 -10.236087 -177.68904 -45.615604 103.17235 -45.482662 102.14728 -16.558334 34.545425
16330000000 -10.098314 179.90659 -46.228146 89.08979 -45.997272 86.852875 -16.620775 32.60939
16340000000 -10.079804 179.77829 -44.947403 64.300087 -45.070869 61.754242 -16.74271 31.576986
16350000000 -9.9867592 178.55472 -45.680855 41.083336 -45.583881 41.102749 -16.809158 31.068865
16360000000 -9.7992697 178.65025 -45.344021 24.667276 -45.286392 22.951448 -16.872217 31.465244
16370000000 -9.6686869 176.98447 -44.781399 0.41448635 -44.637989 -1.7372855 -16.961731 32.55603
16380000000 -9.3680172 176.86845 -45.097534 -23.538389 -44.989204 -25.085112 -17.220367 35.297371
16390000000 -9.1250706 174.10571 -44.757748 -40.380424 -44.911083 -43.177803 -17.7372 38.530281
16400000000 -8.9428015 172.99574 -45.151981 -66.61628 -45.023312 -67.241226 -18.524616 42.175461
16410000000 -8.8045111 170.95642 -44.483833 -85.286903 -44.400837 -85.979088 -19.431217 44.717838
16420000000 -8.6149797 170.2693 -44.521 -110.48543 -44.375477 -113.36224 -20.329279 46.222286
16430000000 -8.5355492 168.49139 -44.601791 -131.81326 -44.542358 -132.87018 -20.926929 47.37878
16440000000 -8.4143133 168.82372 -44.415962 -153.58282 -44.385777 -155.22623 -21.263783 49.75206
16450000000 -8.2860155 167.44467 -44.249897 -179.27051 -44.240929 179.21928 -21.402367 53.168457
16460000000 -8.134161 167.69533 -44.871822 160.06607 -44.68301 158.81693 -21.394548 58.334118
16470000000 -7.9452367 166.28555 -44.304424 135.95726 -44.262608 133.07219 -21.035635 62.075302
16480000000 -7.7692451 165.395 -45.006889 115.91892 -45.051735 113.87705 -20.509666 64.913437
16490000000 -7.6553097 163.23723 -44.245209 92.114288 -44.271488 90.427071 -19.71035 67.796265
16500000000 -7.5447297 162.77869 -44.644405 68.176414 -44.712955 67.244972 -18.877745 71.640289
16510000000 -7.3804669 160.50731 -44.674252 43.186291 -44.711414 41.688263 -18.139427 76.399597
16520000000 -7.3382573 160.05696 -45.097309 19.036327 -45.156048 18.266775 -17.680882 80.755585
16530000000 -7.1532536 158.48935 -45.303307 -8.412528 -45.437065 -10.758776 -17.623537 83.587791
16540000000 -7.0905929 158.6835 -46.439331 -26.773228 -46.66489 -27.232525 -17.753859 84.116074
16550000000 -6.8174362 157.44977 -46.811966 -53.131485 -46.818909 -54.512321 -17.846693 82.547775
16560000000 -6.6973362 157.24969 -47.015652 -68.14637 -46.93956 -68.811363 -17.705271 79.859421
16570000000 -6.5027647 155.61334 -47.164387 -98.930298 -47.087776 -101.63934 -17.477278 77.605675
16580000000 -6.4087758 155.19838 -47.730656 -121.51457 -47.484989 -123.83749 -17.215578 76.918259
16590000000 -6.2119236 153.61351 -49.078648 -148.35422 -48.928818 -148.2655 -16.969461 76.75106
16600000000 -6.1821136 152.49086 -49.4431 -171.92586 -49.348412 -174.08502 -16.789789 76.438759
16610000000 -6.0349813 151.13406 -51.406841 166.31783 -51.666443 162.88629 -16.556042 76.244339
16620000000 -5.9990468 150.27577 -51.392483 142.61691 -51.504963 142.91449 -16.252501 77.097214
16630000000 -5.7622628 149.28307 -53.506069 119.58517 -53.644405 121.31689 -15.85771 79.126068
16640000000 -5.6395411 148.4411 -55.5653 88.620186 -55.734856 85.964867 -15.61025 81.749329
16650000000 -5.3677988 147.30551 -61.243244 84.150475 -60.910694 85.149261 -15.565939 84.377434
16660000000 -5.273025 146.31639 -64.951942 71.831459 -64.964546 78.745522 -15.712712 86.385185
16670000000 -5.0060821 145.29562 -61.335293 90.126373 -61.421524 95.039436 -15.883494 86.494781
16680000000 -4.9238844 143.89935 -64.096245 94.380432 -63.478241 93.788582 -15.909176 84.795341
16690000000 -4.7425733 142.94485 -60.374462 70.073471 -60.094158 73.619118 -15.681773 82.215195
16700000000 -4.7052121 141.75468 -60.654232 74.894745 -60.810429 77.076042 -15.311118 80.070282
16710000000 -4.5042152 140.91301 -57.800499 61.279705 -57.990906 62.586525 -14.832669 79.090446
16720000000 -4.4466619 139.51048 -55.343044 54.088711 -55.376511 51.718018 -14.400179 78.659882
16730000000 -4.2143245 138.60902 -53.566738 22.409813 -53.572487 21.092739 -14.05752 78.472015
16740000000 -4.1034727 137.10085 -52.141144 -0.54932499 -51.621922 -2.142112 -13.807686 78.071281
16750000000 -3.8891115 135.86232 -51.435631 -22.733263 -51.550941 -24.452089 -13.635754 77.874794
16760000000 -3.7742136 134.34805 -50.142677 -55.985199 -49.803185 -57.005112 -13.552183 77.560333
16770000000 -3.5742633 133.02118 -51.215897 -75.120277 -51.185974 -76.093903 -13.568493 76.828339
16780000000 -3.5005007 131.47592 -50.542873 -98.746971 -50.447716 -100.33062 -13.702361 75.703934
16790000000 -3.3551543 130.5141 -50.388134 -118.04023 -50.236115 -121.07763 -13.916456 73.819511
16800000000 -3.2693307 129.12939 -50.275902 -138.79753 -50.317085 -142.175 -14.135178 71.062584
16810000000 -3.104846 128.02237 -49.271999 -160.10651 -49.353703 -162.78955 -14.2938 67.811668
16820000000 -3.0228722 126.46698 -48.894489 170.46992 -49.041286 169.30116 -14.34411 64.126808
16830000000 -2.8432469 125.17763 -49.243061 147.3613 -48.97937 144.50383 -14.325943 61.067322
16840000000 -2.7497981 123.38033 -49.509357 119.47282 -49.539185 117.86407 -14.266521 59.076214
16850000000 -2.5927448 121.90688 -49.779617 103.1384 -49.584679 100.17345 -14.217216 58.322113
16860000000 -2.5091937 120.1277 -49.727001 77.825127 -49.687714 77.703003 -14.246837 58.458893
16870000000 -2.3655386 118.78062 -49.955376 56.549213 -49.949738 54.331165 -14.461021 59.382534
16880000000 -2.297406 117.27612 -49.969131 36.759182 -49.934456 33.530621 -14.867404 60.890919
16890000000 -2.1477096 116.14535 -49.737164 12.660665 -49.581558 9.912818 -15.464493 61.927708
16900000000 -2.0658169 114.70583 -50.525806 -11.403411 -50.440102 -13.32369 -16.154547 62.203163
16910000000 -1.9396554 113.4264 -50.142742 -35.25095 -50.189495 -36.423195 -16.921741 61.441864
16920000000 -1.8673204 111.95063 -50.752251 -57.631184 -50.946545 -61.38895 -17.646023 60.250191
16930000000 -1.7469894 110.43588 -52.190552 -80.679237 -51.884605 -81.275475 -18.17835 59.79414
16940000000 -1.6962556 108.67659 -51.462135 -98.521591 -51.537975 -99.483521 -18.429239 60.496857
16950000000 -1.5975034 107.10194 -52.352859 -124.11974 -51.946026 -126.83054 -18.546448 62.047855
16960000000 -1.5360086 105.3425 -52.433979 -144.80997 -52.46851 -145.18092 -18.566303 64.998962
16970000000 -1.4389788 103.81968 -52.725723 -165.28404 -52.943314 -169.24854 -18.519648 69.833878
16980000000 -1.3677136 102.22112 -53.746738 174.34396 -53.941147 173.28694 -18.261753 75.699905
16990000000 -1.255206 100.75097 -53.39106 157.72322 -53.109226 155.90805 -17.867468 81.221512
17000000000 -1.1826197 99.194977 -53.178356 131.63771 -53.122501 128.30482 -17.528421 86.139427
