!Keysight Technologies,P9374A,MY57211807,A.19.30.04
!Date: Friday, May 01, 2026 14:06:48
!Correction: S11(C  2-Port  ) 
!S21(C  2-Port  ) 
!S12(C  2-Port  ) 
!S22(C  2-Port  ) 
!S2P File: Measurements: S11, S21, S12, S22:
# Hz S  RI   R 50
13000000000 0.053141087 0.10023977 -0.11358592 0.06429819 -0.11236294 0.065642983 0.012331881 0.17996287
13010000000 0.055061337 0.1032894 -0.079312228 0.10081379 -0.078877963 0.1015314 -0.0077198297 0.15712664
13020000000 0.05239059 0.093494944 -0.033782851 0.12421232 -0.03251268 0.12558186 -0.034919057 0.15525669
13030000000 0.048003573 0.095237195 0.013552539 0.12684022 0.015983924 0.12755874 -0.040045854 0.17910181
13040000000 0.040656447 0.087970257 0.062457666 0.11251285 0.064696021 0.11127412 -0.025573678 0.19756164
13050000000 0.037583489 0.094857745 0.099678487 0.080949455 0.10046764 0.079585545 -0.00024184625 0.18963437
13060000000 0.036472805 0.093472525 0.12386721 0.035818823 0.12410863 0.034439038 0.0029129852 0.16867769
13070000000 0.039172206 0.10009121 0.12809841 -0.014543552 0.12837756 -0.01557504 -0.01387937 0.15493028
13080000000 0.042729326 0.097214051 0.11279602 -0.06185019 0.11286309 -0.063701764 -0.033787258 0.16434056
13090000000 0.047445618 0.099191703 0.080730289 -0.09965881 0.079227895 -0.10150657 -0.030678295 0.1883809
13100000000 0.049275581 0.092883438 0.036881909 -0.12171755 0.034800183 -0.12231879 -0.0031872541 0.20213252
13110000000 0.047562964 0.096391402 -0.012536416 -0.12746491 -0.013731748 -0.12668335 0.015195478 0.18976787
13120000000 0.046903163 0.090800159 -0.060070727 -0.11228331 -0.061626013 -0.11258131 0.012449071 0.16510591
13130000000 0.042486802 0.097469829 -0.099328965 -0.081595071 -0.10010948 -0.080329239 -0.015850943 0.1534503
13140000000 0.044089939 0.094877459 -0.12179443 -0.036985479 -0.12284479 -0.035898156 -0.03671461 0.1668327
13150000000 0.044414748 0.10157187 -0.12691349 0.011355739 -0.12723666 0.013561051 -0.034298562 0.19242641
13160000000 0.048743047 0.096350789 -0.11287367 0.057822693 -0.11178287 0.059616931 -0.0035449192 0.20329162
13170000000 0.048392788 0.098537326 -0.082056239 0.097401448 -0.081074327 0.098047912 0.021842785 0.19202891
13180000000 0.050343763 0.093868949 -0.040027097 0.12025235 -0.039135192 0.12127708 0.024722952 0.16799392
13190000000 0.05243703 0.0980189 0.0093593858 0.12836982 0.011531387 0.12885576 0.0072305268 0.15453598
13200000000 0.057090499 0.095229924 0.057454783 0.11420923 0.058828589 0.1136104 -0.014002789 0.16482465
13210000000 0.060685873 0.09686999 0.096143432 0.084163874 0.097309321 0.082765758 -0.011623077 0.18506745
13220000000 0.063774206 0.091566578 0.12081367 0.041645162 0.12107185 0.040587764 0.0079976544 0.1962239
13230000000 0.06218031 0.09162885 0.12753397 -0.0081469789 0.12774479 -0.0092686042 0.030774653 0.18723258
13240000000 0.06284295 0.087960966 0.11610681 -0.055169657 0.1162959 -0.056508753 0.032380674 0.16968369
13250000000 0.06021243 0.090054959 0.085691273 -0.096133389 0.084610499 -0.097950712 0.021260431 0.161586
13260000000 0.060880493 0.090356082 0.043463983 -0.1217003 0.041624628 -0.12179842 0.0079292413 0.17139085
13270000000 0.061839946 0.092279859 -0.0067741908 -0.12736313 -0.0074942708 -0.12727673 0.012280032 0.18630013
13280000000 0.067617655 0.091337204 -0.054103993 -0.11645356 -0.055006206 -0.11623344 0.028747104 0.18747251
13290000000 0.073240012 0.086278953 -0.093692772 -0.086687922 -0.094828829 -0.086251706 0.039424263 0.17507523
13300000000 0.076851577 0.080823883 -0.12135418 -0.045886882 -0.12252902 -0.044763055 0.042731006 0.15505041
13310000000 0.077918798 0.073962674 -0.12989862 0.0037626661 -0.12986253 0.0055613853 0.033233326 0.15011188
13320000000 0.077810265 0.070481554 -0.11904323 0.053864472 -0.11828683 0.054893766 0.032954503 0.15868977
13330000000 0.07561557 0.067500576 -0.089368932 0.0934145 -0.088727601 0.093996353 0.040842101 0.17118008
13340000000 0.074381247 0.069627471 -0.046285227 0.12155144 -0.04578504 0.12247784 0.05166059 0.17467684
13350000000 0.073249698 0.070154272 0.0030413494 0.12925598 0.0046183504 0.12962845 0.055670153 0.16716543
13360000000 0.077172615 0.07347592 0.052025974 0.11920133 0.053674202 0.11919531 0.049727473 0.15429583
13370000000 0.078087404 0.069449201 0.093379825 0.091710508 0.094735652 0.090422422 0.043876112 0.14597148
13380000000 0.082660861 0.069443092 0.1216289 0.048542134 0.12185533 0.047146998 0.044280924 0.14614977
13390000000 0.085108519 0.060201962 0.13022478 -0.00037657283 0.13032721 -0.0012572191 0.053798392 0.14818189
13400000000 0.086508818 0.05612291 0.12008429 -0.05077583 0.12027002 -0.051908288 0.062351234 0.15250638
13410000000 0.081522517 0.04159826 0.093031496 -0.091204397 0.092239 -0.093288109 0.065469041 0.14745782
13420000000 0.078799635 0.043339491 0.050709873 -0.12248584 0.049158022 -0.12313925 0.05959462 0.14011803
13430000000 0.073984087 0.036147758 0.001625251 -0.13211712 -0.00015727431 -0.13237596 0.052990414 0.13161497
13440000000 0.073604397 0.042422388 -0.049947176 -0.12229797 -0.05109388 -0.12168553 0.051857714 0.12705103
13450000000 0.069351867 0.040087692 -0.092657074 -0.094618313 -0.093913049 -0.093938738 0.059435494 0.12488313
13460000000 0.075989403 0.048451725 -0.12108133 -0.051743593 -0.12168182 -0.050607443 0.066863388 0.12431546
13470000000 0.079489402 0.04119261 -0.13305138 -0.0026330277 -0.13384841 -0.0013083629 0.068045691 0.12517987
13480000000 0.086945817 0.039655127 -0.12315185 0.047790609 -0.12276054 0.049949989 0.061701022 0.12455051
13490000000 0.080857627 0.02578729 -0.097175047 0.092100248 -0.095867828 0.093182802 0.059717268 0.12428629
13500000000 0.078950964 0.022427656 -0.054215401 0.12116013 -0.052841984 0.12214735 0.059179939 0.11686998
13510000000 0.067006662 0.0093977191 -0.003567066 0.13409406 -0.0020250231 0.13456243 0.064296596 0.10949251
13520000000 0.061007801 0.015715398 0.046435773 0.12523696 0.048203655 0.12498111 0.063207567 0.1011765
13530000000 0.052270189 0.015327171 0.092204161 0.098175377 0.09361992 0.097266674 0.059392091 0.10329053
13540000000 0.057867602 0.026937665 0.12202017 0.055892225 0.12275591 0.05408917 0.05590041 0.10356731
13550000000 0.061246317 0.024119852 0.13389507 0.0038186498 0.1342492 0.0024220273 0.051273592 0.1071693
13560000000 0.070380062 0.027924201 0.12615807 -0.045591667 0.12585279 -0.047346003 0.055256139 0.10321556
13570000000 0.071509317 0.015920173 0.098996691 -0.091030762 0.098112464 -0.092580535 0.058431186 0.096379973
13580000000 0.071622014 0.013769403 0.058515988 -0.12164915 0.056879308 -0.12309904 0.060081333 0.093688071
13590000000 0.061237216 0.0024393522 0.006149895 -0.13531859 0.0040981714 -0.13527714 0.056921739 0.096430853
13600000000 0.052419826 0.004990506 -0.045484971 -0.12806454 -0.047047559 -0.12725322 0.059184399 0.096539788
13610000000 0.039031044 0.0051814169 -0.091503635 -0.10035801 -0.092432782 -0.099920884 0.056721851 0.091744386
13620000000 0.036225162 0.016540239 -0.12305778 -0.058413599 -0.12455703 -0.057350188 0.052383438 0.087715805
13630000000 0.035536371 0.019127227 -0.13523999 -0.0074984916 -0.13623035 -0.0053577796 0.043507047 0.080898933
13640000000 0.043816913 0.025517479 -0.12951759 0.045425069 -0.12861557 0.047980718 0.037634127 0.087598018
13650000000 0.049746692 0.016594313 -0.10043438 0.09164717 -0.09866713 0.092329085 0.041116722 0.097684935
13660000000 0.056159679 0.014219098 -0.057516567 0.12279816 -0.056658737 0.12315696 0.047746152 0.10092024
13670000000 0.054970693 0.0021033622 -0.007851772 0.13226885 -0.0068079121 0.13307214 0.060193487 0.091556169
13680000000 0.049449012 0.00014781207 0.042016905 0.12776303 0.044199143 0.12802464 0.059522957 0.076732852
13690000000 0.039582364 -0.0010413807 0.086293206 0.1028688 0.088369451 0.10142827 0.051242828 0.072341092
13700000000 0.033848573 0.010878925 0.12242416 0.062012758 0.12308265 0.059903808 0.040696315 0.077776194
13710000000 0.032251917 0.017342415 0.13487023 0.010913709 0.13457349 0.0094247721 0.039106093 0.093151867
13720000000 0.035569131 0.026668577 0.12840414 -0.0432197 0.12840211 -0.044307657 0.046920303 0.0981417
13730000000 0.041198928 0.024144974 0.10410626 -0.085584737 0.10359506 -0.087604649 0.052621465 0.089769222
13740000000 0.045891177 0.023827273 0.062591106 -0.12099686 0.060642816 -0.12239469 0.054055043 0.075741529
13750000000 0.047707308 0.012686068 0.013814665 -0.13678929 0.011628237 -0.13671182 0.047776014 0.072052717
13760000000 0.044523694 0.0072958246 -0.041087314 -0.12941001 -0.042155474 -0.12881777 0.043830447 0.082778029
13770000000 0.040365119 -0.0014524926 -0.086406432 -0.10622698 -0.08825516 -0.10598543 0.048503708 0.094022438
13780000000 0.034262363 0.0033881017 -0.11821647 -0.062478043 -0.12015517 -0.06083028 0.06141283 0.096691668
13790000000 0.036686003 0.00417015 -0.13631015 -0.014078408 -0.13666569 -0.01142882 0.067786761 0.081565619
13800000000 0.035584629 0.010956449 -0.12936121 0.037459005 -0.12837693 0.039689466 0.062299311 0.061911061
13810000000 0.0416434 0.010810828 -0.10643551 0.086102396 -0.10505162 0.087102637 0.048328474 0.05498793
13820000000 0.044624705 0.01498922 -0.06606479 0.11621772 -0.065354779 0.11714566 0.040640496 0.073032759
13830000000 0.049593616 0.0091987941 -0.01561898 0.13393775 -0.01368947 0.13544573 0.046817414 0.092821166
13840000000 0.046994098 0.007627923 0.03342526 0.13073073 0.03672415 0.13049856 0.065797962 0.09819597
13850000000 0.046889827 0.0011997959 0.084230229 0.10724424 0.085667573 0.1048954 0.079448164 0.079247043
13860000000 0.043560669 -0.0013229582 0.11772571 0.069371007 0.11809543 0.06771984 0.073013775 0.05593672
13870000000 0.040388476 -0.009027495 0.13306835 0.016765123 0.13339154 0.015741946 0.05866218 0.04412609
13880000000 0.034070723 -0.0092512006 0.13143586 -0.031156104 0.13177632 -0.033197396 0.051758453 0.052510854
13890000000 0.034354735 -0.0091720056 0.10825843 -0.078872547 0.10772453 -0.081406355 0.056212284 0.069923595
13900000000 0.034071356 -0.0059422972 0.073762067 -0.11627957 0.071097076 -0.11789744 0.0697603 0.075409487
13910000000 0.039927438 -0.0072615147 0.022152964 -0.13501671 0.020013321 -0.13412201 0.082040027 0.058641929
13920000000 0.041007936 -0.0073165586 -0.031808201 -0.13416442 -0.032428298 -0.1340996 0.073178433 0.037992898
13930000000 0.046985753 -0.010984379 -0.078510292 -0.10984236 -0.080252975 -0.10991888 0.058431998 0.033696678
13940000000 0.042298254 -0.018276904 -0.11503526 -0.073148921 -0.11737269 -0.071622744 0.050714549 0.044253934
13950000000 0.037112176 -0.022569701 -0.13332704 -0.024999171 -0.13392 -0.022099581 0.062195275 0.061757136
13960000000 0.024151608 -0.022622189 -0.13419878 0.029466663 -0.13292488 0.031443167 0.081034958 0.060234897
13970000000 0.022769284 -0.019859377 -0.11217524 0.077460878 -0.11145873 0.078195527 0.085483 0.039219327
13980000000 0.018053271 -0.021450466 -0.073658422 0.1140345 -0.073232174 0.1158209 0.075931065 0.01669115
13990000000 0.019991638 -0.023459725 -0.026118457 0.1323842 -0.024048395 0.13434751 0.053557627 0.0090773823
14000000000 0.01683408 -0.02891122 0.026126392 0.13353628 0.029630776 0.13300145 0.039584268 0.025233107
14010000000 0.021061638 -0.033158518 0.073914453 0.11369029 0.075372502 0.11105633 0.048037663 0.041402567
14020000000 0.015460553 -0.039739415 0.11132467 0.076716512 0.11129103 0.075257234 0.065422058 0.044132918
14030000000 0.013852081 -0.03709428 0.13220945 0.030687936 0.13312514 0.030139197 0.073152721 0.025916286
14040000000 0.010084739 -0.034665626 0.13411056 -0.021771178 0.13566756 -0.024033278 0.062652335 0.0062768757
14050000000 0.016042871 -0.030757582 0.11879838 -0.071378887 0.11764151 -0.075163886 0.046776708 0.0010863282
14060000000 0.010980035 -0.034803569 0.080849484 -0.11129224 0.077151239 -0.11280285 0.03502728 0.013345445
14070000000 0.0075432956 -0.032610487 0.032433417 -0.13500823 0.030536424 -0.13338381 0.039708927 0.026583202
14080000000 -0.0013095387 -0.032578651 -0.020894229 -0.13352571 -0.021184884 -0.13423362 0.051287387 0.021779805
14090000000 -0.0052329842 -0.03030178 -0.068762004 -0.11904887 -0.071588919 -0.11961497 0.054459739 0.0039472748
14100000000 -0.013920322 -0.031284101 -0.10859045 -0.084858343 -0.11165055 -0.082447954 0.038549542 -0.018409783
14110000000 -0.017359119 -0.026472718 -0.13649566 -0.037471551 -0.13685706 -0.033916038 0.020603508 -0.016989332
14120000000 -0.017441817 -0.027752586 -0.1387721 0.017544791 -0.13730159 0.01969159 0.015264044 0.0032862434
14130000000 -0.015019123 -0.030228324 -0.12050882 0.071420513 -0.11950985 0.071874127 0.027301047 0.02223739
14140000000 -0.019963237 -0.036565039 -0.084617443 0.10710015 -0.085124642 0.10925701 0.044712134 0.020271432
14150000000 -0.02300333 -0.031707037 -0.038818024 0.13272122 -0.035823844 0.13552704 0.049029998 0.0015896671
14160000000 -0.022585833 -0.032185744 0.011622548 0.13969907 0.015837438 0.13884404 0.037176471 -0.020323556
14170000000 -0.024464907 -0.026668005 0.067478068 0.1247565 0.068885721 0.12219822 0.016284686 -0.024063434
14180000000 -0.026205111 -0.027622076 0.11004538 0.089756519 0.11036493 0.088547044 0.0064425073 -0.0072515444
14190000000 -0.030112095 -0.019326372 0.13248186 0.038782783 0.13402754 0.038020134 0.0098222736 0.016003951
14200000000 -0.030792005 -0.021302052 0.1395707 -0.011155825 0.14147289 -0.014386397 0.019819366 0.022005223
14210000000 -0.038555585 -0.015988689 0.12378425 -0.062343955 0.12198364 -0.066687211 0.022020079 0.0088690817
14220000000 -0.040585354 -0.01632786 0.09390571 -0.10873446 0.090185821 -0.10925651 0.01143396 -0.0049347845
14230000000 -0.041343246 -0.0083271945 0.043849405 -0.13458604 0.042833112 -0.13399982 -0.003609889 -0.0094463369
14240000000 -0.036341812 -0.013832468 -0.012229912 -0.14309201 -0.013496686 -0.14426152 -0.0054595233 0.0029402657
14250000000 -0.037063219 -0.011134689 -0.061368082 -0.12616356 -0.064983502 -0.12668523 0.0086746104 0.01335852
14260000000 -0.035571866 -0.01961389 -0.10780008 -0.093348257 -0.11109634 -0.090393156 0.019534986 0.01244706
14270000000 -0.039245911 -0.014110268 -0.13304983 -0.048095204 -0.13327147 -0.044061404 0.017708661 -0.0028412919
14280000000 -0.039693721 -0.018668538 -0.14254028 0.0097260606 -0.141027 0.011473339 1.4959136e-05 -0.014796864
14290000000 -0.045446839 -0.0059401151 -0.12934223 0.059625797 -0.12924463 0.060470514 -0.015724948 -0.0085302694
14300000000 -0.043163363 -0.0025906703 -0.095857441 0.10603952 -0.095543921 0.10907218 -0.021353059 0.0087041128
14310000000 -0.042335264 0.0088506257 -0.051528208 0.13471615 -0.048096694 0.1374054 -0.0055933194 0.027033903
14320000000 -0.036980674 0.0036254488 0.0062944293 0.1430887 0.010341875 0.14204219 0.015215697 0.026901891
14330000000 -0.038417056 0.0081446599 0.061014291 0.13190377 0.062585555 0.12944165 0.019342765 0.013147608
14340000000 -0.036735959 -0.00097855087 0.10455318 0.094692171 0.10530917 0.094074473 0.0065468112 -0.0064529674
14350000000 -0.039266866 0.00054713525 0.13301238 0.051236801 0.13501588 0.049951788 -0.01167933 -0.0069429027
14360000000 -0.040152717 -0.0081748143 0.14183928 -0.0013969167 0.14329754 -0.0048122099 -0.015698655 0.0053336928
14370000000 -0.046186399 -0.0029944917 0.13350806 -0.05652678 0.13197491 -0.060018342 -0.0098727057 0.015451137
14380000000 -0.044007242 -0.0053408928 0.10185567 -0.10364525 0.098688662 -0.10504439 0.003121515 0.015410494
14390000000 -0.043414406 0.0054141544 0.052067343 -0.13509594 0.05063295 -0.13500944 0.0052192779 0.0042905984
14400000000 -0.038147122 0.003105253 -0.00065152347 -0.14352268 -0.0022405759 -0.14469332 -0.0059655495 0.00048435549
14410000000 -0.036551468 0.012777924 -0.054827537 -0.13292262 -0.058422867 -0.13333258 -0.013076838 0.0037679374
14420000000 -0.029306464 0.0096112564 -0.10035899 -0.10428907 -0.10337314 -0.10177176 -0.0095095402 0.01810953
14430000000 -0.029329326 0.011170257 -0.13492022 -0.057245217 -0.13536929 -0.053961162 0.0062057851 0.025099898
14440000000 -0.029113559 0.0011997866 -0.1467185 -0.00065071881 -0.14606456 0.0012164563 0.015913269 0.011566998
14450000000 -0.038291924 0.0019416846 -0.13349636 0.05614043 -0.13348153 0.05787605 0.0080486704 -0.0061268928
14460000000 -0.044688858 -0.0030057933 -0.10264106 0.10135412 -0.10202229 0.10371196 -0.0092292698 -0.016350525
14470000000 -0.04901471 0.00042896718 -0.056914218 0.12974554 -0.053937797 0.13216925 -0.025816686 -0.010749652
14480000000 -0.052300017 -0.00075716525 -0.0060471445 0.14506337 -0.0024151057 0.14459324 -0.025661543 0.0067570237
14490000000 -0.051084336 0.0072884643 0.050451439 0.1361675 0.052445561 0.1345537 -0.011999058 0.020255666
14500000000 -0.043538492 0.0061299801 0.10013159 0.1073643 0.10121092 0.10617848 0.004260167 0.018806128
14510000000 -0.03652484 0.0067716069 0.13215011 0.060384892 0.13383093 0.059061948 0.0084586907 6.0182065e-06
14520000000 -0.032030031 -0.0013252245 0.14612837 0.0053148977 0.1472009 0.0023052245 -0.0016209888 -0.015631786
14530000000 -0.034357619 -0.0031223102 0.13610291 -0.049710386 0.13514419 -0.053044371 -0.012646274 -0.019712429
14540000000 -0.038424794 -0.0067487825 0.1069441 -0.097703837 0.10474384 -0.099326335 -0.018489148 -0.011376019
14550000000 -0.04686483 -0.00509087 0.063182212 -0.12985007 0.061587267 -0.13066258 -0.011618859 -0.0023683163
14560000000 -0.056209706 -0.0026850021 0.0083828922 -0.14398974 0.0061324742 -0.14529084 -0.015278699 -0.0010178215
14570000000 -0.063448258 0.0051124645 -0.046202719 -0.13758826 -0.049729548 -0.13723205 -0.0186776 -0.0023272613
14580000000 -0.063074924 0.011900067 -0.096542105 -0.10878044 -0.098998941 -0.10660978 -0.028940566 -0.0093970485
14590000000 -0.059533969 0.012903489 -0.12925373 -0.064847618 -0.1302769 -0.062083688 -0.033075079 -0.0074884491
14600000000 -0.055341244 0.010618433 -0.14368661 -0.01071123 -0.14370944 -0.0086761862 -0.027194154 -0.0077417903
14610000000 -0.051975366 0.0039408598 -0.13799644 0.04345347 -0.13795775 0.045877185 -0.020484839 -0.0056432555
14620000000 -0.052534394 -0.00097058155 -0.11020024 0.092243098 -0.10943683 0.094836593 -0.01595542 -0.011172007
14630000000 -0.056990221 -0.0070308354 -0.068904288 0.1285017 -0.065882914 0.13073969 -0.026010297 -0.016117807
14640000000 -0.066279098 -0.002705459 -0.013988177 0.14449309 -0.010701757 0.14438719 -0.039776072 -0.018947242
14650000000 -0.070992455 0.0026177475 0.042365633 0.1390754 0.044602636 0.13812275 -0.050468031 -0.016231015
14660000000 -0.074716136 0.014650458 0.090320349 0.11092134 0.091779582 0.10954865 -0.050937127 -0.0083394516
14670000000 -0.074753828 0.020095546 0.12573704 0.06904342 0.12747315 0.067827687 -0.045140568 -0.0039350279
14680000000 -0.073431045 0.029375728 0.14174689 0.01790927 0.14293577 0.015303072 -0.043597009 -0.0025653522
14690000000 -0.069551073 0.025986169 0.14023373 -0.037026305 0.13981804 -0.040152173 -0.04391779 -0.0038282126
14700000000 -0.068276279 0.02682725 0.115659 -0.087405905 0.11372036 -0.089088306 -0.052560143 -0.0076124831
14710000000 -0.07022284 0.015467275 0.072434105 -0.12511891 0.071304388 -0.12614749 -0.057083316 -0.0056350073
14720000000 -0.077764444 0.018444903 0.020836443 -0.14240965 0.018854501 -0.14339532 -0.057915244 -0.0060740113
14730000000 -0.080396853 0.01547 -0.034951184 -0.13988861 -0.037602462 -0.14006725 -0.056720585 -0.002768239
14740000000 -0.084218472 0.024674689 -0.084656239 -0.11800522 -0.086913332 -0.11633993 -0.058395158 -0.0048144609
14750000000 -0.083463132 0.026978299 -0.12318671 -0.076435722 -0.12424581 -0.074595354 -0.067026332 0.00015285239
14760000000 -0.082302794 0.042444982 -0.14308986 -0.024131466 -0.14344513 -0.022296395 -0.071983255 0.0042406879
14770000000 -0.075289443 0.043601416 -0.14043052 0.032028437 -0.14075233 0.033637606 -0.074077748 0.010758935
14780000000 -0.071421988 0.052667718 -0.11831285 0.082634322 -0.11787432 0.085255139 -0.069719948 0.016547536
14790000000 -0.071430199 0.046235077 -0.079519108 0.12007767 -0.077307031 0.12234344 -0.065296881 0.020862382
14800000000 -0.072922185 0.055290122 -0.028091513 0.14309484 -0.025089025 0.14343382 -0.062972896 0.019398998
14810000000 -0.073429078 0.049342781 0.027889408 0.14231692 0.029399496 0.14145897 -0.068768218 0.015385864
14820000000 -0.077609852 0.055731922 0.080614373 0.12155125 0.082434267 0.12102232 -0.076345801 0.014783407
14830000000 -0.078065977 0.049646705 0.11980641 0.082181282 0.12173463 0.08084102 -0.078328729 0.017435001
14840000000 -0.079931214 0.058706701 0.14260808 0.030858275 0.1437964 0.028359922 -0.075579666 0.020091195
14850000000 -0.075490199 0.053880502 0.14352058 -0.02397472 0.14337982 -0.027026778 -0.073349722 0.027880505
14860000000 -0.074327946 0.063596539 0.12400068 -0.077057555 0.12248492 -0.078948557 -0.06977012 0.036537539
14870000000 -0.067790851 0.063540727 0.085800491 -0.11766254 0.084185705 -0.11879858 -0.073014222 0.043921016
14880000000 -0.058198545 0.075288765 0.034883942 -0.14225534 0.03255951 -0.1434114 -0.069065548 0.04505543
14890000000 -0.048750274 0.06846793 -0.021477733 -0.14466035 -0.023965556 -0.14449459 -0.070243806 0.040191114
14900000000 -0.045735843 0.073273487 -0.075021185 -0.12651514 -0.077303693 -0.12542088 -0.066612318 0.040101387
14910000000 -0.045543466 0.064638235 -0.1169751 -0.088629395 -0.11818357 -0.087160721 -0.064338699 0.038924407
14920000000 -0.050396781 0.072541974 -0.14240606 -0.037808768 -0.14327812 -0.035895512 -0.064942718 0.045596708
14930000000 -0.052871473 0.067418747 -0.14549854 0.019057445 -0.14586286 0.021024898 -0.066061221 0.048436284
14940000000 -0.057480626 0.078960091 -0.12812988 0.071730629 -0.12771614 0.074438602 -0.070547871 0.051920705
14950000000 -0.053907931 0.076402999 -0.091628164 0.11657553 -0.089322917 0.11853772 -0.068498828 0.04868035
14960000000 -0.047943257 0.083128259 -0.040698037 0.14209515 -0.038184851 0.14289302 -0.064751446 0.046212718
14970000000 -0.03969916 0.072227068 0.01630117 0.14779018 0.018291231 0.1473278 -0.057340406 0.049602158
14980000000 -0.035409853 0.072469972 0.06990625 0.1304521 0.071667485 0.12982027 -0.050944094 0.054793678
14990000000 -0.031317171 0.062754534 0.11391175 0.094331749 0.11568905 0.093428284 -0.04688587 0.062532879
15000000000 -0.028282318 0.063505784 0.14155956 0.04461145 0.14319314 0.042492144 -0.045403872 0.060609378
15010000000 -0.026642377 0.055681556 0.14850159 -0.013384011 0.14847788 -0.016357906 -0.049399287 0.054669566
15020000000 -0.027363967 0.060041867 0.13219775 -0.069058955 0.13123301 -0.071403943 -0.051144719 0.045681909
15030000000 -0.028962882 0.057851955 0.0957596 -0.11391435 0.093991578 -0.1155435 -0.057443127 0.040934451
15040000000 -0.031074209 0.063570522 0.046588115 -0.14054979 0.04430652 -0.1416579 -0.056658953 0.051162321
15050000000 -0.032559354 0.06318669 -0.010092861 -0.14831951 -0.012201324 -0.14833549 -0.053091884 0.058786154
15060000000 -0.031589821 0.070214972 -0.065861166 -0.13349499 -0.067978196 -0.13268554 -0.049596973 0.065054417
15070000000 -0.025153076 0.066298723 -0.11203015 -0.098754525 -0.1139053 -0.097700648 -0.042647455 0.058104727
15080000000 -0.021704011 0.061418541 -0.14132699 -0.049037222 -0.14287505 -0.046861485 -0.044494431 0.045878917
15090000000 -0.020643711 0.049476817 -0.14963397 0.0081272498 -0.1497813 0.011188544 -0.040541898 0.039008781
15100000000 -0.026014877 0.042127132 -0.13567531 0.064076081 -0.13440545 0.066338226 -0.043971546 0.035401464
15110000000 -0.031130213 0.037949871 -0.10093775 0.11050926 -0.099257395 0.11185463 -0.044974767 0.043783978
15120000000 -0.037370421 0.040129151 -0.051555622 0.14073339 -0.049621951 0.1417511 -0.046513643 0.049769007
15130000000 -0.03813456 0.047612309 0.0061528478 0.14953767 0.0085463338 0.14982091 -0.049194325 0.053987239
15140000000 -0.035294604 0.054242998 0.062830284 0.13538225 0.06529744 0.13486654 -0.051819772 0.049387448
15150000000 -0.028505111 0.056870937 0.10795762 0.10057329 0.11016522 0.098963916 -0.057530172 0.049225926
15160000000 -0.024908204 0.053302228 0.13857849 0.053268496 0.13987081 0.050881505 -0.054905519 0.050382443
15170000000 -0.025085807 0.049988713 0.1481768 -0.0024867728 0.14831527 -0.0053220838 -0.051554617 0.051860306
15180000000 -0.031484976 0.046164349 0.13655773 -0.059027053 0.13556728 -0.061375763 -0.047410224 0.049504515
15190000000 -0.035139065 0.048248395 0.10387643 -0.10586125 0.10279368 -0.10764376 -0.050519973 0.040734343
15200000000 -0.040391013 0.04441075 0.055218533 -0.13797408 0.052945945 -0.13962731 -0.059298418 0.036434479
15210000000 -0.042669643 0.049806155 -0.0010259449 -0.14756832 -0.0039626621 -0.14840972 -0.066919334 0.037002034
15220000000 -0.043918833 0.048540328 -0.056135315 -0.13598606 -0.059134185 -0.13484485 -0.07188379 0.047422748
15230000000 -0.042632576 0.054489814 -0.10290342 -0.10534425 -0.10486844 -0.10358576 -0.066040263 0.060882635
15240000000 -0.041145891 0.052451141 -0.13431896 -0.057889085 -0.13560751 -0.055795804 -0.057597935 0.066281825
15250000000 -0.037652746 0.060328748 -0.14593606 -0.0030070376 -0.1464566 -0.00064554997 -0.051533222 0.063921191
15260000000 -0.033664655 0.058272574 -0.1363043 0.051896222 -0.13575351 0.054714061 -0.052879158 0.055727582
15270000000 -0.027962035 0.061152048 -0.10612086 0.099220932 -0.10457668 0.10148483 -0.0615425 0.053229786
15280000000 -0.028696546 0.0539103 -0.061805058 0.1316005 -0.059227861 0.13292801 -0.069274932 0.057771355
15290000000 -0.030953499 0.057873346 -0.0064616278 0.14514087 -0.0041001588 0.14523771 -0.075627878 0.066664532
15300000000 -0.037168678 0.053889293 0.048038982 0.13670336 0.050338157 0.13633697 -0.07458061 0.076104544
15310000000 -0.039335769 0.064471722 0.096940264 0.10815186 0.099309467 0.10672137 -0.071189553 0.074975468
15320000000 -0.039222434 0.064469449 0.12978002 0.064040899 0.13138749 0.061734233 -0.066204734 0.072358705
15330000000 -0.033966422 0.074516311 0.14408115 0.010146853 0.14432932 0.0074950922 -0.061195858 0.070100754
15340000000 -0.026847348 0.068510324 0.13714555 -0.04411944 0.13652149 -0.046285793 -0.056844566 0.074503943
15350000000 -0.020304218 0.070431158 0.11001799 -0.091923065 0.10897496 -0.094092861 -0.051786646 0.081137486
15360000000 -0.017356778 0.058158174 0.068330996 -0.12631795 0.066566929 -0.12796414 -0.053073041 0.084749512
15370000000 -0.017672408 0.061212912 0.01598325 -0.1425882 0.013139151 -0.14358541 -0.057159912 0.08628989
15380000000 -0.018797155 0.055856276 -0.039100233 -0.13838238 -0.041744772 -0.13771042 -0.060988761 0.085757188
15390000000 -0.017757284 0.064116485 -0.088752739 -0.11297038 -0.090981491 -0.11183304 -0.062934682 0.087570533
15400000000 -0.015582342 0.059788816 -0.12445166 -0.071625136 -0.12594508 -0.069545306 -0.056766797 0.09447787
15410000000 -0.010664986 0.067130506 -0.14255448 -0.019909013 -0.14358813 -0.01751598 -0.049700849 0.10085858
15420000000 -0.0066803172 0.058242381 -0.13933004 0.03444707 -0.13890372 0.037454247 -0.039424229 0.10408268
15430000000 -0.0044020172 0.061343253 -0.11609355 0.084878981 -0.11450624 0.087071285 -0.037406944 0.094938874
15440000000 -0.0053996164 0.051452227 -0.075230263 0.12219842 -0.072866887 0.12330338 -0.042504288 0.087039724
15450000000 -0.0040871631 0.057304066 -0.023616694 0.14200939 -0.021632824 0.14274468 -0.044209957 0.081648007
15460000000 -9.7407959e-05 0.047765315 0.030641016 0.14009021 0.033231743 0.14022915 -0.044250607 0.087449938
15470000000 0.0027564229 0.050784305 0.080791898 0.1200915 0.083401844 0.11886307 -0.033655059 0.096252412
15480000000 0.0052318443 0.04103072 0.11975174 0.080983371 0.12154542 0.078683481 -0.026663769 0.10516731
15490000000 0.0068232119 0.044058267 0.1422966 0.029260024 0.14256519 0.026615743 -0.019277472 0.1093667
15500000000 0.0067915963 0.033082731 0.1421041 -0.026974961 0.14189743 -0.028983966 -0.018402494 0.1031714
15510000000 0.006675804 0.035734959 0.12213702 -0.078700654 0.12140856 -0.080995947 -0.018870633 0.099934764
15520000000 0.0044331532 0.029708177 0.083833233 -0.11881236 0.081989601 -0.12086542 -0.017601699 0.093787193
15530000000 0.0051570954 0.035495184 0.033259179 -0.14153844 0.030277802 -0.14267649 -0.0167519 0.092262872
15540000000 0.0054962523 0.027364891 -0.022674039 -0.14381954 -0.025421763 -0.14334832 -0.016561959 0.090759978
15550000000 0.0076259729 0.029296247 -0.075515062 -0.12485624 -0.07760036 -0.12348197 -0.021652875 0.088260956
15560000000 0.0078709638 0.018762302 -0.11738622 -0.087088242 -0.11893103 -0.085405506 -0.024813455 0.092368938
15570000000 0.010259868 0.017578451 -0.14164825 -0.037273254 -0.1429569 -0.034723524 -0.021284662 0.093956143
15580000000 0.0079675186 0.006108006 -0.14583121 0.018881813 -0.14564377 0.021662533 -0.011291027 0.099489793
15590000000 0.0058561913 0.0040146215 -0.12856096 0.072364919 -0.12724462 0.075084358 0.003777191 0.09578535
15600000000 0.0007708795 -0.0016516979 -0.09135171 0.11653321 -0.089363575 0.11822814 0.0082719214 0.086811431
15610000000 -0.00056267733 -0.00030647061 -0.040118579 0.14240956 -0.037536815 0.14350355 0.0068386761 0.076049305
15620000000 -0.0028978598 -0.0027851402 0.016327364 0.14678602 0.019181602 0.14671122 -0.0084528178 0.067593768
15630000000 -0.0025202753 2.2436725e-05 0.070862345 0.1295884 0.073284552 0.12847279 -0.016705323 0.074240565
15640000000 -0.0031973396 -0.0022193051 0.11406821 0.093661651 0.11587652 0.091230653 -0.017818045 0.081764795
15650000000 -0.0013255067 -0.0039252895 0.14119077 0.043671213 0.14175123 0.041362152 -0.010801882 0.092990175
15660000000 -0.0021829375 -0.010554584 0.14726982 -0.012133401 0.14750779 -0.01440559 -3.5699457e-05 0.090913832
15670000000 -0.0060555479 -0.016799863 0.13263324 -0.067224391 0.13191198 -0.069772378 0.0008507343 0.081101634
15680000000 -0.011783233 -0.022033991 0.097338267 -0.11344188 0.095259681 -0.11564842 0.0013201851 0.069336832
15690000000 -0.019682737 -0.027726384 0.046808098 -0.14227334 0.044071451 -0.14281337 -0.002435185 0.059658632
15700000000 -0.026275814 -0.027192539 -0.010190863 -0.14961089 -0.012778435 -0.1493018 -0.0035370626 0.061597228
15710000000 -0.031894468 -0.027275173 -0.0658819 -0.13444068 -0.06778007 -0.13356718 -0.0016424209 0.065233707
15720000000 -0.030895391 -0.021060947 -0.11140206 -0.099869587 -0.11335871 -0.098553747 -0.0058203451 0.069688164
15730000000 -0.029019026 -0.02286185 -0.14108002 -0.049715623 -0.14247508 -0.047395773 -0.0090353377 0.070583433
15740000000 -0.023433384 -0.021899356 -0.14907467 0.00753038 -0.14946541 0.010650044 -0.017291838 0.069880381
15750000000 -0.02287242 -0.031251237 -0.13595043 0.063602395 -0.13454628 0.066315874 -0.015533824 0.072997071
15760000000 -0.025480838 -0.034874022 -0.10208347 0.10965701 -0.10017854 0.11143725 -0.0062176511 0.075358421
15770000000 -0.03607633 -0.04360221 -0.053485084 0.14034826 -0.05129797 0.14158833 0.0045536626 0.076930426
15780000000 -0.046086498 -0.038415916 0.0031871572 0.15079647 0.0063248426 0.151288 0.0079834256 0.069565445
15790000000 -0.05737184 -0.037390672 0.061262403 0.13829419 0.064199254 0.13705471 -0.0032575987 0.061805185
15800000000 -0.058786731 -0.027204294 0.10966352 0.1048843 0.11162521 0.10264458 -0.016551396 0.055962149
15810000000 -0.060469419 -0.027452081 0.14134842 0.053922322 0.14223002 0.051338468 -0.029188849 0.054778557
15820000000 -0.052812569 -0.023721062 0.15001169 -0.0029090419 0.15032549 -0.0054009012 -0.026761856 0.066035211
15830000000 -0.051853321 -0.036345813 0.13778964 -0.059188567 0.13688116 -0.062171333 -0.017357178 0.074517608
15840000000 -0.050685417 -0.040414594 0.10597572 -0.10615125 0.1038093 -0.10839513 -0.0059090406 0.084614694
15850000000 -0.059740618 -0.052725289 0.058533501 -0.13905384 0.055971257 -0.1399918 0.00032970309 0.079717465
15860000000 -0.064879224 -0.047678575 0.0010534748 -0.15099144 -0.0019343868 -0.15115783 -0.0057099275 0.075205602
15870000000 -0.073756665 -0.049459063 -0.056402057 -0.13904274 -0.05873451 -0.13805777 -0.0067435149 0.068171293
15880000000 -0.07334727 -0.036860831 -0.10508461 -0.10737936 -0.10724399 -0.10597265 -0.012606285 0.062763467
15890000000 -0.074436262 -0.036293816 -0.13772798 -0.059643131 -0.13935423 -0.056900237 -0.011221801 0.065348797
15900000000 -0.069587529 -0.029342934 -0.15142693 -0.0027700327 -0.15146509 0.00037327409 -0.014906744 0.06699647
15910000000 -0.071485147 -0.036347352 -0.13988549 0.055226143 -0.1386992 0.057473756 -0.017775934 0.077386267
15920000000 -0.070605852 -0.036154706 -0.10776692 0.10331105 -0.10634352 0.10538072 -0.016331166 0.083788253
15930000000 -0.078548916 -0.046670299 -0.060811244 0.13485785 -0.05864422 0.13654669 -0.011566546 0.090729125
15940000000 -0.082756333 -0.045902871 -0.0054497346 0.14838691 -0.0023612082 0.14890932 0.0021934137 0.08847405
15950000000 -0.092774354 -0.05706358 0.050044183 0.13926739 0.052693859 0.13860628 0.0056009013 0.082873747
15960000000 -0.098520055 -0.049647059 0.099381894 0.11084437 0.10184146 0.10919928 0.0061431872 0.076299593
15970000000 -0.10275213 -0.050893992 0.13435806 0.065375492 0.13547924 0.062930793 -0.004115779 0.069233231
15980000000 -0.096443966 -0.042048275 0.14877051 0.0086158253 0.1492359 0.0056724474 -0.01407996 0.072948702
15990000000 -0.093190148 -0.049108192 0.14064184 -0.048601091 0.13953564 -0.051201351 -0.015060075 0.077800959
16000000000 -0.088254869 -0.049684186 0.11046228 -0.098161347 0.10902546 -0.10023122 -0.0074394979 0.088399529
16010000000 -0.093933217 -0.060749196 0.06597437 -0.1313851 0.063709147 -0.13303332 0.0049324147 0.088673331
16020000000 -0.098470613 -0.060689654 0.011740079 -0.14717342 0.0089004207 -0.14763492 0.008304324 0.084497645
16030000000 -0.11218756 -0.065295793 -0.044984952 -0.14064056 -0.047568586 -0.1396419 0.0070536723 0.078736186
16040000000 -0.11978439 -0.055999983 -0.095124617 -0.11222341 -0.097074479 -0.11091028 0.00415943 0.073733464
16050000000 -0.12552434 -0.054912917 -0.12995963 -0.067819908 -0.13157254 -0.065485314 0.006265562 0.073545128
16060000000 -0.12561037 -0.051436104 -0.14596054 -0.013991594 -0.14662617 -0.011090785 0.014826715 0.074415848
16070000000 -0.12696138 -0.059284903 -0.14094952 0.041659642 -0.14033791 0.044759318 0.021099895 0.075027727
16080000000 -0.12947272 -0.062775061 -0.11508915 0.091977775 -0.11296646 0.09411817 0.01628763 0.075593501
16090000000 -0.1352828 -0.072571665 -0.070783861 0.12813598 -0.068377316 0.12974313 0.0069250641 0.076944701
16100000000 -0.14282429 -0.074865662 -0.016621539 0.14490981 -0.013857039 0.14527872 0.00055363588 0.078222677
16110000000 -0.15165478 -0.078196488 0.039392926 0.13948506 0.042449445 0.13932785 0.0052913371 0.078516029
16120000000 -0.15885711 -0.071597695 0.088647872 0.1151353 0.091866717 0.11308326 0.017785193 0.074339695
16130000000 -0.16145411 -0.067133948 0.12588587 0.073521204 0.12761456 0.07023932 0.028575288 0.069389448
16140000000 -0.16428588 -0.064157084 0.14515992 0.021127217 0.14529651 0.017675478 0.028742738 0.062737904
16150000000 -0.16650344 -0.064644985 0.14043097 -0.036291759 0.13972372 -0.039010599 0.01737 0.060437169
16160000000 -0.17410949 -0.065742299 0.11664466 -0.086241022 0.11521666 -0.089126565 0.0072055366 0.060155511
16170000000 -0.18165953 -0.068618372 0.073950186 -0.12367741 0.07111463 -0.12601769 0.0065741604 0.065503471
16180000000 -0.19449067 -0.071532428 0.022554044 -0.14329736 0.018724255 -0.14429732 0.020640012 0.064576
16190000000 -0.20479217 -0.071502283 -0.032991432 -0.14052077 -0.036780018 -0.13925274 0.030268207 0.061270788
16200000000 -0.21729934 -0.07016518 -0.08367034 -0.11820838 -0.086412832 -0.11625806 0.032254368 0.059972681
16210000000 -0.22121282 -0.067200817 -0.12063035 -0.077480137 -0.12274494 -0.074664995 0.018589981 0.058846444
16220000000 -0.22893851 -0.065134861 -0.14164443 -0.025619771 -0.14274183 -0.02208364 0.007732287 0.062288851
16230000000 -0.22866416 -0.060550224 -0.14027114 0.029070601 -0.13979807 0.033451825 0.002633865 0.060594752
16240000000 -0.2335774 -0.059152663 -0.11923572 0.081073761 -0.11663102 0.084507316 0.0103842 0.058232196
16250000000 -0.23381154 -0.057373457 -0.07963001 0.11970237 -0.076560214 0.12145557 0.019168651 0.051333338
16260000000 -0.24412355 -0.05843439 -0.027702801 0.14095414 -0.024290599 0.14181679 0.018508378 0.047425091
16270000000 -0.25172716 -0.053579673 0.026523925 0.14078075 0.03046174 0.14081344 0.011494834 0.046775255
16280000000 -0.26889741 -0.050050575 0.07847973 0.11948687 0.082158409 0.11724913 0.0019546561 0.050106019
16290000000 -0.27859434 -0.041680083 0.11830218 0.081290916 0.12065089 0.077901915 0.0038930448 0.051559299
16300000000 -0.2931197 -0.03398554 0.13906077 0.029001435 0.13960019 0.025517248 0.011081683 0.046756569
16310000000 -0.29624492 -0.023302548 0.14039357 -0.025000237 0.14039415 -0.028561659 0.016748268 0.043821439
16320000000 -0.30245435 -0.019432887 0.12009612 -0.075058416 0.11840793 -0.078817904 0.013993193 0.043174669
16330000000 -0.29920113 -0.016477168 0.083510108 -0.11666185 0.080406725 -0.11944901 0.0010626372 0.050272893
16340000000 -0.30689725 -0.022118941 0.032950751 -0.13853295 0.028884277 -0.13957489 -0.0082440693 0.060585171
16350000000 -0.31004632 -0.020665154 -0.02407527 -0.14077006 -0.027664013 -0.13996565 -0.006676726 0.06399703
16360000000 -0.32589367 -0.019132547 -0.073889926 -0.12009464 -0.076686159 -0.11851425 0.002284877 0.056765083
16370000000 -0.33278999 -0.0067634564 -0.1147574 -0.083154239 -0.11718823 -0.080937296 0.0076788841 0.044791684
16380000000 -0.34506944 0.0049626641 -0.1373056 -0.035005391 -0.13896205 -0.031454477 0.003732577 0.037223823
16390000000 -0.34468579 0.023124136 -0.14095332 0.021570314 -0.14048305 0.025261883 -0.010986079 0.037537877
16400000000 -0.35158843 0.032471299 -0.1219954 0.072753556 -0.12017095 0.075950883 -0.019603418 0.045488559
16410000000 -0.34921145 0.041694149 -0.083484694 0.11468302 -0.080655836 0.11639695 -0.021353513 0.055512335
16420000000 -0.35950452 0.043414146 -0.033868629 0.13691565 -0.031090472 0.13797952 -0.0086122956 0.061506495
16430000000 -0.36190045 0.047538698 0.020539235 0.13886937 0.023906648 0.13879484 0.0029491074 0.059948508
16440000000 -0.37620348 0.046939734 0.070758097 0.12083227 0.074185714 0.11944693 0.0064387834 0.060376871
16450000000 -0.38149771 0.054460827 0.11135538 0.084848158 0.11356389 0.081986316 -0.0015479797 0.059972052
16460000000 -0.3946467 0.05930157 0.13569666 0.035479419 0.13648352 0.032257587 -0.0093131345 0.063601106
16470000000 -0.39579105 0.072760835 0.13814223 -0.019033514 0.13798302 -0.022085711 -0.012598395 0.057823952
16480000000 -0.4026781 0.081880957 0.12047882 -0.070274681 0.1193147 -0.073062435 -0.014062101 0.054367721
16490000000 -0.40057179 0.097438738 0.084926337 -0.11018112 0.082521796 -0.11268883 -0.01454191 0.050338764
16500000000 -0.40337878 0.10809154 0.035795044 -0.13461268 0.03250137 -0.13579156 -0.02222687 0.059227034
16510000000 -0.39958972 0.12000097 -0.018292967 -0.13799196 -0.021891531 -0.13769001 -0.023095626 0.0747464
16520000000 -0.40442106 0.1234532 -0.070813492 -0.11980192 -0.0734393 -0.11807868 -0.020136738 0.085310929
16530000000 -0.40927511 0.129915 -0.11034897 -0.082851574 -0.11228852 -0.080544084 -0.0005646497 0.084334135
16540000000 -0.42400309 0.13357799 -0.13284168 -0.032791607 -0.13382377 -0.029904168 0.015386915 0.065491982
16550000000 -0.43436676 0.14637394 -0.13359568 0.019241907 -0.13347523 0.022267368 0.018377611 0.051696181
16560000000 -0.44598961 0.15684147 -0.11545157 0.068925589 -0.11419202 0.071734816 0.0060496274 0.044076882
16570000000 -0.44753569 0.17369165 -0.082142547 0.10660302 -0.079867423 0.10883629 -0.01599236 0.058660652
16580000000 -0.44776905 0.18414372 -0.034083907 0.13032207 -0.031054735 0.13107395 -0.029315427 0.077445783
16590000000 -0.441854 0.19682094 0.017683014 0.13347772 0.020384675 0.13336526 -0.026137693 0.095999554
16600000000 -0.44104832 0.20014693 0.068848684 0.11451717 0.071478799 0.11329946 -0.0040730238 0.096427597
16610000000 -0.44140315 0.21000504 0.10801744 0.079353325 0.10984884 0.077212632 0.014253106 0.086078189
16620000000 -0.4486627 0.21713088 0.128323 0.029374275 0.12905407 0.027031239 0.024041332 0.071682446
16630000000 -0.45561838 0.23404442 0.12932204 -0.020705223 0.12946531 -0.023275275 0.017895609 0.062014703
16640000000 -0.46485585 0.24761716 0.10938737 -0.067728706 0.10831186 -0.070142061 0.0064037228 0.06001782
16650000000 -0.47073165 0.26838589 0.075696267 -0.10399538 0.073465571 -0.1059041 -0.0014737926 0.058759715
16660000000 -0.47584921 0.28354919 0.028605932 -0.1237773 0.025983317 -0.12439014 -0.0051979786 0.060726505
16670000000 -0.47648725 0.30076781 -0.02109414 -0.12462161 -0.023402113 -0.12420476 -0.0039034802 0.066871807
16680000000 -0.47785583 0.31091699 -0.066388026 -0.10612419 -0.068259232 -0.10492203 0.0015356354 0.078038856
16690000000 -0.47719362 0.32337111 -0.10158023 -0.071648806 -0.1031605 -0.0701105 0.0097216256 0.089934677
16700000000 -0.47775072 0.33084637 -0.12063622 -0.027217248 -0.12168948 -0.024928799 0.023776665 0.093394622
16710000000 -0.47915229 0.34404835 -0.12022169 0.022425771 -0.11985159 0.025328644 0.03428445 0.079889074
16720000000 -0.48208621 0.35616937 -0.1006689 0.066492379 -0.099339195 0.068608113 0.033464007 0.059842378
16730000000 -0.48444396 0.37827837 -0.065652251 0.098321654 -0.0634664 0.099659324 0.019736892 0.041765872
16740000000 -0.48411745 0.39821863 -0.022349626 0.1143278 -0.020146765 0.11473421 -0.0028662775 0.040084913
16750000000 -0.48268035 0.42242077 0.022530444 0.11146002 0.024653133 0.11128391 -0.018276626 0.053910665
16760000000 -0.47809964 0.44167617 0.062164523 0.094772868 0.064639598 0.093682706 -0.019567138 0.073195301
16770000000 -0.47413421 0.46249211 0.092463456 0.062532879 0.094107524 0.060342375 0.0018913113 0.086125247
16780000000 -0.46967602 0.47560436 0.10948761 0.021897789 0.109938 0.019351149 0.025616981 0.079266757
16790000000 -0.46865118 0.49161413 0.10697292 -0.022104315 0.10649368 -0.02457808 0.039448816 0.062578298
16800000000 -0.46598268 0.50478196 0.089433767 -0.060979359 0.088004902 -0.063137144 0.033791985 0.039740331
16810000000 -0.4635137 0.52383971 0.057686999 -0.088658035 0.055681828 -0.090177611 0.012406508 0.032049075
16820000000 -0.45564809 0.54086524 0.018183831 -0.10264863 0.015785579 -0.10328291 -0.0075468505 0.030587582
16830000000 -0.44939518 0.56403428 -0.021488845 -0.098824635 -0.024110794 -0.098425113 -0.020881683 0.045153484
16840000000 -0.43722495 0.58429235 -0.05766841 -0.081705116 -0.05993652 -0.080161661 -0.013205728 0.062391661
16850000000 -0.42561015 0.60830635 -0.082545497 -0.052727163 -0.083840318 -0.050834887 -0.00089928135 0.076317377
16860000000 -0.41069207 0.62657815 -0.095564462 -0.016750162 -0.0961565 -0.014314087 0.016214494 0.080826931
16870000000 -0.40054172 0.64730644 -0.092751607 0.020240957 -0.092484601 0.022711162 0.019752298 0.067976467
16880000000 -0.38873887 0.66401893 -0.076406308 0.053750806 -0.07487186 0.056099758 0.014833527 0.051327594
16890000000 -0.38113731 0.68245649 -0.048472933 0.077682912 -0.046137009 0.079048611 0.0013150023 0.03168631
16900000000 -0.37089419 0.6967175 -0.013581716 0.088419691 -0.010951675 0.088453688 -0.015542955 0.031090517
16910000000 -0.36230773 0.71531492 0.020799831 0.084976792 0.022726119 0.084448725 -0.022643521 0.042070393
16920000000 -0.34761482 0.73059046 0.050069481 0.068725012 0.051887281 0.067624211 -0.025361795 0.064965747
16930000000 -0.33251449 0.74842036 0.070675373 0.043459326 0.072218738 0.041663002 -0.015492562 0.082149252
16940000000 -0.31150973 0.7627306 0.0798418 0.012495274 0.08035896 0.010048549 -0.0055346731 0.083468735
16950000000 -0.29157618 0.77953863 0.076872081 -0.018753804 0.076276898 -0.021077387 0.0067150295 0.073753655
16960000000 -0.26847371 0.79374599 0.06228615 -0.046072718 0.060920503 -0.047630999 0.011087555 0.055636581
16970000000 -0.24803162 0.81015527 0.038370561 -0.064853005 0.03678035 -0.065934412 0.0041274093 0.044063948
16980000000 -0.22611946 0.82421482 0.01041905 -0.072669983 0.0084712747 -0.073042557 -0.0099663679 0.044274218
16990000000 -0.20741653 0.84012502 -0.018484062 -0.06892664 -0.020464588 -0.06851469 -0.027791323 0.05498261
17000000000 -0.18729721 0.85299134 -0.042431749 -0.054940693 -0.043960113 -0.053737246 -0.037845068 0.072555497
