!Keysight Technologies,P9374A,MY57211807,A.19.30.04
!Date: Friday, May 01, 2026 14:16:22
!Correction: S11(C  2-Port  ) 
!S21(C  2-Port  ) 
!S12(C  2-Port  ) 
!S22(C  2-Port  ) 
!S2P File: Measurements: S11, S21, S12, S22:
# Hz S  RI   R 50
13000000000 0.038623679 0.093106382 -0.00082612562 0.00069127034 -0.00018678809 0.00095905142 -0.028309584 0.18228945
13010000000 0.036904715 0.10659388 -0.00081548188 0.00095175661 -0.00064217282 0.00014963585 -0.021038294 0.19299966
13020000000 0.041591909 0.10893886 -0.0004075446 0.0011761404 -0.00083962071 0.0013377657 -0.012185767 0.18544689
13030000000 0.048742525 0.11448959 5.1764422e-05 0.0015060316 -0.00019133283 0.0015415607 -0.01135071 0.17875743
13040000000 0.056469053 0.10377178 0.0010774374 0.0013417164 0.0013061184 0.0014867331 -0.010661867 0.17270456
13050000000 0.058008824 0.095627822 0.0020994581 8.7487642e-05 0.0020592723 0.00029970147 -0.022231558 0.17133856
13060000000 0.054950103 0.080091573 0.00064815662 -0.00044547638 0.0011704438 -0.00076865999 -0.028368443 0.18237506
13070000000 0.041759845 0.07749854 0.00017074298 -0.00030486888 -6.9912494e-06 -0.00045000413 -0.016141564 0.19273399
13080000000 0.031592146 0.077560216 -0.00010031094 -0.00028562156 0.00016118985 -0.00027076234 0.0007937327 0.18106639
13090000000 0.024419188 0.094058476 0.0017038945 0.0004647178 0.0012243234 8.8442466e-06 -0.003851749 0.1653412
13100000000 0.030306038 0.10525711 0.00063587981 -0.0023197385 0.00032482279 -0.0019143146 -0.013763584 0.16997832
13110000000 0.041538812 0.11587895 -0.00057339348 -0.001892544 3.8245489e-05 -0.0016770194 -0.019320149 0.18113011
13120000000 0.056970458 0.11222471 -0.0017818675 -0.00023499705 -0.0018718049 -0.00070812472 -0.016578212 0.1945243
13130000000 0.064257637 0.10502127 -0.00028397987 -0.00021676857 -0.00027226482 -0.00017361013 -0.0046160147 0.19317716
13140000000 0.066950142 0.087318972 -0.00045303599 -0.00051832158 -0.00082744943 -0.00048969238 -0.0010768957 0.1790064
13150000000 0.053602505 0.079653554 -0.0018812611 -0.00014130078 -0.001438005 0.0004196004 -0.0094016567 0.1696398
13160000000 0.041501265 0.076139554 -0.0011350863 0.0012668925 -0.00048834592 0.0013048814 -0.01071097 0.17676923
13170000000 0.030420689 0.08767958 0.00012923311 0.00088316714 7.3639676e-05 0.00019146837 -0.0040189847 0.18567541
13180000000 0.033458058 0.099513441 -2.7772614e-05 0.0005689527 -0.00044874108 0.00056207535 0.006174814 0.18779866
13190000000 0.041634455 0.11128224 -0.00044036802 0.00089006964 -6.6518056e-05 0.0010311606 0.010529389 0.1797238
13200000000 0.059958868 0.1128663 0.0011852632 0.0014508152 0.0011993886 0.0013363725 0.0020274185 0.17311761
13210000000 0.073751271 0.10498939 0.0017780171 6.6282228e-05 0.00097256369 -9.9447236e-05 -0.001207754 0.17894407
13220000000 0.079294853 0.090925582 0.00031005932 -0.00082814833 0.00071570498 -0.00035274803 0.0076742247 0.18379328
13230000000 0.072470166 0.079842791 0.00039777812 0.00013873493 0.00061977457 0.00015171382 0.014627561 0.1841542
13240000000 0.064839557 0.075311191 0.00060392881 -7.0651571e-05 0.0002769345 -0.00051775406 0.02443571 0.18347159
13250000000 0.051071983 0.076660365 0.0013081895 -0.0013555378 0.0009587626 -0.00067328906 0.027746812 0.17675745
13260000000 0.048481375 0.08929465 -0.0007617427 -0.0010666094 -0.00015415982 -0.00088400912 0.022671333 0.17253155
13270000000 0.050668038 0.095910929 -0.00054155779 -0.00027611601 -7.1618284e-05 -0.00083778414 0.018703263 0.17309839
13280000000 0.063855618 0.10223183 -6.6801527e-05 -0.00025630873 -0.00066494313 -0.00065255433 0.018180348 0.17916383
13290000000 0.075486585 0.096529022 -0.00038414338 -0.00054704607 -0.00033564738 -0.00029690078 0.026982099 0.17980346
13300000000 0.087613165 0.085271679 -0.00075903954 -0.00021192062 -0.00046986211 -0.00011056216 0.033954985 0.17052248
13310000000 0.085388854 0.070840307 -0.00098208745 5.1629759e-05 -0.0012175697 -0.00032493245 0.041286245 0.16511543
13320000000 0.083050504 0.063968465 -0.00036150674 0.00064034079 -0.00054604444 0.0010060812 0.04678167 0.16060735
13330000000 0.073935106 0.057630349 -0.00066999323 0.00092473521 -0.00038807493 0.00080842752 0.046598405 0.16396542
13340000000 0.068559974 0.06546291 4.1323859e-05 0.00047955231 -0.0002473295 0.00045757776 0.048440997 0.16915844
13350000000 0.066985704 0.070102207 6.9347268e-05 0.00063077651 -8.4446976e-05 0.00083737657 0.046544131 0.16576393
13360000000 0.07293807 0.075788677 0.00052824529 0.0002397662 0.00087392295 0.0010275431 0.042269941 0.15899175
13370000000 0.076359697 0.07507728 0.0008567152 0.00056089868 0.0013155013 -4.422263e-05 0.041774381 0.15393057
13380000000 0.087653056 0.072149687 0.00040007051 3.9906961e-05 0.00016824488 -0.00050613569 0.047347829 0.14989913
13390000000 0.08810968 0.059487693 0.0004085516 -1.3676858e-05 0.00022093563 0.000133749 0.054725893 0.15390188
13400000000 0.08936587 0.052876718 0.00074066414 0.00017673332 0.00070675329 0.00036276161 0.073059246 0.15239452
13410000000 0.082784638 0.039434478 0.00076747302 -0.00031830615 0.0012436033 -0.0004738422 0.065554902 0.13664396
13420000000 0.079283558 0.036331221 0.0001305865 -0.00070804456 0.00032823364 -0.0011566909 0.048230439 0.13788714
13430000000 0.068699084 0.034497634 9.3910057e-05 -0.00050258264 -0.00067978189 -0.00045188045 0.047437817 0.13856325
13440000000 0.069213584 0.041940313 5.4366566e-05 -0.00091387384 -0.00017371579 -0.00077439164 0.051709384 0.13318066
13450000000 0.067978345 0.044072829 -0.00089865003 -0.00064952264 -0.00043235929 -0.00013829219 0.061787859 0.12883465
13460000000 0.07678543 0.048509859 -0.00070851314 -0.00035593746 -0.00034658919 -0.00044631 0.068703115 0.12344738
13470000000 0.08116214 0.043498613 -0.0006277014 -9.8244564e-05 -0.00067591981 -0.00035435995 0.064532101 0.12636121
13480000000 0.088464588 0.034846894 -0.00096233736 0.00035792985 -0.001063459 0.0003300836 0.064834222 0.12831071
13490000000 0.081318557 0.024402171 -0.0006700356 0.00077261793 -0.00060329947 0.00096930208 0.060306404 0.11885738
13500000000 0.075581744 0.015386961 3.8358863e-05 0.00030501268 -0.00018423131 0.00055390206 0.054900903 0.11178939
13510000000 0.062556885 0.010871838 -0.00085417845 0.0011396725 -0.00047412229 0.00064239884 0.055347458 0.10804954
13520000000 0.054478675 0.016442003 0.00043222524 0.00079587766 0.00032369158 0.00081177923 0.060597844 0.10709171
13530000000 0.052032031 0.022855101 0.0006462977 0.0012931435 0.00067754323 0.0012778771 0.057217203 0.10620144
13540000000 0.059442036 0.026605967 0.0015728923 4.434021e-05 0.001145062 -0.0001103676 0.05942677 0.11064178
13550000000 0.065782197 0.025142804 0.00085807632 -0.0010450915 0.00064343639 -0.00050152675 0.056830615 0.1049597
13560000000 0.070941575 0.021530518 -0.00044133724 0.00011682435 -0.00023737457 3.922524e-05 0.051550783 0.10246812
13570000000 0.072295345 0.010735698 0.000541121 -3.0037583e-05 0.0007975226 -6.8353926e-05 0.058417045 0.098291233
13580000000 0.061801217 0.0066328496 0.00071190542 0.00029373093 0.00077047321 0.00011606732 0.062289536 0.092592493
13590000000 0.053424809 0.0068650893 0.00053842115 -0.0017496275 0.00055092899 -0.0018428402 0.055889621 0.088726461
13600000000 0.043996915 0.010857396 -0.00038132083 -0.001180678 -0.00072487083 -0.0010649215 0.047990859 0.090635791
13610000000 0.042076524 0.015064631 -0.0010930583 -0.00069156219 -0.00076188636 -0.00050008704 0.042904444 0.099479266
13620000000 0.041203689 0.020161793 -0.00083187263 -0.00036581434 -0.00058128673 -0.00079505623 0.046172999 0.097975746
13630000000 0.04420783 0.017236732 -0.00089893606 0.00044075257 -0.0011206217 0.00051718019 0.046398934 0.096539527
13640000000 0.044715386 0.017566122 -0.0012804761 0.00046192645 -0.0014049638 0.00043243001 0.053162847 0.093227573
13650000000 0.048721496 0.010008917 0.00012719253 0.00061041699 -0.00022404133 0.00078073068 0.052773196 0.08620315
13660000000 0.044684641 0.0089065824 -0.00066351687 0.00011523519 -0.00063305965 0.00037928659 0.047365036 0.082419813
13670000000 0.046261694 0.006175817 -0.00059486646 0.0010799055 -0.00013238893 0.0011367915 0.04335656 0.08156547
13680000000 0.043264039 0.0077684615 0.00038708406 0.0016383298 0.00040104284 0.0012447441 0.041138429 0.081976034
13690000000 0.04330451 0.0091621112 0.00091948023 0.00032288369 0.0010914321 0.00032464683 0.042104434 0.08958523
13700000000 0.038338866 0.01276379 0.001001618 0.00071302586 0.0013028206 0.00081718777 0.050330795 0.092147008
13710000000 0.0387863 0.016286368 0.00076135673 6.1026818e-05 0.00056452549 -7.4520329e-05 0.050799057 0.090486802
13720000000 0.034416277 0.020562271 0.0010255348 -0.000814625 0.0013122592 -0.00042639353 0.04574579 0.091740832
13730000000 0.040635735 0.021592038 0.00033635017 -0.00070642133 0.00036331249 -0.0011364125 0.052422099 0.091306999
13740000000 0.038395647 0.02221958 0.00039927874 -0.00042439782 -0.00026502064 -0.00068947964 0.052943096 0.076971382
13750000000 0.045466416 0.018068708 0.00034305657 -0.0016764405 0.00031105769 -0.0008349343 0.045733381 0.075018451
13760000000 0.042499393 0.0099227671 -0.0011025115 -0.0005492096 -0.00026052026 -0.0007861731 0.048199318 0.081543706
13770000000 0.042567167 0.0020524524 -0.00021028657 -0.00027252565 -0.00068907754 -0.00067827874 0.044869885 0.08389914
13780000000 0.033279296 0.0022754534 0.00017443119 -0.0011050313 -0.00019171089 -0.00071009534 0.044129983 0.093879141
13790000000 0.036019657 0.0054782871 -0.0021360719 -0.00068437913 -0.0016377255 -0.00031357107 0.054216553 0.09322235
13800000000 0.031417698 0.012500542 -0.001719206 0.00093812356 -0.0011735284 0.00037238825 0.061503053 0.078023456
13810000000 0.043454163 0.017348329 -0.00060444628 0.0017549223 -0.0012381466 0.0015767206 0.059675653 0.064785697
13820000000 0.046900265 0.017289529 0.00065778225 0.0010832398 0.00045002461 0.0010666482 0.052488517 0.073030442
13830000000 0.05570231 0.01125722 0.00058648339 0.00039183194 0.00085142197 0.0007572578 0.061938129 0.080329567
13840000000 0.050098639 0.0042671505 1.6776146e-05 0.00059526158 -6.4429209e-05 0.00030598041 0.061304681 0.073299661
13850000000 0.047360621 -0.0055612074 0.00041179458 0.00036881358 0.0003467772 0.00061054586 0.053832397 0.071159698
13860000000 0.034093797 -0.0061875107 0.00051915029 0.00073528575 0.0011160617 0.00082886516 0.051340453 0.068707235
13870000000 0.032473426 -0.0042402768 0.0014218471 0.0003494611 0.00085506041 -9.8369506e-05 0.055341598 0.070100322
13880000000 0.028313048 0.0010962505 0.0012611265 -0.00063583674 0.00073792582 5.3662079e-06 0.067291357 0.069523923
13890000000 0.03992017 0.0028781649 8.3709834e-05 -0.0013152563 0.00077507191 -0.00056529546 0.075114682 0.059855118
13900000000 0.042829797 -0.0017274749 0.00028812047 -0.00081616547 0.00077242428 -0.0016087524 0.067327134 0.05375962
13910000000 0.051120713 -0.0095803067 -0.00012371957 -0.00072430825 -0.00052025903 -0.0012489222 0.060613066 0.052910775
13920000000 0.04631228 -0.016842965 -0.00054540159 -0.0006030316 -0.0011195446 -0.00055488315 0.060575452 0.047961365
13930000000 0.043351211 -0.021545656 0.00012962402 -0.0001474521 -7.7915305e-05 0.00023464514 0.058146928 0.04536235
13940000000 0.029841091 -0.02130387 -0.0010012372 -0.00092835631 -0.00036799288 -0.00059525733 0.061334692 0.047898479
13950000000 0.029385107 -0.015288744 -0.0012329632 0.00022807896 -0.0013880177 -4.461949e-05 0.068949521 0.049203757
13960000000 0.023619173 -0.013162359 -0.00078731822 0.00044603093 -0.00095382397 0.00018998314 0.070308864 0.043879032
13970000000 0.026773129 -0.012699691 -0.00050545344 0.00084421685 -0.00055621401 0.0010888987 0.06722334 0.040305931
13980000000 0.025766324 -0.017517062 -0.00053604558 0.00059146242 -0.0002810937 0.0009069494 0.063070886 0.033702195
13990000000 0.027354851 -0.026610779 -0.00047812043 0.0013344174 -0.00017621985 0.0013796841 0.059025936 0.028874131
14000000000 0.017981481 -0.03347718 0.0011376629 0.0014533487 0.0011171 0.0012339511 0.057849433 0.026280735
14010000000 0.017811079 -0.03633026 0.00078186428 0.00015413067 0.0010421968 2.1736923e-06 0.055368703 0.025916956
14020000000 0.011531418 -0.0375783 0.00096714776 0.00014402883 0.00062603661 -0.00024816048 0.050767276 0.02238493
14030000000 0.013665983 -0.034412909 0.00032322216 0.0004270447 -7.0477166e-05 0.00075856934 0.046066701 0.024499051
14040000000 0.013342194 -0.032732166 0.0013852948 -0.00039206288 0.0012314214 -0.00012974883 0.049896069 0.023633555
14050000000 0.017173957 -0.031674035 0.00050938193 -0.0012878904 0.00093125808 -0.00095530058 0.051227305 0.017446704
14060000000 0.010915524 -0.034156807 -0.00059715495 -0.0007750683 -0.00019217469 -0.0012935774 0.051968921 0.015393409
14070000000 0.0073364144 -0.032935165 0.00050054502 -0.00038935919 -0.00020481666 -0.00075755734 0.047737114 0.0077636703
14080000000 -0.0012085256 -0.031171441 0.000406846 -0.0010648236 -2.6626949e-06 -0.00041632881 0.038499262 0.0042302012
14090000000 -0.0057821353 -0.02794452 -0.0008405922 -0.0015608004 -3.1248492e-05 -0.00098247523 0.029624496 0.0019801874
14100000000 -0.011082675 -0.026408954 -0.0020075932 0.00016854785 -0.0010637927 -0.00059347542 0.025831236 0.00086834282
14110000000 -0.011907129 -0.025254449 -0.00077023759 0.0001972199 -0.0011107324 -0.00044797495 0.026135601 0.0039580371
14120000000 -0.011421385 -0.031369202 -1.0237563e-05 0.001072912 -0.00081448478 0.0013927422 0.034414571 0.0087797213
14130000000 -0.015299427 -0.035771292 -3.0217196e-05 -0.0001118986 -2.3636145e-05 0.00047638733 0.037913039 0.0078840712
14140000000 -0.020395169 -0.039089315 -0.00061642326 0.00018790674 -0.00019314983 0.00018169699 0.036988717 0.0011814635
14150000000 -0.025742562 -0.034158941 -0.00093250268 0.0016126209 -0.0012476936 0.0011576833 0.024848849 -0.011039462
14160000000 -0.027796395 -0.032315686 0.00062965881 0.0011532798 0.00013174216 0.0012703469 0.012447889 -0.0092755836
14170000000 -0.029769046 -0.021365134 0.0008693795 0.00079832424 0.0014594991 0.0014191575 0.014629875 -0.002980039
14180000000 -0.024267711 -0.019684775 0.0012818142 9.0499816e-05 0.0013010399 -0.0002993177 0.018859774 0.0014872244
14190000000 -0.023289293 -0.012807683 0.0012093009 -0.00013449814 0.0010068053 -0.0001312579 0.019067852 0.0057035061
14200000000 -0.021201707 -0.021347154 0.00051700731 -0.00092536607 0.00060747762 -0.000764116 0.01347928 0.0075671053
14210000000 -0.030619882 -0.019939829 0.00013331934 -0.00057528116 0.0005449598 -0.00064335682 0.0048781633 0.012486869
14220000000 -0.035016306 -0.027158309 0.00028032568 -0.00052662031 4.5845438e-05 -0.0010388043 0.010379612 0.0081554148
14230000000 -0.047008984 -0.019295836 0.0004746007 -0.00016314833 -0.00015862199 -0.00039208846 0.009742761 -0.0081872866
14240000000 -0.046958879 -0.017288541 0.00015051028 -0.0011388842 0.00011410935 -0.00059937878 0.00090340897 -0.012539649
14250000000 -0.047436066 -0.0057563465 -0.00077508122 -0.001151385 -0.00042483042 -0.00062998122 -0.0048142932 -0.0016940898
14260000000 -0.039392747 -0.0078802845 -0.00069689163 -0.0011120073 -0.0007983275 -0.00182128 -0.0055801678 0.011088823
14270000000 -0.033714015 -0.0032512918 -0.0010979753 -7.5887656e-06 -0.0014958343 0.00034635724 -0.0019382939 0.015107237
14280000000 -0.028893782 -0.014560819 -0.0012477564 0.00096648355 -0.0012875646 0.0012013068 0.00056680129 0.009887551
14290000000 -0.031932596 -0.0075078914 -0.00057627232 0.00068967952 -2.8905682e-05 0.0008484362 0.0015711159 -5.8484075e-05
14300000000 -0.036279358 -0.01537732 -5.5394383e-05 0.00073674176 -0.00017962759 0.00017364093 -0.0044035297 -0.0025087593
14310000000 -0.044999082 -0.002333736 -0.00056252547 0.00067171175 -0.00068769569 0.00080657518 -0.0063309511 0.0037471782
14320000000 -0.04662871 -0.0029597245 9.6115982e-05 0.0019264843 0.00017052813 0.0016683047 -0.0027583488 0.013611213
14330000000 -0.04610046 0.0086313672 0.0010820968 0.0012818701 0.0011524811 0.0013941353 0.00093850819 0.011009512
14340000000 -0.04282197 0.0042522578 0.0013313475 -0.00016950269 0.0014486038 -0.00049373251 -0.0073998142 0.00051444443
14350000000 -0.039827969 0.0086692069 0.0011029991 -0.00041801608 0.00060310494 -0.00013376783 -0.014798499 0.0048882123
14360000000 -0.037686802 -0.00074172154 0.00021990441 -6.6769958e-06 0.00054166536 0.00020993041 -0.011006791 0.0098409066
14370000000 -0.037221927 0.0002395669 0.0012991768 -9.4369461e-05 0.0017282494 -0.00062558916 -0.0069957301 0.013547803
14380000000 -0.036832429 -0.0061073806 0.0011658737 -0.0012575015 0.0007136034 -0.0015915206 0.0014354028 0.015906746
14390000000 -0.035974156 -3.3086166e-05 0.00024286279 -0.002017153 -0.00038309992 -0.0014446471 0.0031035792 0.0056407605
14400000000 -0.035150483 -0.003876063 -0.0017684111 -0.00048558984 -0.00062889431 -8.0940721e-05 -0.0073478897 0.00041707023
14410000000 -0.03711478 0.0033665365 -0.00050890632 -0.00018662722 -0.00035897314 -0.00082249811 -0.0086114584 0.0048166737
14420000000 -0.037469376 0.0025452925 -0.0004415267 0.00036806526 -0.00072680466 -0.00016651388 -0.0060635163 0.0016853572
14430000000 -0.039075177 0.0082793087 -0.0004091353 -0.0013754219 -0.00076726801 -0.00083779235 -0.015260542 0.006042554
14440000000 -0.039364379 0.0091879303 -0.0014526759 -0.00041304683 -0.0013894978 0.00017963897 -0.012188431 0.019576138
14450000000 -0.0393546 0.013351168 -0.0018409035 0.0013525442 -0.0012529257 0.0010915257 -0.0017291303 0.013366083
14460000000 -0.038502265 0.0080245463 -0.00019399589 0.0017985746 -0.00049463147 0.001342871 -0.0060674637 0.0015215049
14470000000 -0.037069879 0.0044955853 0.00078550365 0.0015066243 0.00029084104 0.0016783602 -0.0049281488 -0.0032124594
14480000000 -0.037570354 -0.0040153936 0.00018469281 0.00046532505 0.00036385321 0.0012745939 -0.01046233 -0.0088200159
14490000000 -0.042472947 -0.0089146607 0.0010500032 0.0012156968 0.0016684824 0.0004724579 -0.013743053 0.0027447359
14500000000 -0.046124842 -0.0097925486 0.0014382751 0.00058323197 0.001064909 0.00010192117 -0.0067894645 0.0048104716
14510000000 -0.051005147 -0.0050352765 0.00091974303 -0.00068478129 0.00044534155 -0.00038343418 -0.012808025 -0.0052280617
14520000000 -0.049454167 0.0013802461 0.00082273013 -0.00053546217 0.001147152 -0.00026365143 -0.021983359 -0.0059287851
14530000000 -0.045848392 0.0082613174 0.00050642295 -0.00049748842 0.00081482984 -0.00098453043 -0.019831792 -0.001982592
14540000000 -0.038445257 0.0094340174 0.00047722828 -0.0006939359 9.4734278e-05 -0.00086897076 -0.01229608 -0.00056304783
14550000000 -0.036631994 0.0086703254 0.00080036127 -0.0012254617 0.00068267575 -0.0009053789 -0.0045342948 -0.0038924697
14560000000 -0.037548058 0.0011861213 -0.00066201016 -0.0020845351 -0.00059037737 -0.0018415791 -0.0099360719 -0.0074664289
14570000000 -0.04718481 -0.0061812629 -0.0014157117 -0.0005660255 -0.0011008419 -0.0006997512 -0.019908844 -0.013758496
14580000000 -0.057952147 -0.0070002619 -0.00081652275 -6.6799548e-06 -0.0010725644 -0.00016490376 -0.039800394 -0.017522618
14590000000 -0.067795329 -0.0043386854 -0.00092934968 -0.00021654528 -0.00077918434 2.2035383e-06 -0.04680901 -0.0059686806
14600000000 -0.071105272 0.0032921378 -0.00084860157 0.00058047619 -0.00074400281 0.00017092942 -0.028080959 -0.00039794762
14610000000 -0.06998235 0.009201739 -0.00099496148 0.00041885965 -0.0017014978 0.00036804017 -0.014811147 -0.010536133
14620000000 -0.060903795 0.012523266 -0.0012143606 0.0014173738 -0.00099484297 0.0022589192 -0.026461009 -0.019292226
14630000000 -0.056286663 0.010728402 0.00011133117 0.001991862 0.00066948938 0.0016414983 -0.040009495 -0.011634736
14640000000 -0.049474683 0.0079651652 0.0010403545 0.0013917402 0.00090753456 0.00086237403 -0.044517364 -0.0064200871
14650000000 -0.054016791 0.0021184245 0.0012034975 0.00042477981 0.00074164348 0.00072148757 -0.044488229 -0.0089438371
14660000000 -0.06053244 0.00059824251 0.00087852986 0.00024743544 0.00079068926 0.00056122034 -0.043360684 -0.015245474
14670000000 -0.076389059 0.0033639036 0.0010016231 -0.00033912357 0.0016890586 -6.1267056e-06 -0.049265578 -0.017854447
14680000000 -0.08030194 0.01373595 0.00095902709 7.7868521e-05 0.0011923781 -0.00068525877 -0.055589501 -0.0094143078
14690000000 -0.087024808 0.021416927 0.00092865876 -0.00090294005 0.00055247376 -0.0013320484 -0.057695813 -0.0010606255
14700000000 -0.083373278 0.03194309 0.00041034588 -0.00128199 -5.6464938e-05 -0.00086181652 -0.055946499 0.0019878708
14710000000 -0.079770371 0.03371251 0.00018831863 -0.0010535246 0.00064608519 -0.00080323574 -0.05324949 -0.0038964385
14720000000 -0.069473498 0.031855103 1.4812598e-05 -0.0012105734 0.00010772659 -0.001229526 -0.058027457 -0.013401934
14730000000 -0.068254471 0.024155378 -0.00093735324 -0.0010351813 -0.0011491169 -0.0015464913 -0.065896638 -0.0096562039
14740000000 -0.067001231 0.019138396 -0.00080135535 -0.00034711804 -0.0013364241 -0.00017064885 -0.071637265 -0.00084369257
14750000000 -0.075687945 0.016852379 -0.0016300916 -0.00042401743 -0.0017740207 0.00012070668 -0.067940727 0.0083261672
14760000000 -0.08000423 0.024551215 -0.0015906711 0.0008525732 -0.0010785325 0.00074189901 -0.069012202 0.0041487794
14770000000 -0.088949047 0.033619888 -0.00048880058 0.00074782787 -0.00060354738 0.00059888017 -0.075144827 0.0068781245
14780000000 -0.084676228 0.047918595 -0.00069172849 0.00055953133 -0.00081965153 0.00082962814 -0.071722418 0.014999758
14790000000 -0.084352426 0.057579853 -0.00045654635 0.001678834 -0.00025561854 0.0015241379 -0.067562297 0.01410151
14800000000 -0.073559344 0.06610398 0.00029230764 0.0021905021 0.0005113745 0.0019746348 -0.068885453 0.014751518
14810000000 -0.068588361 0.061730146 0.0022036803 0.0012077354 0.0018004936 0.0010057526 -0.07948114 0.010828033
14820000000 -0.065457664 0.056492578 0.0014588288 -0.00053200155 0.0014485703 -2.1873391e-05 -0.089772522 0.023939669
14830000000 -0.069459312 0.048178852 0.0002399214 -0.00042193837 0.00066934444 -0.0004258405 -0.077298738 0.030076131
14840000000 -0.07228826 0.043906678 0.0015402811 0.00068500359 0.001250539 0.00010194729 -0.067995533 0.022683568
14850000000 -0.0816065 0.046192743 0.0014178848 -0.0018388603 0.0012436755 -0.0016895875 -0.072756223 0.017119633
14860000000 -0.081427895 0.055646557 0.00054519984 -0.0015220216 0.00051400578 -0.0010405716 -0.081835397 0.031073235
14870000000 -0.07813333 0.06736806 -0.00048419222 -0.0010068781 -0.00029507303 -0.0010040124 -0.081545673 0.045572557
14880000000 -0.063785315 0.077738538 4.7368754e-05 -0.0012914257 0.00013165298 -0.0011019337 -0.073789462 0.052430075
14890000000 -0.050755665 0.079258569 -0.0012502472 -0.0014246358 -0.00085978361 -0.0016016144 -0.061646458 0.042476531
14900000000 -0.038542792 0.077340908 -0.0021020165 0.00014559936 -0.0018165243 -0.00023239607 -0.063404962 0.025424743
14910000000 -0.037919864 0.069061697 -0.0007320054 -0.00015890179 -0.0015017691 -0.00050066912 -0.075658977 0.027096769
14920000000 -0.043600146 0.064771861 -0.0021237254 -0.00015090074 -0.0017534995 0.00078062783 -0.081345618 0.045223787
14930000000 -0.051446214 0.063383855 -0.001551265 0.0013155775 -0.0010610789 0.00084044994 -0.077024914 0.061402082
14940000000 -0.058915816 0.067407146 -0.0003945271 0.002338361 -0.00072732859 0.0018644333 -0.067489788 0.066714682
14950000000 -0.061998479 0.075642429 0.00031002733 0.0016511251 -0.00011575059 0.0021334637 -0.05454915 0.055456057
14960000000 -0.055061832 0.081521571 0.00094012363 0.0011026411 0.00088663166 0.001608951 -0.05428122 0.038392477
14970000000 -0.045240507 0.081822664 0.0015145815 0.00080311229 0.0020008602 0.00088981644 -0.059469186 0.033606451
14980000000 -0.033356454 0.076977447 0.0015459261 0.00055620237 0.001461997 0.00063230196 -0.064507157 0.043781567
14990000000 -0.023542132 0.067281902 0.0011034393 -0.00047355192 0.0012230149 -0.00029162521 -0.062294323 0.059673961
15000000000 -0.022452885 0.057750203 0.0016583465 -4.3370237e-05 0.0021636575 -0.00055791484 -0.056371611 0.064204678
15010000000 -0.02483617 0.053253103 0.0016368111 -0.0013176787 0.0011661078 -0.0018640117 -0.055043295 0.058954526
15020000000 -0.029569488 0.051970836 0.00037888676 -0.0021628959 -0.00013844797 -0.0018006742 -0.054047495 0.053062331
15030000000 -0.034788609 0.055746086 -0.00065483997 -0.001550633 -0.00023848412 -0.0012725636 -0.050960898 0.047082193
15040000000 -0.037464004 0.065192461 -0.00053547986 -0.00088703074 -0.00048409723 -0.0011166356 -0.047622044 0.048900247
15050000000 -0.033135209 0.069762409 -0.00034361836 -0.00081203505 -0.00057387893 -0.0017219321 -0.043744564 0.050729968
15060000000 -0.030119954 0.073372357 -0.0015092907 -0.0019069917 -0.0024378593 -0.0012639354 -0.051467255 0.045409806
15070000000 -0.021786174 0.066847712 -0.0034007002 -0.00065453327 -0.0028857214 0.00036059547 -0.062403876 0.049167782
15080000000 -0.020067468 0.058383867 -0.002787726 0.0023212903 -0.0018831501 0.0020954537 -0.057027053 0.05381972
15090000000 -0.020468134 0.0467797 0.00017394952 0.0022832355 0.00018208323 0.0014866632 -0.048044767 0.046606235
15100000000 -0.026769854 0.040463597 -0.0007192585 0.0010531632 -0.0013172864 0.001251593 -0.043494336 0.040393792
15110000000 -0.032763928 0.036199845 -0.00057043543 0.0018760032 -0.00010544152 0.0020899798 -0.043578207 0.041878764
15120000000 -0.041031655 0.040255569 0.0015933807 0.0036859435 0.0016636155 0.0032153563 -0.048848204 0.044887278
15130000000 -0.039822839 0.048438549 0.003791064 0.00057939586 0.0031470619 0.00069823826 -0.051275223 0.052019343
15140000000 -0.036037728 0.056230869 0.0020619757 -0.0013463735 0.0024396151 -0.0011132678 -0.048765287 0.043135975
15150000000 -0.02926527 0.057829991 0.00024214979 -0.00036013761 0.00065988401 -0.00063186919 -0.059495874 0.038288578
15160000000 -0.024424531 0.058215614 0.0022735691 -0.00044363504 0.0017132307 -0.00085354713 -0.062725894 0.045163378
15170000000 -0.019974787 0.049133763 0.0016708698 -0.0026898978 0.0011493166 -0.0020469592 -0.056266867 0.047992807
15180000000 -0.029433679 0.043872755 -0.0003019282 -0.0025245568 0.0003676677 -0.0024007254 -0.055125184 0.047231831
15190000000 -0.034107883 0.041292183 -0.0017356613 -0.001643474 -0.0014503285 -0.0020059648 -0.057413898 0.044295479
15200000000 -0.045095503 0.042047694 -0.0014403644 -0.0010663436 -0.0014984056 -0.0012119263 -0.064804167 0.041227296
15210000000 -0.04965033 0.04638331 -0.0014077211 -0.0011096582 -0.0016615103 -0.0010856797 -0.067339458 0.048908371
15220000000 -0.049772613 0.056636844 -0.0028035101 -0.00043498538 -0.0027796398 -0.00021066808 -0.059530884 0.053117104
15230000000 -0.043247972 0.05875973 -0.0020865658 0.0011824574 -0.0019678692 0.001415063 -0.052822594 0.04401537
15240000000 -0.035979927 0.061055925 -0.0010945636 0.0020052316 -0.0011543523 0.0018360063 -0.067987427 0.041520171
15250000000 -0.029706832 0.058296092 -0.00077572418 0.0017116115 -0.00052885443 0.0019471892 -0.075821057 0.055583254
15260000000 -0.02912336 0.054088213 -0.00024960955 0.0026807755 -5.6928489e-05 0.0024065862 -0.069391698 0.064780109
15270000000 -0.029492188 0.050948527 0.0015762111 0.0024848569 0.0012988477 0.0024312492 -0.066088535 0.066956058
15280000000 -0.035810135 0.052675232 0.0024884976 0.0015075117 0.002468182 0.0014644284 -0.057117399 0.067397557
15290000000 -0.038174011 0.056740921 0.0026846095 -0.00073077407 0.0027683489 -0.00026130641 -0.061017878 0.059448496
15300000000 -0.041636132 0.061948881 0.001745841 -0.0012896287 0.0022114916 -0.0015103079 -0.076529518 0.061977215
15310000000 -0.038492166 0.069652364 0.0012246441 -0.0012804682 0.00096336158 -0.0019928315 -0.076232187 0.070859402
15320000000 -0.034499653 0.069548555 0.00065394316 -0.0015203099 0.00012171661 -0.00162737 -0.067744613 0.071898699
15330000000 -0.028554188 0.071190886 0.0004372338 -0.0020441224 0.00010379822 -0.0013973508 -0.064296335 0.066456489
15340000000 -0.024570096 0.067454934 -0.0006810074 -0.0018009313 -0.00027584968 -0.001719602 -0.062486149 0.071140707
15350000000 -0.020018782 0.063846081 -0.0011609793 -0.0015285453 -0.0011974728 -0.0018831849 -0.063785248 0.082334556
15360000000 -0.020864194 0.059062589 -0.0017112349 -0.00060836499 -0.0021491228 -0.00035325915 -0.060173519 0.094283082
15370000000 -0.01905692 0.059073657 -0.0020299952 0.00026653509 -0.001580453 0.00017080118 -0.05217208 0.094985813
15380000000 -0.020938367 0.058791675 -0.0011990065 0.00076712389 -0.0011953815 0.00073378102 -0.047823191 0.081860974
15390000000 -0.01917072 0.061171766 -0.0012694083 0.00080947432 -0.00150882 0.00093531539 -0.057825536 0.07057362
15400000000 -0.017488617 0.065178037 -0.00083015894 0.0013096953 -0.00067882607 0.0017113108 -0.065333456 0.080091231
15410000000 -0.01027889 0.065355457 -0.0012912964 0.0026394306 -0.00059596665 0.002351372 -0.057479039 0.093895219
15420000000 -0.0086870287 0.064137228 0.0016907657 0.0023435133 0.0014510115 0.0019218617 -0.052875828 0.10011604
15430000000 -0.001455497 0.061198816 0.0021843321 0.00086827634 0.0016172283 0.001139608 -0.045309179 0.10505261
15440000000 -0.0022267736 0.055682167 0.0014468604 -0.0001418498 0.0015189024 0.00033410796 -0.034217738 0.095841371
15450000000 0.00096409395 0.050368484 0.0015562221 -0.00021140894 0.0020160684 -0.0001309769 -0.036283992 0.079475045
15460000000 -0.00047421921 0.046780843 0.00069595838 -0.0007718128 0.00098645943 -0.0010600657 -0.037004121 0.082672842
15470000000 0.0004023384 0.043362942 0.0013034821 -0.001048038 0.0011075615 -0.0014383849 -0.03335502 0.087022424
15480000000 -0.0016169157 0.043460403 0.0002495737 -0.0015347751 -0.00031718495 -0.0012671858 -0.03240294 0.094067715
15490000000 0.0030004773 0.042713247 -0.00047679764 -0.0016598576 -5.8244506e-05 -0.0014724636 -0.03128786 0.10202946
15500000000 0.0026919656 0.042229559 -0.00056101178 -0.00089613156 -0.00066246948 -0.00086521462 -0.028873615 0.10363007
15510000000 0.0092265699 0.038793489 -0.0011571961 -0.0009989317 -0.0010513287 -0.0011807098 -0.025384102 0.10232717
15520000000 0.0084778285 0.038537778 -0.0010656223 0.00018770387 -0.0013477264 -0.00037970999 -0.01495241 0.095683552
15530000000 0.013217844 0.030195249 -0.001169346 -0.00047581259 -0.0015518939 -8.1609207e-05 -0.012668634 0.085476309
15540000000 0.0087169958 0.025690114 -0.0014526332 0.00057182409 -0.0014405934 0.0010358584 -0.017976984 0.08448419
15550000000 0.0094511751 0.018234961 -0.0016024823 0.0007759186 -0.00085755944 0.00084163831 -0.02099601 0.087207273
15560000000 0.0019274163 0.016875379 -0.00056312926 0.0014895417 -0.00084853568 0.001203927 -0.022432799 0.086768463
15570000000 0.0025932123 0.012676064 0.00035792246 0.00175533 0.00037673226 0.0017415193 -0.018095877 0.09029869
15580000000 -0.00078153284 0.014405046 0.00027105291 0.0011420751 0.00010866561 0.001385062 -0.01008762 0.08806631
15590000000 0.0042101564 0.0093090469 0.0012672709 0.0015734481 0.0015470549 0.0012984213 -0.0049056709 0.087599881
15600000000 0.0040389225 0.0092575047 0.0018613712 0.00035836903 0.001710683 0.00015186403 -0.0026285574 0.086069524
15610000000 0.0081377951 0.0011834892 0.0017795045 -0.001014372 0.0014516906 -0.0010041103 -0.002449699 0.080649093
15620000000 0.0048211683 -0.0012284571 0.00050288963 -0.00076342607 0.0005444581 -0.00045734394 -0.0050927512 0.073720433
15630000000 0.0031102793 -0.010341584 0.00074706529 -0.00066674902 0.00084452948 -0.0011309868 -0.012777789 0.069965228
15640000000 -0.0048760432 -0.0087209791 0.00069768023 -0.0014865245 0.00022371989 -0.00108016 -0.014161076 0.07803268
15650000000 -0.0072807549 -0.012492923 -0.00025494193 -0.0018394142 -6.2850304e-05 -0.0018276674 -0.0051554404 0.0811003
15660000000 -0.012411952 -0.0075699752 -0.0013145362 -0.00068539492 -0.0010042358 -0.0006143981 -0.0035664439 0.077635691
15670000000 -0.013080198 -0.012789821 -0.00023656391 -0.00061379129 -0.00033263117 -0.00072422047 -0.0031114146 0.072306499
15680000000 -0.013263891 -0.010487396 -0.0011151963 -0.001009274 -0.00061958318 -0.00087601988 -0.0053013144 0.061325792
15690000000 -0.01525114 -0.022438908 -0.0019888927 -1.7654907e-05 -0.0023426255 -0.00029223075 -0.012140384 0.061098155
15700000000 -0.017485181 -0.021157779 -0.0013134259 0.0013940886 -0.0014346506 0.0013561451 -0.0041930452 0.069092751
15710000000 -0.023164954 -0.030396694 -0.00024903374 0.0012798959 -0.00035451906 0.0012070609 0.0064578317 0.068335079
15720000000 -0.026149537 -0.027683899 3.6353362e-05 0.00063694705 4.4967805e-05 0.00097566377 -0.00076296926 0.063288562
15730000000 -0.030452643 -0.031828839 -0.00077151833 0.0011870549 -0.00034726478 0.00091778015 -0.012219823 0.066269614
15740000000 -0.028406853 -0.026183534 0.00019351643 0.0020935144 4.9012509e-05 0.0020119702 -0.016177494 0.064336702
15750000000 -0.032097891 -0.032305103 0.0022572712 0.0012896333 0.0020422097 0.0011572406 -0.015803702 0.066681214
15760000000 -0.032351285 -0.028908081 0.0017609252 -0.0010502459 0.0016439039 -0.00038225646 -0.0040015168 0.066205375
15770000000 -0.038414642 -0.034857512 0.00021765838 -0.00081019104 0.00064984837 -0.00085744611 -0.0004759673 0.060595967
15780000000 -0.040255364 -0.030521348 0.00063558103 0.00027372042 0.0010403208 -0.000171097 -0.0071444269 0.063762926
15790000000 -0.048635203 -0.034730487 0.0015170332 -0.0005252593 0.00098275545 -0.0010454406 -0.012399262 0.06694153
15800000000 -0.051199995 -0.030453391 0.00026175502 -0.0017754958 6.1840547e-05 -0.0015183105 -0.016989572 0.063485965
15810000000 -0.056266017 -0.033903033 -0.00059596275 -0.0014409627 -0.00090540468 -0.0011785697 -0.01533841 0.060372449
15820000000 -0.053234942 -0.032690052 -0.00096921145 -0.00077870558 -0.00057283352 -0.00053201301 -0.01502452 0.053723313
15830000000 -0.05793412 -0.040513806 -0.00075204781 -0.00028951938 -0.00062899478 -0.00069516542 -0.014997538 0.058786463
15840000000 -0.059053004 -0.040290263 -0.0010588351 -0.0007085409 -0.0012075242 -0.00086751627 -0.013617935 0.071238145
15850000000 -0.064205147 -0.045658715 -0.0010919489 0.00026466596 -0.0011560462 0.00055579247 -0.0096645504 0.080091141
15860000000 -0.06519293 -0.042087063 -0.0011106217 6.0320483e-05 -0.0010901723 0.00043781858 -0.0065385848 0.074729964
15870000000 -0.070233665 -0.042720255 -0.0012000573 0.00083632534 -0.00063377013 0.00059031101 -0.0050572902 0.064874277
15880000000 -0.067278787 -0.036351711 -0.00048311017 0.0013487352 -0.00032395011 0.0013238159 -0.011620601 0.05456689
15890000000 -0.068466067 -0.036702998 0.00051647431 0.0019731072 0.00046594598 0.0013030267 -0.018045209 0.058409706
15900000000 -0.067238182 -0.034946669 0.0012182761 0.00091744767 0.00095794071 0.00088658597 -0.02033117 0.066108011
15910000000 -0.069726631 -0.040102869 0.0010700333 0.00012056806 0.00099905569 0.00049310323 -0.022744557 0.082565941
15920000000 -0.075128138 -0.043484025 0.00091664097 0.00038110238 0.001298978 0.00011258177 -0.0059464984 0.093120784
15930000000 -0.082845241 -0.045252159 0.0013304329 -0.00050117529 0.001159961 -0.00062816183 0.011402756 0.079079136
15940000000 -0.087411284 -0.045750767 0.00041369835 -0.00083908474 0.00031740774 -0.00049659039 0.0078654476 0.058587395
15950000000 -0.094928637 -0.046580002 0.00029233028 -0.00067664502 0.00021265764 -0.00071600929 -0.012087013 0.057347398
15960000000 -0.095383033 -0.044348393 0.0005633859 -0.00042370558 0.00098503311 -0.00072796567 -0.020890933 0.074824266
15970000000 -0.093135841 -0.04484906 0.00030718243 -0.0019818635 9.6388685e-06 -0.0019022232 -0.013046969 0.089773133
15980000000 -0.089956135 -0.048432305 -0.0015661165 -0.0015106751 -0.0015702527 -0.0014303409 0.00076089427 0.086764671
15990000000 -0.089652672 -0.053142741 -0.0018882941 0.00052441936 -0.0016651457 0.00059481093 0.0047364905 0.071929514
16000000000 -0.090859309 -0.057941236 -0.00019885038 0.00084837683 -0.00020791848 0.00044435979 0.00073253736 0.068608426
16010000000 -0.097707704 -0.062572755 -0.000145101 0.00015575344 -0.00043306159 8.0753918e-05 -0.001809733 0.073564045
16020000000 -0.10584254 -0.061162043 -0.00067409879 -0.00054083206 -0.0010482547 -0.00031525819 0.0012321211 0.080881469
16030000000 -0.11381443 -0.058062132 -0.0012534745 0.00060834811 -0.0010049524 0.00082961976 0.0072869007 0.078939207
16040000000 -0.1197997 -0.053396378 -0.00040453748 0.0016106612 -0.00047110146 0.0014579715 0.0071206428 0.068872742
16050000000 -0.1218633 -0.050471358 0.00034799139 0.0012001123 0.00059510494 0.0013627755 0.0075653959 0.066690966
16060000000 -0.12174255 -0.053403813 0.00064885814 0.0012126341 0.0010282155 0.00086211174 0.012880424 0.065815032
16070000000 -0.12433746 -0.05912447 0.0015656394 6.5939385e-05 0.0013078288 -3.7873688e-05 0.011681827 0.068239227
16080000000 -0.12818688 -0.066326708 0.00088065909 -0.00050355337 0.00070385518 -0.00021398478 0.0090761073 0.080286637
16090000000 -0.13479476 -0.073323607 0.00030613446 -0.00051270868 0.00055572961 -0.00017679231 0.013276511 0.084100336
16100000000 -0.14403641 -0.078603297 0.00033255198 -0.00029107835 0.00087061682 -0.00067003892 0.017107166 0.076884188
16110000000 -0.15346749 -0.076381378 0.00061305048 6.3749801e-05 -7.5158328e-05 -0.00029195755 0.018275071 0.06343133
16120000000 -0.15917177 -0.07315173 0.00086392101 -0.00094555272 0.00046938827 -0.00060240465 0.018883947 0.052180074
16130000000 -0.16423124 -0.064813249 -8.0632744e-06 -0.001424885 0.00044686196 -0.001172871 0.01266343 0.053392395
16140000000 -0.16472688 -0.062323265 -0.0013420091 -0.0014505452 -0.0014257468 -0.0017536441 0.012334347 0.064791769
16150000000 -0.16445436 -0.060042188 -0.0017768795 0.00017191394 -0.0020481902 0.00026807841 0.014872188 0.072700188
16160000000 -0.16938993 -0.067283355 -0.00025106064 0.0010370821 -0.00022452793 0.0014861149 0.022409247 0.069230653
16170000000 -0.17778631 -0.068128347 0.00026567077 5.2619165e-05 0.00075194048 -0.00018621949 0.022379674 0.050723407
16180000000 -0.19278136 -0.077052668 -0.00036232293 -0.00086815929 -0.00037068527 -0.0012336174 0.017766241 0.047798354
16190000000 -0.20587721 -0.073927537 -0.0012810121 0.00023521675 -0.0017512416 0.00050445239 0.022069041 0.053788535
16200000000 -0.21999612 -0.074169084 -0.0010748216 0.0016444287 -0.00075264368 0.0019861429 0.027033633 0.059362501
16210000000 -0.22608525 -0.064636827 0.0010406137 0.0015659747 0.0017498741 0.0011858558 0.025889006 0.057285197
16220000000 -0.23078719 -0.061856251 0.0011180859 7.9048914e-05 0.00093339354 -0.00036937778 0.013294667 0.051911321
16230000000 -0.22650142 -0.054340951 1.7991517e-05 -0.00015861125 -0.00064492621 2.2301188e-05 0.0037622398 0.049197443
16240000000 -0.22860301 -0.058500741 0.00014618898 0.00049161364 0.00048629893 0.00079546898 0.004811984 0.05276949
16250000000 -0.22937143 -0.058631368 0.0014348375 0.00053618901 0.0014902627 0.0004852429 0.019860836 0.051524229
16260000000 -0.24192908 -0.063078858 0.0011732689 -0.0011567634 0.0014011887 -0.0012487188 0.020534268 0.043343056
16270000000 -0.25280511 -0.057664402 -0.00041188567 -0.0014509889 -0.00044904428 -0.0016589414 0.013265068 0.04618796
16280000000 -0.27254638 -0.053780638 -0.00093043642 0.00029311274 -0.001017914 -7.3105854e-05 0.011424924 0.045951657
16290000000 -0.28364357 -0.039539993 0.00060431124 -1.5747035e-05 0.00042240589 0.00015851349 0.0063345176 0.039164647
16300000000 -0.2945469 -0.029506058 0.0007107018 -0.0012362084 0.00071013981 -0.00096434873 0.0048055109 0.03998629
16310000000 -0.293688 -0.019142207 -0.0014826707 -0.0014447151 -0.00098043017 -0.0012209618 0.011912724 0.039438117
16320000000 -0.2975961 -0.018634334 -0.0015710212 0.00048339626 -0.0013929978 -3.5195233e-05 0.009736727 0.042359062
16330000000 -0.29551923 -0.018463254 -0.00013302447 0.0011526141 -0.00082511152 0.0006663606 0.0035632402 0.048080154
16340000000 -0.30374813 -0.026059851 0.0005958816 -0.00036558794 0.00037214422 0.00033086957 -0.00057276338 0.054789208
16350000000 -0.31162265 -0.024967156 -0.0011361939 -0.00016579582 -0.00086233037 0.00012969677 0.0012067296 0.053672563
16360000000 -0.32800698 -0.021617934 -0.0013411349 0.001205934 -0.00096501934 0.0010786506 0.0053078933 0.043175526
16370000000 -0.33720687 -0.0072286464 0.00044891762 0.0013037332 0.00039050475 0.0011122556 0.0037809818 0.033833243
16380000000 -0.34660518 0.0088320859 0.00092275365 0.00075819867 0.00067710207 0.00062388991 -0.0066330461 0.032467
16390000000 -0.34543148 0.025183775 -6.6264365e-05 -0.00018671148 -0.00035052813 0.00015397093 -0.015763242 0.045182098
16400000000 -0.34799036 0.035382479 0.00027648883 0.0010780626 0.00061169232 0.0011906768 -0.014019441 0.055049516
16410000000 -0.34585652 0.041736662 0.0013119197 0.00039280523 0.0016966633 0.00034150097 -0.0061400607 0.055561505
16420000000 -0.35428923 0.041473255 0.0012587578 -0.0013181204 0.0012921091 -0.0015633045 0.0048786942 0.05154454
16430000000 -0.36036056 0.040785961 0.00027163612 -0.00088436983 -0.00022468282 -0.0011763527 0.0075281551 0.042995747
16440000000 -0.377381 0.04158625 -0.00026353486 -0.00080647069 -0.00038670195 -0.00038947572 -0.0013114864 0.041088026
16450000000 -0.38856921 0.050156973 -3.1211264e-05 -0.00064093218 7.0229275e-05 -0.00053813914 -0.016741935 0.049442787
16460000000 -0.4000181 0.062102549 -0.00073429674 -0.00044505968 -0.00048009961 -0.00056763488 -0.023510106 0.066566981
16470000000 -0.40029705 0.077543855 -0.00041354733 -0.00027480678 -0.00060810993 -0.00066900725 -0.0090872832 0.069057047
16480000000 -0.39991426 0.091131896 -0.00020951615 -0.00033299817 -0.0002608918 0.00017296831 -0.001273077 0.056152895
16490000000 -0.39388946 0.10006052 -0.0010966661 -0.00060939707 -0.00076880149 -0.00063495699 -0.0041328073 0.046948664
16500000000 -0.39369211 0.10669138 -0.0010608939 0.00051230076 -0.0011064704 0.00040467118 -0.011775546 0.054458465
16510000000 -0.3951126 0.10977963 -0.00050418166 0.0011760766 -0.00072429411 0.0013618463 -0.013818748 0.065256581
16520000000 -0.40591756 0.11452898 4.4118791e-05 0.00049218402 0.00024062602 0.00070868206 -0.011000194 0.070481636
16530000000 -0.41923472 0.12304896 0.0002097502 0.00084194803 0.00038225579 0.00089187711 -0.0035306681 0.063112922
16540000000 -0.43183801 0.13662727 0.00018751284 0.00095824868 0.00024602577 0.00037018658 0.00072438084 0.054305263
16550000000 -0.44089904 0.15154418 0.0012616608 0.00080274534 0.00082156726 0.0009765061 0.0026929323 0.053780612
16560000000 -0.44369769 0.16691554 0.0012023336 -0.00037088306 0.0010927829 -0.00032114913 -0.0023598373 0.062405445
16570000000 -0.44071981 0.17728408 0.00042807276 -0.00074803334 0.00061799237 -0.00039477763 -0.0051591117 0.079776235
16580000000 -0.43795592 0.18419874 0.00011442969 -0.00012374608 0.00061223726 -0.00041869219 0.0014542142 0.082323954
16590000000 -0.43716317 0.18788925 0.00050311396 -0.00046963204 0.00037123571 -0.00074532925 0.00055891648 0.070957877
16600000000 -0.44058555 0.19299607 0.00076948456 -0.0010107572 0.00046439824 -0.0009972176 -0.0024340488 0.06523975
16610000000 -0.44740751 0.20207234 -0.00096644787 -0.0013310724 -0.001010035 -0.00090736226 0.0047027301 0.065455794
16620000000 -0.45582902 0.21684657 -0.00076007703 -0.00056362071 -0.0004039066 -0.00034559591 0.0063556749 0.064160243
16630000000 -0.46355909 0.23516516 -0.00064606348 0.00082132808 -0.00069424161 0.00015958778 0.0067938175 0.069473416
16640000000 -0.46782666 0.25614798 -4.6779045e-05 -0.00019677742 -0.00032404391 -0.00020568355 0.0075863712 0.067711204
16650000000 -0.46938375 0.27416527 -0.00092236989 -0.00032216634 -0.001019152 -2.838653e-06 0.0034532209 0.063463263
16660000000 -0.46822113 0.28841937 -0.00094143872 0.00074640807 -0.00089758344 0.00082087622 0.0033206427 0.066685081
16670000000 -0.46988142 0.29759556 -0.00017252678 0.00097444991 -2.0859734e-05 0.00086482195 0.016804695 0.069867633
16680000000 -0.4715915 0.30557287 0.00045801891 0.00062294595 0.00022900046 0.00066763797 0.022336897 0.064594179
16690000000 -0.47846153 0.31322393 -0.00022162682 -2.2171342e-05 -0.00015919909 0.00045910344 0.02164912 0.069528498
16700000000 -0.48368293 0.32564807 0.00047621375 0.0013819106 0.00069727347 0.00092570554 0.02274427 0.065427467
16710000000 -0.48836914 0.34221855 0.0013487547 0.00048543411 0.0014017865 0.00031612886 0.013631156 0.054860014
16720000000 -0.48855257 0.36239946 0.0012570963 -0.0010727808 0.0010453704 -0.00091406779 0.00023492519 0.05951855
16730000000 -0.48648745 0.38527313 2.8916693e-05 -0.0010555881 -4.2580243e-05 -0.0010549622 0.0057363473 0.071421854
16740000000 -0.47902253 0.40496469 -0.0006556717 -0.00023942778 -0.00045762086 -0.00010466334 0.018738631 0.067683361
16750000000 -0.47650284 0.42287087 0.00060966483 6.5088767e-05 0.00074902573 -5.675276e-06 0.018790081 0.058937423
16760000000 -0.47150567 0.43929279 0.00044353187 -0.001060567 0.00043103093 -0.0011245813 0.017288346 0.053133942
16770000000 -0.47245148 0.45411152 -0.00074663421 -0.0011577969 -0.0010214982 -0.0013193791 0.014948868 0.043924034
16780000000 -0.47213525 0.4702597 -0.0011898002 0.00049228163 -0.001463852 0.00079117774 0.0092939651 0.045624442
16790000000 -0.47472644 0.48776522 -0.00040439502 0.00030710979 0.00018748906 0.00053629396 0.011457679 0.051639747
16800000000 -0.47122967 0.50621921 0.00014101718 0.00033182718 0.00037715308 -0.00010811984 0.012780657 0.053924412
16810000000 -0.46824619 0.52654767 -0.00028396904 -0.00020264818 -0.00054319843 -0.00050226203 0.0084681623 0.054073814
16820000000 -0.45644158 0.54740018 -0.00038791852 0.00043006398 -0.00070226874 0.0005094884 0.0075025987 0.055624675
16830000000 -0.44651708 0.56703639 3.1543022e-06 0.00065545028 0.00016249885 0.0011425146 0.011876605 0.048308052
16840000000 -0.43210071 0.58602369 0.00039601882 0.00049671496 0.00078290183 0.00033314462 0.010712154 0.041063488
16850000000 -0.42177272 0.60424602 0.00032046405 -5.2816566e-05 0.00039252726 -0.00015867343 0.0061982814 0.04696735
16860000000 -0.4095529 0.62201011 -0.00017515142 0.00024081304 -0.0004891745 0.00032635193 0.0093092723 0.055693645
16870000000 -0.40333551 0.64195818 0.00072102272 0.00022767551 0.00075199222 0.00035613886 0.0085983314 0.055979703
16880000000 -0.39307362 0.66201031 0.00036538992 -0.00025980777 0.00065514166 -0.00020612603 -0.0015154062 0.049153965
16890000000 -0.38644034 0.68244243 0.00038621944 -0.00056641141 0.00025393721 -0.00066269143 -0.010695552 0.04545581
16900000000 -0.3740598 0.70126402 -8.6038061e-05 -0.0001991879 -4.24393e-05 -0.00019690234 -0.010047818 0.053413201
16910000000 -0.36194015 0.71897703 -0.00016771839 -0.00030501137 -5.9410988e-05 -0.00047693099 0.0022917148 0.0592338
16920000000 -0.34475759 0.7331875 6.9721136e-05 -3.6120626e-05 -6.993697e-05 -7.5076663e-05 0.011652624 0.057965469
16930000000 -0.32952884 0.74750829 -0.00043302312 -0.00039500467 -0.00029156008 -0.00018909908 0.0069611934 0.050986279
16940000000 -0.30948341 0.7608546 -0.00027500311 -6.776816e-05 -8.7240769e-05 -0.00012843657 -0.0098909959 0.050086759
16950000000 -0.29173857 0.77578092 -0.0002167652 0.00011429656 -0.00019265026 0.00012502947 -0.019198246 0.058023065
16960000000 -0.27101219 0.79134047 1.6217658e-05 -0.0001581416 -0.000190511 -0.00016346927 -0.011030313 0.063949265
16970000000 -0.25151402 0.80903637 -0.00027790526 2.8881419e-05 -0.00018674546 0.00013691583 -0.002063008 0.061741173
16980000000 -0.22911564 0.8256489 -0.00046851276 0.00033566725 -0.0003381563 0.0002522548 0.00070953742 0.062403943
16990000000 -0.20867722 0.84155655 0.00013892273 0.00043706392 -5.6329634e-05 0.00045862707 -0.0016560312 0.061297372
17000000000 -0.18754765 0.85550439 0.00024576994 0.00012588911 0.00016726779 0.00027522352 -0.012517001 0.065032609
