!Keysight Technologies,P9374A,MY57211807,A.19.30.04
!Date: Friday, May 01, 2026 14:23:30
!Correction: S11(C  2-Port  ) 
!S21(C  2-Port  ) 
!S12(C  2-Port  ) 
!S22(C  2-Port  ) 
!S2P File: Measurements: S11, S21, S12, S22:
# Hz S  RI   R 50
13000000000 0.042418033 0.10431738 0.0006551944 0.001449025 0.0014397311 0.001316637 -0.016626507 0.17981185
13010000000 0.047657304 0.11048134 0.0010833555 0.0001490424 0.00062044163 -0.00048816 -0.020917773 0.18242329
13020000000 0.051673967 0.10629069 0.0010491696 -0.00029580278 0.00076368544 2.3369619e-05 -0.020427071 0.1816943
13030000000 0.055175729 0.10584848 0.00035963918 -0.0010247648 0.00025805936 -0.00039995337 -0.020437405 0.18177272
13040000000 0.055821598 0.091327883 0.00013445616 -0.0001470025 0.00082167308 -0.00048011506 -0.016461072 0.18334214
13050000000 0.048673663 0.087221108 0.0010398428 -0.00052569824 0.00084918103 -0.00076403318 -0.015470142 0.18371603
13060000000 0.040644925 0.080404736 0.00075107219 -0.0009366395 0.00013603832 -0.0010787357 -0.01444114 0.18425779
13070000000 0.032054037 0.088713549 -0.00059390726 -0.0016413063 -0.00078369357 -0.0011843216 -0.0085074753 0.18292908
13080000000 0.032530777 0.093834095 -0.0018737768 -0.00068241573 -0.0011500188 -0.00099126168 -0.0072442219 0.17126179
13090000000 0.037630249 0.10180968 -0.0013142372 0.00060242612 -0.0015555981 0.0003794785 -0.016121022 0.16988143
13100000000 0.043135349 0.10401875 -0.00084154058 8.7216496e-05 -0.00085744524 0.00052269816 -0.014421798 0.18236445
13110000000 0.051727518 0.10514319 -0.00029882745 0.0009023255 -0.00032868423 0.00077083695 -0.010075036 0.18526974
13120000000 0.054780442 0.099099189 -5.957656e-05 0.00084225432 -0.00024206498 0.00081264833 -0.010894923 0.19089969
13130000000 0.057294302 0.095079839 -6.489722e-05 0.0005292006 0.00011496223 0.00056875433 -0.0064902566 0.18758401
13140000000 0.052493587 0.084092572 -0.00032330933 0.00060573709 -0.00044839503 0.00040291384 -0.0074112788 0.17917815
13150000000 0.042153575 0.088780768 -9.3846931e-05 0.0012526984 3.1165546e-06 0.0015001844 -0.013296321 0.17782095
13160000000 0.038269721 0.089421213 0.00093596068 0.0012284671 0.0010799295 0.00081992161 -0.0068644807 0.18576068
13170000000 0.037925567 0.10044225 0.0019189506 -3.3774646e-05 0.0017736527 -1.8879422e-05 0.0062274337 0.18587261
13180000000 0.046767429 0.10252872 0.0012983552 -0.00098937156 0.00070745545 -0.00082428247 0.0073534772 0.17897779
13190000000 0.054848094 0.10460863 0.00017736602 -0.0012055456 0.00089021825 -0.00086504023 0.0048425253 0.17602254
13200000000 0.061253376 0.10007744 -1.5520563e-05 -0.0004816704 -2.5988236e-05 -0.00097345846 -0.0027895458 0.17697789
13210000000 0.06872572 0.097084977 0.00042237382 -0.00081782683 -5.0937058e-05 -0.00064195931 -0.0012932494 0.18432614
13220000000 0.068753146 0.086177848 0.00024749665 -0.0013854783 0.00079822494 -0.0013795103 0.0084937215 0.18678638
13230000000 0.064644784 0.083890818 -0.0011222623 -0.001502056 -0.0015290471 -0.001735602 0.01502376 0.18777175
13240000000 0.05757245 0.082892269 -0.0019784053 -0.00022861679 -0.0021703499 -0.00012731919 0.02451209 0.18628284
13250000000 0.054431729 0.089961179 -0.0014701453 0.00056847063 -0.00083690922 0.00083492685 0.030723773 0.17971781
13260000000 0.055713791 0.093818501 -0.0010031445 0.0011019477 -0.0006555834 0.0007463615 0.027100366 0.17207131
13270000000 0.063391246 0.09638387 -0.00039159556 0.001171228 -0.0009135108 0.0011263685 0.020700607 0.16948237
13280000000 0.069734357 0.093514197 -0.00027473486 0.0011171345 -0.00039794334 0.0012465352 0.014799349 0.17287341
13290000000 0.077743351 0.087784402 0.00079480128 0.0013238101 0.00096308626 0.0015005148 0.016813509 0.17743108
13300000000 0.079553179 0.078209728 0.00030210812 0.00033355871 0.00040773381 0.0004848734 0.026202641 0.17894827
13310000000 0.082228102 0.070635863 4.0433515e-05 0.00049517589 0.00041899903 0.00045541086 0.041899253 0.17684272
13320000000 0.074785464 0.063833594 0.0017234869 0.0016415667 0.0015677683 0.0013133774 0.05577004 0.16909866
13330000000 0.072357632 0.065656655 0.0025289541 -0.00025869132 0.0021294423 -0.00048304533 0.059967667 0.16164638
13340000000 0.067883894 0.070350997 0.00058413856 -0.0024815316 0.00049399032 -0.0022605078 0.05263076 0.15718108
13350000000 0.073678151 0.076248191 -0.00075181073 -0.0014668708 -0.00031796537 -0.00093096396 0.040705748 0.1560075
13360000000 0.079105794 0.074753381 0.00033461285 -0.0004464658 0.00045856426 -0.00033012859 0.029605016 0.1583858
13370000000 0.084622324 0.069455788 0.00059506524 -0.00085671013 0.00032035116 -0.0015174075 0.032034568 0.16305794
13380000000 0.086425915 0.063607804 -0.00084198359 -0.0019671756 -0.00088838307 -0.0019454286 0.046979401 0.16488042
13390000000 0.085301504 0.055952694 -0.0019121738 -0.0012924287 -0.0023256934 -0.00082296785 0.06494692 0.15843077
13400000000 0.081982382 0.046780385 -0.0019407979 0.00051370164 -0.0016178472 0.00089490286 0.076692805 0.14988136
13410000000 0.074655272 0.042163022 -0.00099610991 0.0012196945 -0.00096812262 0.001193173 0.070148595 0.13643575
13420000000 0.072737522 0.041822195 -0.0004163431 0.0015599825 -0.00010283437 0.00088166562 0.051562518 0.13113643
13430000000 0.07018251 0.044683065 -0.00034903415 0.0012262908 -0.00064057019 0.0013200209 0.043358352 0.13145888
13440000000 0.074826539 0.047203008 0.00070670107 0.001380004 0.00031000757 0.0014397175 0.042569526 0.1306137
13450000000 0.07864061 0.046570305 0.00088484888 0.00088589656 0.0012074871 0.0010949507 0.052077714 0.1341569
13460000000 0.083438016 0.038016688 0.00079336448 0.00033190689 0.00096724101 0.00044561576 0.067431778 0.13677566
13470000000 0.081609845 0.03446712 0.0013833025 0.0007351744 0.0014620126 0.00055983174 0.073070332 0.13209666
13480000000 0.079314403 0.025505001 0.0015834025 3.1624513e-05 0.0012638649 -0.0004601095 0.071391165 0.12777154
13490000000 0.07133396 0.02681178 0.0012313708 -0.0011001304 0.0011935338 -0.00069415045 0.065427728 0.11502884
13500000000 0.067795485 0.019478913 0.00037644294 -0.0014455569 0.0011051805 -0.0013301083 0.054374512 0.10494033
13510000000 0.061389316 0.022603057 -0.00025730909 -0.0013236536 -0.00056649029 -0.0019498478 0.04785084 0.1051742
13520000000 0.062050689 0.022899719 -0.00029707211 -0.0013303863 -0.00079593173 -0.0004555854 0.053154357 0.11079613
13530000000 0.060773473 0.023652084 -0.00067278231 -0.00082753471 -0.00011738893 -0.00089915848 0.055535179 0.11209242
13540000000 0.066807278 0.022690209 -0.001483103 -0.00065532117 -0.0010651213 -0.0010541808 0.060868174 0.11353229
13550000000 0.06796281 0.016402153 -0.0013397287 -0.00047105804 -0.0018526975 -0.00063803571 0.057840612 0.10682894
13560000000 0.066288829 0.012180779 -0.0017769136 5.6448742e-05 -0.0023263241 0.00082670804 0.054122414 0.10030625
13570000000 0.062029332 0.011735894 -0.0014880244 0.0014705149 -0.00087683997 0.0015254577 0.057072457 0.099076465
13580000000 0.058151796 0.011659086 -0.00018520671 0.0022647299 -7.3334668e-06 0.0017625605 0.06025181 0.092933901
13590000000 0.052296765 0.012669209 0.00068313774 0.0012953719 0.00016654562 0.0016148232 0.056906648 0.092585921
13600000000 0.047009036 0.013127256 0.00065526215 0.00096658274 0.0012230498 0.0011762816 0.052224204 0.090525478
13610000000 0.043588407 0.017673127 0.001217516 0.00035286663 0.0010008021 -0.00015299441 0.043728348 0.092165381
13620000000 0.045502894 0.018939618 0.0011645771 0.00011096668 0.0010012473 0.00056681805 0.037193 0.094371453
13630000000 0.045753077 0.017391354 0.0013772887 -0.00026012002 0.0013215784 -0.00013000489 0.037705615 0.10075815
13640000000 0.047391169 0.012652969 0.00064852642 -0.00048373328 0.00095309725 -0.00037436976 0.046816334 0.10243507
13650000000 0.045366537 0.0059683849 0.0010563009 -0.00097051705 0.00087442523 -0.00093698711 0.057731092 0.097641155
13660000000 0.042641353 0.0058709653 0.00078414707 -0.0012932048 0.00098549237 -0.001408073 0.059879065 0.085422166
13670000000 0.041429661 0.008999804 -0.00056649395 -0.00158362 -0.00099274737 -0.0015930112 0.052574895 0.072896585
13680000000 0.043571435 0.0077272244 -0.0010861973 -0.0014682862 -0.00095926347 -0.0012158824 0.03865844 0.069482796
13690000000 0.037327942 0.012371435 -0.0017619331 -0.00027633563 -0.0015359088 0.00021717272 0.030354826 0.081644684
13700000000 0.04073396 0.017172176 -0.00078192714 0.00026981896 -0.00084069034 -0.00014275269 0.036920641 0.095490977
13710000000 0.039984737 0.02131338 -0.00075396092 0.00050468015 -0.0010235828 0.00052470679 0.043000221 0.10388557
13720000000 0.043951783 0.021417804 -0.0010476685 0.00038050726 -0.00030958373 0.00045039805 0.049608819 0.10472311
13730000000 0.04452689 0.016263507 -0.00077803829 0.0010488051 -0.0016380232 0.00047159346 0.06184449 0.0961776
13740000000 0.038203433 0.012070346 -0.00061348587 0.0016763101 -0.00059399253 0.0024182245 0.062597595 0.074625857
13750000000 0.037159964 0.014096725 0.00054720149 0.0012675999 0.0011415808 0.0014121025 0.049628038 0.064619243
13760000000 0.036671788 0.0095195342 0.0013874177 0.00073900027 0.0015493028 0.00013816694 0.042623661 0.072160184
13770000000 0.034951072 0.0087433988 0.0015392738 0.0001970334 0.0010428177 7.5193966e-05 0.035397191 0.079365253
13780000000 0.03501888 0.0089594414 0.0012959467 -0.0008381895 0.001320653 -0.00031589266 0.031293306 0.096371122
13790000000 0.0379612 0.012699787 0.0005228935 -0.00025389317 0.00046248271 -0.00084191211 0.047584131 0.10550986
13800000000 0.041809503 0.014025928 0.00055687636 -0.0012246963 0.00047787081 -0.00035061629 0.06410411 0.091329575
13810000000 0.048056841 0.013251957 0.00011190442 -0.00076011627 0.0008519665 -0.00079517951 0.071217589 0.072533973
13820000000 0.050935075 0.0064916089 4.1745487e-05 -0.0010847851 -0.00026472239 -0.0017355686 0.065851092 0.066105746
13830000000 0.045034822 0.0047898423 -0.00073058304 -0.00083140843 -0.0010258633 -0.00070364872 0.062787674 0.064671867
13840000000 0.043866239 0.0047956491 -0.00089771627 -0.00069255295 -0.00074369874 -0.0003538648 0.049032889 0.063788265
13850000000 0.038868237 0.0032269238 -0.00060577953 -0.00013984962 -0.00046354043 8.4081199e-05 0.039600872 0.07436873
13860000000 0.039407764 0.0016342902 -0.0011260409 -6.7945031e-05 -0.001095369 -0.00010468419 0.046023648 0.081113294
13870000000 0.034249902 -0.00072526373 -0.00099324645 0.00046551594 -0.00061642204 -8.747918e-05 0.05988802 0.077009261
13880000000 0.036912106 0.0018184735 -0.0009025099 0.00087384833 -0.0012951663 0.0011906135 0.070128806 0.070123225
13890000000 0.040950119 -0.0024410635 -0.00069430063 0.0014806582 -0.00023326522 0.0015099372 0.076259986 0.060846936
13900000000 0.045207523 -0.0051171146 0.0011818769 0.00097915111 0.00072075735 0.0010559399 0.070870332 0.052629784
13910000000 0.045146126 -0.014218232 0.0011457127 0.00052562798 0.001189267 0.00044466392 0.061836757 0.047630228
13920000000 0.041957654 -0.014000214 5.9612517e-05 -0.00020812459 0.00019885774 -0.00020549938 0.054331027 0.04448159
13930000000 0.040532768 -0.016816041 0.00042649804 0.00014637696 0.00030497287 0.00028003755 0.052980445 0.04838486
13940000000 0.035486374 -0.016604567 0.00087929424 0.00065232464 0.0010248569 0.00020685322 0.059194151 0.050824046
13950000000 0.031326905 -0.015959594 0.0009454125 -0.00021331015 0.00053222373 -0.00026632653 0.067156479 0.049868174
13960000000 0.025990101 -0.015961116 0.0011871581 -0.0011046233 0.0012257807 -0.00060226733 0.067365214 0.045142964
13970000000 0.0221883 -0.012765555 -0.00045704457 -0.0013255294 -7.15559e-05 -0.0013107728 0.064460576 0.043490455
13980000000 0.02784491 -0.016404517 -0.00031834203 -0.00061231758 -0.00040875984 -0.00097938185 0.06446521 0.03628388
13990000000 0.025989911 -0.025287995 -0.00076603546 -0.00041971897 -0.00090259529 -0.00034027902 0.060904 0.029310357
14000000000 0.021089859 -0.031470299 -0.0004418671 0.00020232494 -0.00060476369 -1.7632898e-05 0.060427554 0.026064584
14010000000 0.018598368 -0.035893522 3.9623487e-06 6.7024528e-05 -7.0283888e-05 0.00033310382 0.055257238 0.022159746
14020000000 0.016474696 -0.039021689 -4.474225e-05 -0.00069902907 7.5982738e-05 -0.00088326028 0.047022451 0.018236697
14030000000 0.014889859 -0.039340012 -0.0012197553 -0.00043881859 -0.0011378699 -0.00013220767 0.039382242 0.024361962
14040000000 0.010789366 -0.037147544 -0.0012983115 0.0011137365 -0.0013128447 0.00054041692 0.041981965 0.026878469
14050000000 0.0081627984 -0.031784326 5.4107804e-05 0.0011379181 5.9469196e-05 0.0016767541 0.048070718 0.025234737
14060000000 0.0083477618 -0.026216611 -0.00031837309 0.0010282088 0.00022014111 0.00082493119 0.05271567 0.020998567
14070000000 0.009273693 -0.027199481 0.00051937549 0.0002218844 0.00012155309 -7.6493241e-05 0.052039802 0.011327561
14080000000 0.0057475525 -0.026451189 0.00081588427 0.00036340585 0.00040748407 0.00094504771 0.043105718 0.0012911027
14090000000 0.0018421123 -0.030340185 0.000299779 0.00031041238 0.00094735855 0.00024712653 0.030978996 -0.0033234879
14100000000 -0.0075631533 -0.032607589 0.00085803098 0.00041936123 0.00065823767 0.00018523281 0.020450825 -0.007038712
14110000000 -0.013256784 -0.034006495 0.00086324371 -0.00024077648 0.00054459105 -0.00047638628 0.017303172 0.00086151529
14120000000 -0.01827129 -0.036370605 0.00079569744 -0.0003685976 0.00084787677 -0.00032075375 0.022122134 0.0099875946
14130000000 -0.025476331 -0.035503648 0.00088976871 -0.00081918173 0.00082087936 -0.00035134773 0.030333672 0.018436685
14140000000 -0.026200045 -0.029149206 -0.00011925886 -0.0014593458 1.900475e-05 -0.0018255875 0.03775743 0.014796553
14150000000 -0.024507282 -0.023826603 -0.00096928299 -0.00046198498 -0.00091169786 -0.00063814886 0.03667568 -0.0021033376
14160000000 -0.017567458 -0.025333181 -0.00017276466 -0.00041041683 -0.00030345135 0.00022561787 0.026850397 -0.015757656
14170000000 -0.018684434 -0.026361795 -0.00054723246 -0.00031773822 -0.00030584668 -0.00071052811 0.015867397 -0.021788057
14180000000 -0.019874824 -0.027247019 -0.0011231272 -0.00028281729 -0.0012134727 -0.00033477583 0.001756567 -0.012816341
14190000000 -0.02486122 -0.023376781 -0.0007058623 0.00042627603 -0.0012316671 0.001022332 -0.0027874361 0.0087542068
14200000000 -0.028740723 -0.025822233 -0.00056353188 0.00028427673 -0.000119832 0.00027981104 0.0027047019 0.026185056
14210000000 -0.039816737 -0.021372393 -0.00078482088 0.00035952145 -0.00050667097 2.9104613e-05 0.012351444 0.025737077
14220000000 -0.043727525 -0.018001137 -0.00051196181 0.00069303205 -0.00073659961 0.00053683418 0.019113561 0.011113187
14230000000 -0.045598865 -0.0098030437 -0.00041978105 0.0015167812 -0.00064840179 0.001943317 0.018761115 -0.010638027
14240000000 -0.039489798 -0.007977847 0.00088995625 0.0014228198 0.0013967515 0.0013130471 0.0049993182 -0.024122629
14250000000 -0.036107175 -0.0106683 0.0022023809 0.00075699948 0.0019330312 0.00062479073 -0.013716039 -0.012749341
14260000000 -0.035508331 -0.012264634 0.0012992716 -0.00096290128 0.0015118327 -0.00088395039 -0.019940142 0.0077834013
14270000000 -0.032226563 -0.012172837 0.00087211176 -0.0007821988 0.0010109474 -0.00087934063 -0.013568446 0.02388606
14280000000 -0.034281395 -0.016326934 0.0005784207 -0.00067542715 0.0002784401 -0.00096008473 -0.0022462793 0.019780379
14290000000 -0.035297345 -0.012439966 -0.00068888138 -0.00051948975 -0.00071016327 -0.00035789955 0.0040091309 0.010042116
14300000000 -0.044322051 -0.011798564 0.00044257514 0.00011197125 0.00042887608 7.2209543e-05 0.0068290671 -0.00084321719
14310000000 -0.046487696 0.0025927946 0.0011060598 -0.0010344764 0.00086468062 -0.0010374438 -0.00039493316 -0.0058402098
14320000000 -0.045170315 0.0042393319 -0.0010994617 -0.0017200815 -0.00078378897 -0.0017325087 -0.009242231 0.0021042416
14330000000 -0.040836073 0.0092767924 -0.0015922112 -0.00069873175 -0.0014804787 -0.0011151774 -0.012232236 0.0089115314
14340000000 -0.039244223 0.0069441041 -0.0015651139 -2.0301726e-05 -0.0018562365 0.00035642757 -0.016748434 0.0093268454
14350000000 -0.035655871 0.003849424 -0.0015429631 0.0013527692 -0.0012968663 0.0011280769 -0.013613204 0.014982911
14360000000 -0.035721451 -0.00017743227 7.0044087e-05 0.0014906467 -0.0002376371 0.0015904466 -0.0029689302 0.012563108
14370000000 -0.031840641 -0.0077846777 0.000845709 0.00016110159 0.00089744036 0.00052955304 -0.0027037556 0.0051456969
14380000000 -0.042849824 -0.012463401 -0.00088176347 7.5223419e-05 -0.00012459136 -0.00031636443 -0.0066928249 0.0076918979
14390000000 -0.042250853 -0.0036174189 -0.00021764962 0.0015910957 -0.00095193513 0.00093595462 -0.0090180812 0.0090618366
14400000000 -0.04491147 0.0013362914 0.00056470942 0.001689635 0.00031190692 0.0023190596 -0.011362274 0.0094688851
14410000000 -0.037312489 0.010631183 0.0018073658 0.0012884935 0.0026114963 0.0014441875 -0.0054725828 0.010477005
14420000000 -0.035819985 0.010389937 0.0019966238 -0.0003941035 0.0020889249 -0.00079087581 0.00025478058 0.0041068406
14430000000 -0.031197343 0.012554474 0.0018524401 -0.001681786 0.0012309143 -0.0020575603 -0.0064652488 -0.0018872895
14440000000 -0.031437319 0.010818291 -0.00019926977 -0.001802361 -0.00018298926 -0.0010891323 -0.018706629 0.0051611811
14450000000 -0.027774727 0.0036383057 -0.00046979648 -0.00073584903 -0.00017919191 -0.0010787382 -0.017955577 0.011496691
14460000000 -0.039652906 -0.0051792152 -0.0004134906 -0.00077629788 -0.00046122805 -0.0010879827 -0.017839933 0.0094832778
14470000000 -0.046034686 -0.006655708 -0.00028132822 -0.00039642971 -0.00071836583 -0.00022591873 -0.012497712 0.011749162
14480000000 -0.053520411 -0.003090417 -0.00038589296 -0.0010252728 -0.00021383636 -0.00050015998 0.0012269715 0.0052619358
14490000000 -0.050086848 0.0018399814 -0.00082349457 -0.00022528134 -0.00049690739 -0.0005573543 0.0026793666 -0.0046193288
14500000000 -0.046841338 0.0019553546 -0.001669701 -0.00018225718 -0.0016270027 -0.00046102106 -0.0065229642 -0.011128158
14510000000 -0.043905266 0.0047193654 -0.00082325819 0.0010355941 -0.0014060008 0.00076992466 -0.021777758 -0.015037796
14520000000 -0.037260897 0.0056308974 -0.0010412707 0.00055857125 -0.0012511404 0.0011028636 -0.036621124 -0.0097256126
14530000000 -0.031123849 0.0025383709 -0.00056233688 0.0014771579 4.1294028e-05 0.0020921472 -0.033474423 0.0062019238
14540000000 -0.033874996 -0.0053043291 0.00037094567 0.0016621883 0.00081567781 0.00089429686 -0.013922838 0.012398918
14550000000 -0.043342106 -0.0070962189 0.0015568832 0.00046105881 0.00071540114 0.00012739336 0.00077697926 0.0047844397
14560000000 -0.054733705 -0.0041859765 0.0011132681 0.00025755426 0.00092389935 0.0012233258 -0.0015340643 -0.0070850477
14570000000 -0.059780452 0.0013663262 0.00067395595 0.00042622752 0.0014654652 -0.00018047851 -0.016541382 -0.019443136
14580000000 -0.064752236 0.0044602444 0.0013997242 -6.3975967e-05 0.0011633228 -0.00047492413 -0.038530536 -0.024064258
14590000000 -0.063420787 0.0099044964 0.0008718723 -0.0013351259 0.00079991471 -0.0010538404 -0.051408313 -0.017979793
14600000000 -0.06072722 0.011198515 0.00030186103 -0.00096354575 0.00056123768 -0.00065800513 -0.046651229 -0.0061836932
14610000000 -0.052903645 0.0082427729 -0.0002259576 -0.001519762 -6.8295572e-05 -0.0017081751 -0.032712504 0.0012903903
14620000000 -0.050797544 -0.00071381032 -0.00040438768 -0.00094744976 -0.0011328651 -0.0010323962 -0.027194332 0.00054024346
14630000000 -0.057281107 -0.0043472219 -0.00098126463 -0.00070718292 -0.00055641629 -0.00022174342 -0.024939325 -0.0016108751
14640000000 -0.060454734 -0.0021825666 -0.0010644757 -0.00025887755 -0.0011430646 -0.00028284075 -0.028746329 -0.015986407
14650000000 -0.067068025 0.00079056434 -0.0010080307 0.00025510782 -0.0010230351 0.00012066872 -0.044579614 -0.027854482
14660000000 -0.073080249 0.0074823834 -0.00095769978 0.00029128048 -0.0010303644 0.0002336372 -0.058665082 -0.025465269
14670000000 -0.080491215 0.016811732 -0.00066180562 0.00013787171 -0.00068616832 0.00026406188 -0.066172153 -0.013071224
14680000000 -0.075667314 0.027661668 -0.00027530768 0.00094891497 -0.00036010999 0.0012472153 -0.062402461 0.0046504177
14690000000 -0.073368743 0.028763797 -0.00066609692 0.0008733127 -0.00024726812 0.00081746333 -0.052527495 0.0098881852
14700000000 -0.068154901 0.025706016 -0.00032928714 0.001179456 -0.00038307783 0.00091146783 -0.047791604 0.0028283363
14710000000 -0.071544059 0.019063426 0.0015881127 0.0015798066 0.0011538753 0.0016999299 -0.050937649 -0.010026931
14720000000 -0.076091506 0.017280668 0.0018221624 0.00056456745 0.0019839574 0.00068377069 -0.059621427 -0.019786589
14730000000 -0.076298557 0.018308718 0.0014110216 -0.00065223483 0.0014604705 -0.00064722967 -0.072504908 -0.013602326
14740000000 -0.081691958 0.015455075 0.0011078283 -0.0010156488 0.00096506882 -0.00098636374 -0.080253541 -0.00045741349
14750000000 -0.087118678 0.027926758 -0.0004266779 -0.001127234 -0.00021557795 -0.0010157588 -0.074684829 0.012790088
14760000000 -0.084114052 0.037159733 0.00044732986 -0.00042587012 0.00029369775 -0.00056197611 -0.069525436 0.013276406
14770000000 -0.080392025 0.0499819 0.00032355511 -0.0014338372 0.00013544275 -0.0011850665 -0.067091733 0.01087895
14780000000 -0.06857039 0.050793264 -0.00096990948 -0.0010438212 -0.0007174568 -0.0012609863 -0.065249182 0.0053660469
14790000000 -0.070837937 0.051111221 -0.00090305053 -0.00043449731 -0.00097477448 -0.00047937519 -0.075031109 0.0051907059
14800000000 -0.069333844 0.050910752 -0.0008664428 -0.00054142647 -0.0010403111 -6.8241643e-05 -0.081082739 0.015897691
14810000000 -0.071477041 0.049216308 -0.001721102 9.2064729e-06 -0.0013239946 -0.00025570794 -0.08543428 0.021436257
14820000000 -0.077799961 0.045481078 -0.0007078363 0.0013596789 -0.0010067855 0.00086090615 -0.08515805 0.031168208
14830000000 -0.085120998 0.049941584 -4.7576075e-05 0.00077224063 -0.00021010256 0.0013964918 -0.072137609 0.027973404
14840000000 -0.085555442 0.056216817 4.8656533e-05 0.00039196236 0.00043505544 0.00029070894 -0.067730904 0.016887452
14850000000 -0.077492006 0.064932667 -0.00056841585 0.00085990207 -0.00061012461 0.00063689542 -0.07818149 0.013671511
14860000000 -0.069641925 0.063966252 -0.00033164333 0.001186703 -0.00015175567 0.0014000742 -0.085641548 0.030122017
14870000000 -0.062107418 0.068100452 0.0009527051 0.0015601369 0.00091253105 0.0011764206 -0.087106667 0.044697337
14880000000 -0.053656515 0.066281557 0.0020631221 0.00055181456 0.0017571247 0.00087899342 -0.080343738 0.053866111
14890000000 -0.047966432 0.067124724 0.0014579096 -0.00046003703 0.0019662895 -0.00028040627 -0.06529054 0.049886256
14900000000 -0.046711877 0.061188962 0.00093135796 -0.00075869303 0.00092066103 -0.0013128616 -0.059797205 0.031435627
14910000000 -0.053105749 0.065608144 0.00078886817 -0.0019188122 0.00021060521 -0.0013372044 -0.067311019 0.028661035
14920000000 -0.058288984 0.070678562 -0.00088156678 -0.0012995368 -0.00024817191 -0.0013404595 -0.073982753 0.035132635
14930000000 -0.056031726 0.079827793 -0.00051752955 -0.00039351679 -0.00050895911 -0.00082761131 -0.083753839 0.046337992
14940000000 -0.052466191 0.078452304 -0.00026108327 -0.00045733983 -0.00063665106 -0.00021475485 -0.086977832 0.061172161
14950000000 -0.050505355 0.080255434 -0.00082246802 -0.00069222593 -0.00084475923 -0.00024722822 -0.072164685 0.068885408
14960000000 -0.045561396 0.077845648 -0.00097276439 -0.000574156 -0.0010318307 -0.00061709742 -0.054183424 0.058681447
14970000000 -0.034821466 0.075108185 -0.0010195612 0.00053477491 -0.00065004639 0.00027350779 -0.042551666 0.0446756
14980000000 -0.033394501 0.061546564 -0.0010809773 0.00049214088 -0.00099823484 0.00034552015 -0.044774037 0.033949032
14990000000 -0.033792935 0.057675172 -0.0003006027 0.00148063 -0.0008290126 0.0013112382 -0.061926715 0.035118047
15000000000 -0.037444446 0.057150636 -0.00038868989 0.00065127236 -0.00035592128 0.0015098831 -0.076471291 0.051880229
15010000000 -0.032863952 0.062183231 0.0001591855 0.00076070213 0.00092135364 0.00050451915 -0.074617945 0.064015821
15020000000 -0.03313962 0.061714366 0.00033232413 0.0011582139 -0.00016450901 0.00060167955 -0.06405402 0.068033934
15030000000 -0.030290825 0.068122722 0.00098128768 0.0011432585 0.00090696756 0.0015535129 -0.045371793 0.064749822
15040000000 -0.027899452 0.069605768 0.0017025387 0.00068538473 0.0020801071 0.00061719958 -0.031873573 0.05355677
15050000000 -0.019940078 0.068561085 0.002103484 -0.0010198604 0.0017478883 -0.0012398398 -0.033104025 0.039994698
15060000000 -0.022452652 0.060015138 0.00040482279 -0.0015254299 0.00051323476 -0.0014483324 -0.05321645 0.032193135
15070000000 -0.023571104 0.054393973 -0.0001933554 -0.0013091794 3.1881151e-05 -0.0010623833 -0.071194917 0.039645638
15080000000 -0.033115089 0.049398564 -0.00029483996 -0.0004851906 -0.00050250901 -0.00034049095 -0.072103664 0.050341364
15090000000 -0.032208607 0.051126875 -2.3648579e-05 -0.00068213977 1.8748688e-05 -0.00081181759 -0.061543856 0.055872377
15100000000 -0.034620091 0.047074392 -0.00099162082 -0.0011779581 -0.0013019938 -0.0014337949 -0.044146135 0.056224115
15110000000 -0.035005994 0.049280681 -0.0016427363 -0.00024977946 -0.0017668303 -7.6444849e-05 -0.032641299 0.049754888
15120000000 -0.032868505 0.051393695 -0.00085579354 0.0005864104 -0.00045023172 0.0010902002 -0.036859501 0.040866308
15130000000 -0.026836876 0.051191349 -0.00038243443 0.00055050687 9.4236588e-05 0.00029432401 -0.049328256 0.037461046
15140000000 -0.025943387 0.048627175 -0.00052236626 0.00080748153 -0.00097862096 0.00015527022 -0.058494832 0.035370316
15150000000 -0.025038844 0.044488221 -0.00034627595 0.00061447866 -0.00074762298 0.0011164931 -0.069172658 0.03730144
15160000000 -0.033317968 0.047734484 0.00036171242 0.0005849899 0.00052936241 0.0010108256 -0.070832498 0.047804862
15170000000 -0.029307399 0.047739759 -3.2204844e-07 0.00034346638 0.00050872396 0.00020938898 -0.060309343 0.056298941
15180000000 -0.038105424 0.045609545 -3.8682163e-05 0.001088661 -0.00026706481 0.00063978008 -0.052907161 0.052494884
15190000000 -0.041101545 0.049979925 0.0013108664 0.0012099585 0.00058538635 0.001342594 -0.053051382 0.046345726
15200000000 -0.04435486 0.053238619 0.0015192053 0.00012057624 0.0023076669 0.00030053657 -0.058382101 0.037896633
15210000000 -0.039223723 0.055642694 0.0015337298 -0.0014850155 0.0014289136 -0.0015425525 -0.066957712 0.038991094
15220000000 -0.037670933 0.051849559 0.00014167425 -0.0016479415 6.883085e-05 -0.0016570654 -0.067398548 0.046006694
15230000000 -0.039323326 0.051764794 -0.00079927983 -0.00093621813 -0.0008466125 -0.00069550448 -0.064948559 0.045169186
15240000000 -0.03661792 0.052106138 -1.9933446e-05 0.00032714382 0.00017773568 8.8571061e-05 -0.073366992 0.051545355
15250000000 -0.03423408 0.052155111 0.00023133209 -0.00065594946 3.2008444e-05 -0.00064976077 -0.070606761 0.062084757
15260000000 -0.038212653 0.051402684 -0.00084680319 -0.0010789797 -0.0010641263 -0.00092823291 -0.063128598 0.060426973
15270000000 -0.038408637 0.055780206 -0.001417359 -0.00026586765 -0.0010180416 -0.0002378088 -0.06634336 0.05846756
15280000000 -0.038964532 0.061755899 -0.00068736431 0.00070968911 -0.00073144032 0.00069617759 -0.066651031 0.061279565
15290000000 -0.033339869 0.066237301 0.00013804593 0.00078835152 0.00016545742 0.00055184361 -0.069804072 0.064420953
15300000000 -0.033486005 0.062914871 -0.00044462548 -0.00041048561 -0.00026113572 -0.00037657924 -0.075222217 0.069814637
15310000000 -0.031745221 0.066575967 -0.00061231037 1.0678123e-05 -0.0004028019 0.00013179831 -0.068864107 0.07200098
15320000000 -0.031241104 0.064556092 9.4992713e-05 0.00062357023 -0.00052900863 0.00074627274 -0.064961642 0.063449591
15330000000 -0.027391907 0.064598344 -0.00062990957 0.00078903825 -0.00032154628 0.00076070818 -0.069021769 0.059990089
15340000000 -0.030311249 0.061144095 0.0005618392 0.00087585824 0.00055372022 0.0010579153 -0.070825182 0.069317997
15350000000 -0.028358761 0.063828632 0.0012387706 0.0014642869 0.0013370663 0.00072090654 -0.070750624 0.085133478
15360000000 -0.027100617 0.064601235 0.0015364015 -0.00023771642 0.0011602428 3.707927e-05 -0.063682944 0.099012338
15370000000 -0.017316326 0.065465979 0.00074929849 -0.0011438873 0.00085772038 -0.00081551867 -0.052982673 0.10051633
15380000000 -0.02009685 0.061888468 0.00070920622 -0.0006101256 0.00092288019 -0.00080984988 -0.044000316 0.085259788
15390000000 -0.014166649 0.065404676 6.7082496e-05 -0.0011519906 -3.0271302e-05 -0.0016344197 -0.0494835 0.067749992
15400000000 -0.010976113 0.063600108 -0.00047967923 -0.00045040279 -0.0006196886 -0.00014032019 -0.062510267 0.068018921
15410000000 -0.0078248167 0.060288139 -0.0003129002 -8.1396232e-05 -0.00022069499 0.00010814749 -0.066024467 0.08273074
15420000000 -0.0097467229 0.057493627 -0.00041018066 -0.0011395154 -5.3612312e-05 -0.001184869 -0.066266283 0.096263781
15430000000 -0.0073048584 0.058143359 -0.0006725702 -0.00014201639 -0.00093730231 -0.00048756073 -0.058981217 0.11258979
15440000000 -0.0074570049 0.057211079 -0.00050802762 0.00021675517 -0.0007865256 0.00061985728 -0.036895014 0.11290482
15450000000 -0.00092424452 0.054039493 -0.00082653487 0.00043569185 -0.0001488344 0.00041377993 -0.021047186 0.091283664
15460000000 -0.0036376738 0.049819496 -0.0007070906 0.00012722166 -0.00092496583 2.972412e-05 -0.020475207 0.075847581
15470000000 0.0017143348 0.050527133 -0.00052337238 0.00079701591 -0.00042322639 0.00060945208 -0.02671531 0.069301605
15480000000 0.0042676297 0.045975871 -0.00071610435 0.0004232006 -0.0009611604 0.00064454484 -0.042028807 0.075745426
15490000000 0.009738558 0.040387768 -0.00019277714 0.0013599097 0.00019780756 0.0017695841 -0.052135132 0.09918984
15500000000 0.0038943496 0.035045929 0.0011624637 0.001891776 0.0013749006 0.0014363768 -0.041328669 0.11386293
15510000000 0.0065501379 0.036942087 0.001729456 0.00013366918 0.0011344323 -0.0001607564 -0.0270929 0.11504401
15520000000 0.0070509687 0.034954432 0.00097931433 -0.00042242344 0.00091399613 -0.00024981692 -0.0066101737 0.10735567
15530000000 0.0075843143 0.029979233 0.00045120914 -0.00090203923 0.00072424475 -0.00070112746 0.0040143393 0.085132807
15540000000 0.0046206196 0.027814442 0.00027357065 -0.00024451042 0.00045639442 -0.00042488205 -0.0080711879 0.069028221
15550000000 0.0070876 0.024935821 0.00037136331 -0.00068509311 0.00034946026 -0.0010033182 -0.026117953 0.069106489
15560000000 0.0060434593 0.02311242 0.00043611921 -0.0014925359 0.00017786626 -0.0014390849 -0.036703385 0.079509504
15570000000 0.0092142196 0.014174422 -0.00042802704 -0.001283073 -0.00059893145 -0.00065641181 -0.032824989 0.094087332
15580000000 0.003840954 0.0097896364 -0.0016117295 -0.00037161371 -0.00097725296 -0.00081519404 -0.014833901 0.10099717
15590000000 0.0056972299 0.0064007901 -0.00084891077 0.00055019453 -0.0013481867 0.00012687535 0.0025114305 0.096376024
15600000000 0.0041134907 0.0036235848 -0.00061946717 8.906889e-05 -0.0008168575 0.00044475362 0.0072638988 0.082632169
15610000000 0.0032552616 -0.0033142588 -0.00047884957 0.0001512638 8.2531042e-05 0.00051317638 0.0013523353 0.072713301
15620000000 -0.0044165822 -0.00082172127 -0.00068005343 0.00026509049 -0.00057708623 -6.5883651e-05 -0.0091787595 0.065557793
15630000000 -0.00049173657 -0.0013312013 -0.00071675761 0.00076763122 -0.0011181503 0.00051552337 -0.017715046 0.067033544
15640000000 -0.0012466363 -0.0020618574 -0.0004808844 0.00030622841 -0.00078330177 0.0009710124 -0.016923837 0.076158099
15650000000 -0.0012693093 -0.010833521 -8.3924388e-05 0.0020349636 0.00055309915 0.002242039 -0.0098571591 0.080417469
15660000000 -0.0081755873 -0.0087465178 0.0013041523 0.0017297093 0.0014325043 0.0011431938 -0.0065595806 0.078326978
15670000000 -0.00825598 -0.015186739 0.0027966546 -0.00016005916 0.0023157815 -0.0002494553 -0.0044160355 0.073686309
15680000000 -0.012237372 -0.018525692 0.00060287293 -0.0016276073 0.00049661385 -0.0013685866 -0.005636048 0.063759483
15690000000 -0.019989591 -0.026142333 -0.00018968199 -0.00023592333 0.00033766046 -0.00046867377 -0.0069983285 0.05942864
15700000000 -0.024041969 -0.021822352 0.00074599002 -8.7313238e-05 0.00064552535 -0.00038107083 -0.0048016049 0.06119436
15710000000 -0.025859449 -0.025148578 0.00059397286 -0.0010737019 0.00024765733 -0.00090035173 -0.00075436756 0.06579341
15720000000 -0.025874117 -0.025777061 -0.00010551658 -0.0015270456 -7.6442549e-05 -0.0014364736 -0.0028291289 0.065689057
15730000000 -0.030017983 -0.027736858 -0.001347766 -0.00084732519 -0.00096471678 -0.0011643306 -0.0096895723 0.067951553
15740000000 -0.025357261 -0.024016215 -0.0011508312 -0.00026365669 -0.0018055952 -0.00026956463 -0.011579594 0.060026336
15750000000 -0.026710309 -0.032592304 -0.00092325051 0.00041661275 -0.00058825128 0.0003359715 -0.018533364 0.056318562
15760000000 -0.031112567 -0.033372995 -0.0012732288 0.00035575879 -0.0011430152 0.00061591709 -0.016799202 0.061072715
15770000000 -0.038330786 -0.037208207 -0.00022139051 0.0009675459 -0.00041455324 0.00071758818 -0.011227639 0.068338245
15780000000 -0.042232912 -0.032032326 -3.535868e-06 0.0002910402 8.4656342e-05 0.00029696221 -0.0056857169 0.074014597
15790000000 -0.049751267 -0.036057811 -0.0005093927 0.00047153485 -0.00063705014 0.00078491919 -0.0026716031 0.073663816
15800000000 -0.054851446 -0.031844322 -0.00039695294 0.0012930997 -0.00041298865 0.0014425652 -0.0009109918 0.055312246
15810000000 -0.059797592 -0.028963078 0.0010928767 0.0018139831 0.0011401161 0.0012828097 -0.016438337 0.039391845
15820000000 -0.052651055 -0.028885538 0.0015838272 0.00041891236 0.0013130616 0.00051602733 -0.028327901 0.042092666
15830000000 -0.05523498 -0.03838842 0.0016208297 -0.00082719349 0.0013622741 -0.00051800121 -0.029968884 0.059861597
15840000000 -0.056679606 -0.040761456 0.00051359925 -0.00098181341 0.001226071 -0.00094900327 -0.022755509 0.079365559
15850000000 -0.062571824 -0.044671185 0.00050441467 -0.00033159787 0.00034357829 -0.00074478926 -0.0086040534 0.092302784
15860000000 -0.060208544 -0.042774115 0.00020735763 -0.00096688548 -0.00040426583 -0.00084191136 0.0064443462 0.081477836
15870000000 -0.067237429 -0.049539268 -7.489277e-05 -0.0015403375 0.00021732315 -0.001078372 0.0068077035 0.057486083
15880000000 -0.071427032 -0.042344704 -0.00073339127 -0.0010027973 -0.00058409013 -0.0014802786 -0.0074534523 0.04265121
15890000000 -0.075190403 -0.037046038 -0.001381201 -0.0005246498 -0.0015361753 -0.00078704138 -0.021667358 0.044123035
15900000000 -0.069986261 -0.032813154 -0.00070780964 0.0005112873 -0.0010721601 0.0011093041 -0.03391077 0.058518272
15910000000 -0.073891237 -0.035156526 -0.00077075016 0.00042687572 -0.00030831341 0.00051704393 -0.033525132 0.085922107
15920000000 -0.073115878 -0.037009496 -0.0002498129 0.00073523418 -3.9659964e-05 0.00074967952 -0.011542551 0.099246159
15930000000 -0.078457139 -0.039814875 -0.00017575943 0.00056338077 -0.00039273 -8.6434011e-06 0.010224517 0.087723657
15940000000 -0.07691706 -0.047182027 -0.00039821869 -9.9049648e-06 -0.0008231324 0.00049264432 0.017215552 0.068089515
15950000000 -0.090392545 -0.055152226 -0.00076548383 0.0014871483 -0.00061159808 0.0016907798 0.0067270035 0.053096592
15960000000 -0.097537346 -0.052068867 0.0013242586 0.0013550833 0.001690928 0.0012477776 -0.011605494 0.054117441
15970000000 -0.098624811 -0.04944589 0.0017232141 6.7075598e-05 0.0016194884 -0.00069329084 -0.024122484 0.070501879
15980000000 -0.097325027 -0.050368182 0.00062071776 -0.0013513822 -7.4231793e-05 -0.00081567751 -0.019001732 0.081360452
15990000000 -0.0971753 -0.048301049 -0.00055822131 3.7110585e-06 -0.00019805093 0.00041893445 -0.009368252 0.085991055
16000000000 -0.094368957 -0.049359366 0.00069974002 5.3383817e-05 0.0011706488 -0.00015367038 0.0047367215 0.085919484
16010000000 -0.092677347 -0.052951824 0.0012125616 9.0928632e-05 0.00087720074 -0.00050961802 0.015753793 0.077714279
16020000000 -0.096020073 -0.057619996 0.00051782606 -0.0017220426 0.00024853559 -0.0014832682 0.012879091 0.068003699
16030000000 -0.10519835 -0.062884152 -0.00091054197 -0.0015224825 -0.0010065364 -0.0011822898 0.0041517965 0.064239942
16040000000 -0.11483828 -0.059795823 -0.0018263733 -0.00015197106 -0.0014070768 -0.00026418699 -0.002420824 0.062675022
16050000000 -0.12237167 -0.061472502 -0.00077399169 0.00037104997 -0.00078374974 0.00021471808 -0.0023017749 0.066810749
16060000000 -0.13029464 -0.059771236 -0.00072686386 0.00085666438 -0.00060930458 0.00058934611 0.010576647 0.072387964
16070000000 -0.13510421 -0.05895881 0.00069395558 0.00022408304 0.00024210397 0.00068333454 0.018544564 0.070497081
16080000000 -0.13540691 -0.057824973 -0.00017303608 0.00010543166 9.0457674e-05 0.00014498776 0.014838528 0.072748683
16090000000 -0.13494074 -0.064459577 -0.00058848987 9.4296396e-05 -0.00024812776 1.0817996e-05 0.011622021 0.078092538
16100000000 -0.13874429 -0.068845831 -0.00012348899 0.00065249356 -0.00031677107 0.00031543258 0.012468372 0.072149836
16110000000 -0.14367791 -0.073321916 2.0470092e-05 0.0012649277 -0.00029239879 0.0014077323 0.011603084 0.063131161
16120000000 -0.14784014 -0.074654281 0.0014881876 0.0003214702 0.001749695 0.00078889664 0.017920744 0.058525827
16130000000 -0.15655239 -0.078326687 0.00055596925 -0.00086136017 0.0013756724 -0.0010767357 0.019759879 0.055181902
16140000000 -0.16959484 -0.074658111 -2.0329462e-05 -0.0010241258 -0.00081425026 -0.0014645238 0.019711804 0.059599321
16150000000 -0.17547591 -0.067011945 -0.00079625426 0.00042167757 -0.00094492256 0.00094573642 0.01725411 0.061649669
16160000000 -0.18188055 -0.063077383 0.00056046771 0.0011926768 0.00092374801 0.0012843891 0.015091417 0.056783963
16170000000 -0.18508184 -0.061035108 0.0015927495 -0.0006735918 0.0017030794 -0.0009028049 0.0085736271 0.050081395
16180000000 -0.19448918 -0.063236892 -2.3731904e-05 -0.0021026314 -8.9347246e-05 -0.0023187068 0.011446548 0.055593729
16190000000 -0.19742596 -0.06259349 -0.0013716174 -0.00070820987 -0.0016102153 -0.0005568678 0.026467403 0.061037917
16200000000 -0.20323679 -0.070587695 -0.001045875 0.00057124498 -0.0011335739 0.00095236936 0.035608746 0.059211835
16210000000 -0.21366571 -0.077249654 7.5879507e-05 0.00088334165 0.00048971886 0.00082203839 0.033068407 0.053220905
16220000000 -0.22821736 -0.073243462 0.00012890973 -4.0712461e-05 0.00013097253 -0.00051471277 0.019559525 0.042073838
16230000000 -0.2333003 -0.070168972 0.00010215824 -0.00038505334 -0.0005176079 -0.00042628677 0.0022866449 0.035453342
16240000000 -0.24063903 -0.060724437 -0.00040381451 2.7219598e-05 -0.00039138499 0.00050680933 -0.0058101779 0.04415841
16250000000 -0.24292728 -0.059272967 -0.00038960078 0.00019268283 0.00023963265 0.00046280172 0.0071246484 0.051833242
16260000000 -0.25186098 -0.047492273 1.5651982e-05 0.0011199792 -0.00011158529 0.0004460449 0.012615852 0.053492136
16270000000 -0.25028703 -0.042675883 0.00068922807 -0.00050522218 9.6265583e-05 -0.00036228448 0.018731095 0.060334593
16280000000 -0.25818786 -0.041046452 -0.00032442666 7.8301346e-05 -0.00013548863 0.00040979974 0.028570438 0.048800293
16290000000 -0.26696309 -0.044333763 0.00044448968 0.00022396017 0.00070436334 8.0349637e-06 0.020567205 0.026532136
16300000000 -0.28201622 -0.039738189 0.00012210938 -8.920268e-05 6.8278023e-05 -0.00042113944 0.0053892564 0.019707363
16310000000 -0.29346898 -0.038739454 -0.00024777488 -8.9325978e-05 -0.00046333947 -3.3885575e-05 -0.0011651404 0.025817763
16320000000 -0.30710152 -0.030752614 0.00017644811 0.00082916673 0.00029382267 0.00076166057 -0.0078931116 0.043458417
16330000000 -0.31527829 -0.025182337 0.0010370477 2.818543e-05 0.0012547157 0.00031732948 -0.0027869754 0.062194519
16340000000 -0.31831235 -0.013268158 0.00054298167 -0.0011718933 0.00074290531 -0.0016388539 0.0080633946 0.065092176
16350000000 -0.31618673 -0.01012145 -0.00062754017 -0.00076426368 -0.0016677707 -0.00067716598 0.013065822 0.052901968
16360000000 -0.31986594 -0.0044173673 -0.001039137 7.1322545e-05 -0.0004858186 0.00065302756 0.013324543 0.034981169
16370000000 -0.32167575 -0.00098611414 0.00011848939 0.00066810986 0.00053687079 7.7901364e-05 0.0063231494 0.022148777
16380000000 -0.32845265 0.0050397702 0.00055824331 -0.00052157539 -7.846683e-05 -0.00069566997 -0.011172407 0.025020937
16390000000 -0.33592191 0.0070878789 -0.0011349348 -0.00032059738 -0.00088608247 0.0002826397 -0.022533998 0.041452147
16400000000 -0.35207957 0.017992377 -0.00018301985 0.00079784245 -8.7944805e-05 0.00054584554 -0.019621331 0.057046041
16410000000 -0.36217439 0.030157313 0.00057336176 0.00026098042 0.00043812173 0.00016684938 -0.0068419464 0.059250318
16420000000 -0.37123317 0.045015946 0.00023258396 -0.00024687621 -0.00024394058 -0.00017799962 0.0073269196 0.054420546
16430000000 -0.37319511 0.05202058 -0.00064639619 0.0001301325 -0.00029342179 0.00027530396 0.012866567 0.041768927
16440000000 -0.37459669 0.058615714 3.9793602e-05 0.00041722151 -3.6635673e-05 0.0004959181 0.0029896903 0.037255671
16450000000 -0.37724838 0.062710047 -0.00024012546 7.124462e-05 -0.00028773161 -0.0001369516 -0.014338072 0.044480827
16460000000 -0.38187224 0.064274542 0.00034046621 0.00036743435 0.00020988949 0.0008373023 -0.023017693 0.057212599
16470000000 -0.38672775 0.067117155 0.00022215082 0.00043735505 0.00021645974 0.00038547377 -0.017567914 0.063106455
16480000000 -0.39416754 0.073291987 0.0013113079 8.447381e-05 0.0013280642 -0.00011119008 -0.0072881337 0.058221519
16490000000 -0.40212265 0.084111437 0.00021630716 -0.00091154157 5.0268136e-07 -0.00086713588 -0.002476301 0.052721605
16500000000 -0.41029 0.09891776 -0.00022665238 -0.00071688311 6.4532447e-05 -0.00069299067 -0.0031077852 0.055241369
16510000000 -0.41395488 0.11756572 -0.00037594297 0.00023512416 -0.00058513699 0.00012331922 -0.0074878912 0.05793532
16520000000 -0.41293395 0.13091813 -0.00019152323 -0.00021435645 -0.00017629872 -0.00012916906 -0.011042421 0.06034575
16530000000 -0.41374466 0.14071196 -1.9817011e-05 1.5564681e-05 0.00024895812 -1.3170706e-05 -0.011001831 0.058123618
16540000000 -0.41534507 0.14443102 0.00041542042 -0.00035221822 -8.2314e-05 -9.4912291e-05 -0.0058279596 0.05856818
16550000000 -0.42381039 0.14699458 -0.00052247965 -0.00048241182 0.00019821266 -0.00041703659 0.0066539198 0.061628118
16560000000 -0.43476528 0.15184006 -0.0006798252 0.00024012887 -0.001075796 -0.00017420325 0.0090683661 0.061829738
16570000000 -0.44300482 0.1610139 -0.00029726536 0.00081542105 -0.00039413525 0.00088178361 0.0019059479 0.068666466
16580000000 -0.45094749 0.17308219 0.00034656288 0.00024339349 0.0004036671 0.00048562195 -0.0021141581 0.069599137
16590000000 -0.45167121 0.18831539 0.00028774238 -7.6195523e-05 0.00048876426 -0.00019186993 -0.011755425 0.065959387
16600000000 -0.45320955 0.20261627 -8.1538747e-06 -0.00034255057 3.769515e-05 -0.0004241869 -0.010078624 0.072575375
16610000000 -0.44885707 0.21728325 -0.00084060105 0.00010455496 -0.0010913135 -0.00020880019 0.0083663017 0.074802503
16620000000 -0.44836348 0.22857526 -0.00018815001 0.00090362073 -0.00027259858 0.0013984861 0.01906156 0.068245247
16630000000 -0.44803536 0.23980008 0.0010283429 0.00098799227 0.0013215307 0.00067143858 0.019364757 0.060353648
16640000000 -0.45413882 0.24794012 0.0011232238 -0.0003026328 0.0011692645 -0.00039567798 0.008927309 0.054855291
16650000000 -0.46456152 0.25930277 0.00029406199 -0.0012186847 -1.9886231e-05 -0.00089808251 -0.0031489595 0.053784747
16660000000 -0.47529158 0.27450868 -0.00072886195 -0.00027589439 -0.00064777327 -0.00053214747 -0.0048127342 0.064090326
16670000000 -0.48344076 0.29103047 -0.00029224827 -5.2321659e-05 -0.00023166054 0.00014648979 0.0094563402 0.074512661
16680000000 -0.48664516 0.31135118 0.00040225979 0.00015301789 0.00044844273 0.00014775342 0.023513272 0.07488931
16690000000 -0.48275435 0.32572371 2.8734212e-06 -0.00015761792 -0.00024457165 -0.00041368496 0.031793006 0.07336501
16700000000 -0.48036069 0.33791772 -0.00022154112 -0.00046222992 -0.00021366832 -0.00037230368 0.031642206 0.061153665
16710000000 -0.4761869 0.34803635 -0.00054043886 9.1231486e-05 -0.00019106438 0.00011383439 0.020300368 0.046225958
16720000000 -0.47832143 0.35908201 -5.5554541e-05 -0.0001403052 -0.00019945197 -0.00012231863 0.0011859236 0.046418179
16730000000 -0.47908163 0.37528151 -0.0003129488 0.0001091771 -0.00026383612 -3.1426753e-05 -0.0038865656 0.060529768
16740000000 -0.48176923 0.39491495 -0.00033732303 8.3463732e-05 -0.00043175343 0.00022329675 0.0078149457 0.06978979
16750000000 -0.48264593 0.41531333 0.00021918112 0.00047296996 0.00014640346 0.00060601294 0.014475701 0.069086835
16760000000 -0.48324734 0.43829125 8.1888124e-05 5.7937239e-05 0.00036595383 -4.813206e-05 0.024954824 0.063609041
16770000000 -0.47950345 0.45941371 -5.6772813e-05 1.112151e-05 -0.0003136434 -0.00020329174 0.030719317 0.045040056
16780000000 -0.47588155 0.47998607 -0.00043043756 0.00050785014 -0.00038811896 0.00064761785 0.023166936 0.031398579
16790000000 -0.46822166 0.4956705 0.00060042011 0.00064441469 0.00042348568 0.00067264633 0.0089846132 0.033183664
16800000000 -0.46324748 0.50866002 0.0010484197 -3.953898e-05 0.0010834765 -8.4150954e-05 0.00024923589 0.046677977
16810000000 -0.45885596 0.5209583 0.00043903221 -0.00059238466 0.00047549602 -0.00096422544 -0.0023772195 0.058760885
16820000000 -0.45539337 0.53822613 -0.00034626803 -0.0003424006 -0.00060931174 -0.00022364185 0.0056039095 0.065886363
16830000000 -0.45045894 0.55961597 0.00013824072 2.9475123e-06 0.00020642871 -5.6671488e-06 0.02110759 0.056444064
16840000000 -0.44004571 0.58404499 0.00019060048 -0.00027842715 0.00042332133 -0.00028614348 0.025069121 0.037426751
16850000000 -0.42826644 0.60677052 -0.00023019756 -0.00055855315 -0.00038046332 -0.00067123957 0.014595169 0.033157367
16860000000 -0.41329488 0.62842041 -0.00055683864 2.4168754e-05 -0.00050667615 2.3142122e-05 0.0059392075 0.041731991
16870000000 -0.40146863 0.64739549 -5.0320574e-05 1.0884191e-06 -0.00026029491 0.00012459203 -0.0018025688 0.05013679
16880000000 -0.38944149 0.66596752 -0.00016761351 0.00017707254 9.0615576e-05 5.9376645e-05 -0.010349643 0.053682625
16890000000 -0.38020799 0.68163955 4.5832461e-05 -0.00015459998 6.8238529e-05 -0.00030699465 -0.0087727923 0.057222176
16900000000 -0.37075996 0.69669002 -0.00023641186 4.0725143e-05 -0.00047954731 0.00011285223 0.0029563289 0.054850966
16910000000 -0.36216408 0.71256471 -0.00048069848 0.00024230404 -0.00041213396 0.00048512107 0.011242269 0.049766578
16920000000 -0.34981033 0.72928971 -8.3522755e-06 0.00067716202 0.00018130316 0.00072499149 0.012483873 0.047104117
16930000000 -0.33500597 0.74710232 0.00028409006 0.00055972073 0.00018954155 0.00032648272 0.0014911406 0.045230329
16940000000 -0.31382918 0.76449603 0.00037444665 4.7383452e-05 0.00019261694 0.00021303346 -0.014600579 0.051429074
16950000000 -0.29209787 0.78024065 0.00044229176 0.00010798128 0.00057393208 0.0002399621 -0.018030209 0.059828334
16960000000 -0.26837066 0.79511303 0.00050301867 -0.00025393441 0.00057853712 -0.0002908523 -0.0080231577 0.065224782
16970000000 -0.24740824 0.80898768 3.0650524e-05 -0.00031794159 -4.1042222e-05 -0.00046583504 0.0035593845 0.059709005
16980000000 -0.22679205 0.8234117 -0.00017359937 -0.00018083061 -0.00016210174 -6.4265187e-06 0.0037511904 0.057059355
16990000000 -0.2082285 0.83800733 0.00030651869 -2.9172996e-05 0.00019965085 0.00016888898 -0.00089832395 0.05949042
17000000000 -0.18979114 0.85271132 0.00010220735 -0.000379145 0.00018313184 -0.00068203744 -0.0095742755 0.060238563
