!Keysight Technologies,P9374A,MY57211797,A.19.30.04
!Date: Wednesday, April 23, 2025 12:25:26
!Correction: S11(C  2-Port  ) 
!S21(C  2-Port  ) 
!S12(C  2-Port  ) 
!S22(C  2-Port  ) 
!S2P File: Measurements: S11, S21, S12, S22:
# Hz S  dB   R 50
100000000 -47.187172 18.542223 -0.016851023 -2.930351 -0.016108908 -2.9412453 -52.93486 -12.97433
149500000 -50.890282 -38.430683 -0.021132866 -4.353302 -0.019475162 -4.3648534 -51.601582 -24.022001
199000000 -49.165844 -14.463904 -0.024486877 -5.7696724 -0.022988195 -5.7804875 -49.692299 -33.970764
248500000 -46.875385 -40.204632 -0.028198853 -7.1854453 -0.025867332 -7.1956067 -47.551609 -41.232277
298000000 -46.571285 -46.538273 -0.03072584 -8.5990448 -0.028483378 -8.6123152 -45.898594 -50.107475
347500000 -43.869061 -53.417511 -0.033339076 -10.009297 -0.030707331 -10.021313 -44.490917 -56.335167
397000000 -43.033493 -60.54475 -0.03564721 -11.417602 -0.033576984 -11.430318 -43.411346 -62.306065
446500000 -41.588284 -61.243767 -0.037542172 -12.828274 -0.036684781 -12.841537 -42.06002 -67.656075
496000000 -40.697685 -68.351494 -0.040404327 -14.236429 -0.03875022 -14.252566 -40.8479 -71.361298
545500000 -39.789173 -70.298607 -0.042341884 -15.643806 -0.040555347 -15.654923 -40.000942 -74.888855
595000000 -38.697617 -75.880394 -0.045041893 -17.045694 -0.042407755 -17.0716 -38.776249 -77.917366
644500000 -38.041321 -79.687729 -0.046588242 -18.455502 -0.04482533 -18.480827 -37.880375 -80.321091
694000000 -36.863136 -82.018822 -0.04898563 -19.860237 -0.047111053 -19.88595 -37.155651 -83.813629
743500000 -36.390915 -85.382416 -0.05132724 -21.270809 -0.048810232 -21.290714 -36.258385 -87.394859
793000000 -35.478069 -87.03891 -0.053272035 -22.682138 -0.051014502 -22.701574 -35.580906 -89.649261
842500000 -34.836899 -90.45874 -0.055089504 -24.09391 -0.05327256 -24.110519 -34.853413 -92.569534
892000000 -34.157581 -91.363029 -0.056400783 -25.499613 -0.054648563 -25.522377 -34.352348 -95.030884
941500000 -33.626987 -94.610962 -0.0583998 -26.90657 -0.05648654 -26.930622 -33.70266 -97.269745
991000000 -33.132137 -96.239418 -0.060808182 -28.311998 -0.058574539 -28.341007 -33.03196 -99.94696
1040500000 -32.501591 -98.183113 -0.062462308 -29.733114 -0.059956159 -29.757143 -32.599934 -101.92828
1090000000 -32.084103 -100.58821 -0.064768374 -31.131691 -0.061766185 -31.164661 -32.029812 -104.37312
1139500000 -31.485924 -102.28033 -0.065928824 -32.553997 -0.0641746 -32.579376 -31.570858 -105.89977
1189000000 -31.099409 -104.63857 -0.067707688 -33.968071 -0.065296531 -33.993816 -31.104427 -108.31279
1238500000 -30.618439 -105.88475 -0.069152184 -35.379375 -0.067829423 -35.410759 -30.63485 -110.16492
1288000000 -30.234222 -108.77642 -0.070862114 -36.785248 -0.068139173 -36.845932 -30.286695 -111.46477
1337500000 -29.862785 -110.18087 -0.072240815 -38.205246 -0.070773713 -38.268101 -29.861837 -113.52769
1387000000 -29.441008 -112.32985 -0.074015416 -39.620758 -0.07250955 -39.685421 -29.496853 -115.18707
1436500000 -29.116352 -114.02075 -0.076176144 -41.044567 -0.072605364 -41.104736 -29.142723 -117.1702
1486000000 -28.73978 -115.54064 -0.077303812 -42.461823 -0.075579755 -42.525486 -28.793694 -119.00724
1535500000 -28.440271 -117.58757 -0.079203337 -43.88813 -0.076540761 -43.947319 -28.457457 -120.60953
1585000000 -28.06946 -118.93708 -0.080808833 -45.307796 -0.078676909 -45.377701 -28.136534 -122.8047
1634500000 -27.803303 -121.02441 -0.081789464 -46.731262 -0.080660097 -46.804325 -27.838476 -124.30775
1684000000 -27.437132 -122.31737 -0.084210329 -48.166531 -0.081654936 -48.235092 -27.543873 -126.29211
1733500000 -27.177216 -124.18832 -0.085510366 -49.597431 -0.083153956 -49.664898 -27.296423 -127.90573
1783000000 -26.929008 -125.73548 -0.087908216 -51.021137 -0.085551023 -51.0965 -26.984104 -129.53481
1832500000 -26.614359 -127.5508 -0.089412563 -52.457035 -0.087684743 -52.540218 -26.782532 -131.34808
1882000000 -26.455425 -129.01266 -0.090942807 -53.890835 -0.088011235 -53.96735 -26.504711 -133.02191
1931500000 -26.199629 -130.8441 -0.092139892 -55.327267 -0.090190038 -55.405853 -26.258081 -134.51495
1981000000 -25.997351 -132.40691 -0.093814194 -56.769024 -0.091592856 -56.843773 -26.060612 -136.16364
2030500000 -25.748999 -133.84564 -0.094499066 -58.207577 -0.093437277 -58.284225 -25.783602 -138.00648
2080000000 -25.56761 -135.62286 -0.096354783 -59.654018 -0.09459272 -59.723885 -25.626131 -139.71655
2129500000 -25.378403 -136.81866 -0.098120205 -61.09486 -0.096685894 -61.176105 -25.380114 -141.4377
2179000000 -25.140522 -138.70302 -0.09961962 -62.543777 -0.098067783 -62.625259 -25.175804 -143.02589
2228500000 -25.008944 -140.01024 -0.10144149 -63.994652 -0.099052049 -64.071075 -25.013451 -144.66333
2278000000 -24.850098 -141.65685 -0.10312283 -65.438904 -0.10086149 -65.517181 -24.797592 -146.36201
2327500000 -24.70842 -143.31862 -0.10401969 -66.895515 -0.10207722 -66.977303 -24.629034 -147.72096
2377000000 -24.532337 -144.84856 -0.10664903 -68.354568 -0.10406052 -68.431358 -24.442026 -149.46712
2426500000 -24.392035 -146.54359 -0.10676257 -69.81295 -0.1052233 -69.888016 -24.320688 -150.99887
2476000000 -24.227013 -147.93802 -0.10892559 -71.267761 -0.10683075 -71.352554 -24.143465 -152.67412
2525500000 -24.098923 -149.73781 -0.10915706 -72.724899 -0.107415 -72.812668 -24.013769 -154.23459
2575000000 -24.001291 -151.03801 -0.11067197 -74.193268 -0.10840219 -74.276779 -23.877491 -155.68852
2624500000 -23.856901 -152.888 -0.11293895 -75.656059 -0.11030421 -75.740051 -23.754881 -157.40244
2674000000 -23.742397 -154.26463 -0.11266903 -77.122589 -0.11056283 -77.214676 -23.654257 -158.81036
2723500000 -23.610046 -155.79095 -0.11404618 -78.589325 -0.11276148 -78.679886 -23.50482 -160.6577
2773000000 -23.485674 -157.57835 -0.11513854 -80.068138 -0.11362472 -80.153793 -23.44537 -161.96761
2822500000 -23.369497 -158.80945 -0.11639602 -81.541672 -0.11404511 -81.626221 -23.292112 -163.71356
2872000000 -23.297119 -160.71935 -0.11766131 -83.017189 -0.11536342 -83.102112 -23.178509 -165.35573
2921500000 -23.164148 -161.95317 -0.11891527 -84.494446 -0.1161857 -84.580421 -23.098057 -166.74445
2971000000 -23.087732 -163.50906 -0.11964829 -85.967552 -0.11732993 -86.066231 -22.990442 -168.83118
3020500000 -22.990551 -165.077 -0.12052701 -87.459282 -0.11794911 -87.550316 -22.918182 -170.04187
3070000000 -22.886091 -166.58452 -0.12132844 -88.947304 -0.11925715 -89.031639 -22.788671 -171.91084
3119500000 -22.829763 -168.25342 -0.1225358 -90.430565 -0.12007619 -90.524101 -22.70842 -173.40315
3169000000 -22.725214 -169.50867 -0.12307875 -91.919067 -0.12078731 -92.013268 -22.639441 -174.96141
3218500000 -22.742014 -171.14008 -0.12281645 -93.400696 -0.12115276 -93.509766 -22.564531 -176.74718
3268000000 -22.676586 -172.56421 -0.1238194 -94.896454 -0.1209164 -94.995926 -22.480242 -178.01617
3317500000 -22.602968 -174.07933 -0.12448371 -96.396271 -0.12353202 -96.491219 -22.43837 179.93909
3367000000 -22.562017 -175.71466 -0.1249675 -97.893845 -0.12230548 -97.989433 -22.373453 178.6707
3416500000 -22.487045 -177.06995 -0.1253397 -99.388512 -0.12224105 -99.492867 -22.346254 176.91589
3466000000 -22.481352 -178.69101 -0.12574685 -100.89571 -0.12272645 -100.99488 -22.26683 175.38908
3515500000 -22.408966 179.81052 -0.12564026 -102.39356 -0.12440433 -102.49137 -22.200836 173.90561
3565000000 -22.444279 178.28865 -0.12539938 -103.89931 -0.12363003 -103.99642 -22.199465 172.16525
3614500000 -22.412544 176.64809 -0.12575163 -105.4089 -0.1239872 -105.50805 -22.119869 170.90007
3664000000 -22.356199 175.06216 -0.12565517 -106.91148 -0.12465847 -107.01817 -22.10327 169.06172
3713500000 -22.385889 173.66736 -0.12621237 -108.42771 -0.12422879 -108.53402 -22.064413 167.75609
3763000000 -22.358122 171.995 -0.12618066 -109.93363 -0.12440699 -110.04153 -22.059887 166.03795
3812500000 -22.326883 170.32565 -0.12661293 -111.45759 -0.12427034 -111.56277 -22.038488 164.57263
3862000000 -22.332153 168.91408 -0.12618732 -112.9687 -0.12498721 -113.07426 -21.979427 162.86685
3911500000 -22.35675 167.38478 -0.12621504 -114.48423 -0.12353388 -114.5801 -22.024387 161.37883
3961000000 -22.360399 165.71021 -0.12623103 -116.00172 -0.12414275 -116.11051 -21.978039 159.903
4010500000 -22.324257 164.23906 -0.12627953 -117.52924 -0.123992 -117.6325 -22.005545 158.12462
4060000000 -22.366625 162.51611 -0.12626301 -119.05138 -0.12382206 -119.15496 -21.97566 156.84019
4109500000 -22.355938 161.13622 -0.12575084 -120.57736 -0.1230452 -120.67942 -21.992481 154.87465
4159000000 -22.378494 159.44557 -0.12587075 -122.10074 -0.12256722 -122.20816 -22.027288 153.67642
4208500000 -22.426437 158.17607 -0.1252691 -123.62323 -0.12261248 -123.72733 -21.983835 151.70268
4258000000 -22.447393 156.6123 -0.12420429 -125.14284 -0.12114184 -125.25625 -22.070194 150.27849
4307500000 -22.557537 155.01163 -0.12405059 -126.67619 -0.12195005 -126.79208 -22.025993 148.80606
4357000000 -22.528757 153.55936 -0.12406391 -128.20781 -0.12127707 -128.32033 -22.124073 146.92393
4406500000 -22.608734 151.87073 -0.12242343 -129.73859 -0.12032209 -129.86052 -22.099279 145.77408
4456000000 -22.653168 150.54001 -0.12246124 -131.27409 -0.12005383 -131.39182 -22.138277 143.72641
4505500000 -22.679581 148.64032 -0.12168968 -132.80649 -0.11927844 -132.92534 -22.216564 142.63631
4555000000 -22.786009 147.52872 -0.12132818 -134.33249 -0.11881763 -134.45016 -22.166973 140.57224
4604500000 -22.812025 145.74435 -0.12144158 -135.87016 -0.11809407 -135.98962 -22.310242 139.21344
4654000000 -22.918234 144.2319 -0.12086929 -137.40823 -0.11795841 -137.53046 -22.270678 137.6954
4703500000 -22.964857 142.77805 -0.11935347 -138.94388 -0.11659571 -139.06699 -22.378101 135.78407
4753000000 -23.06035 141.07979 -0.11852181 -140.4879 -0.11606606 -140.61824 -22.403563 134.70093
4802500000 -23.119982 140.00551 -0.11815418 -142.03052 -0.11621655 -142.15483 -22.45734 132.30103
4852000000 -23.207926 137.84241 -0.11798821 -143.57115 -0.11503779 -143.69495 -22.557058 131.48682
4901500000 -23.358046 136.84648 -0.11632503 -145.10466 -0.11393271 -145.23363 -22.571293 129.36853
4951000000 -23.45385 135.06209 -0.11659518 -146.65112 -0.11417666 -146.78038 -22.747929 127.97918
5000500000 -23.571032 133.40303 -0.11625484 -148.19852 -0.1141267 -148.32346 -22.742952 126.57845
5050000000 -23.64485 132.06758 -0.11390428 -149.73093 -0.11171646 -149.86581 -22.919743 124.55268
5099500000 -23.808342 130.16608 -0.1134714 -151.28233 -0.11021075 -151.41748 -22.965818 123.64828
5149000000 -23.874468 128.82922 -0.1138785 -152.83734 -0.11175285 -152.95807 -23.068054 121.25907
5198500000 -24.023983 127.27959 -0.11177835 -154.3708 -0.10918997 -154.49434 -23.186733 120.3027
5248000000 -24.178091 125.9456 -0.11070861 -155.91589 -0.10904424 -156.04329 -23.227478 118.23498
5297500000 -24.31542 123.9893 -0.11051317 -157.4541 -0.10842846 -157.58929 -23.450945 117.00423
5347000000 -24.469349 122.55216 -0.10995214 -159.00433 -0.10783638 -159.14128 -23.37026 115.36508
5396500000 -24.559242 120.94954 -0.10959852 -160.54605 -0.1074081 -160.6814 -23.641596 113.46571
5446000000 -24.782433 119.26083 -0.10922129 -162.10483 -0.10603332 -162.23309 -23.719681 112.53746
5495500000 -24.865032 117.97845 -0.10945383 -163.65775 -0.10673153 -163.78987 -23.85955 109.95726
5545000000 -25.087969 115.63995 -0.10731974 -165.19859 -0.10581289 -165.33122 -24.018198 109.39823
5594500000 -25.224426 115.16701 -0.105854 -166.74091 -0.10439487 -166.87251 -24.094126 106.81743
5644000000 -25.441109 112.79803 -0.1044007 -168.28894 -0.10314032 -168.41595 -24.395308 105.68143
5693500000 -25.683138 111.68098 -0.10688037 -169.82744 -0.10356156 -169.97517 -24.374329 104.02837
5743000000 -25.83814 109.97157 -0.10468443 -171.37114 -0.1031708 -171.51035 -24.618559 101.87719
5792500000 -26.125132 108.26081 -0.10413741 -172.93007 -0.1019781 -173.07042 -24.706003 101.15825
5842000000 -26.233347 107.30077 -0.10452639 -174.46666 -0.10230831 -174.61989 -24.962999 98.311958
5891500000 -26.567173 104.77753 -0.10352497 -176.01433 -0.10194603 -176.16492 -25.165796 98.011871
5941000000 -26.759245 104.12131 -0.10107027 -177.55084 -0.099039599 -177.69504 -25.233665 95.804619
5990500000 -27.049831 102.15807 -0.099439248 -179.0947 -0.099651136 -179.244 -25.650537 94.20607
6040000000 -27.39789 101.03059 -0.10337068 179.36134 -0.10051257 179.20514 -25.62142 92.676506
6089500000 -27.552143 98.678261 -0.10095528 177.81888 -0.099772982 177.66591 -26.011353 90.3013
6139000000 -27.968695 97.042656 -0.10137603 176.24971 -0.098368309 176.09294 -26.070206 90.008896
6188500000 -28.122288 96.00824 -0.10152999 174.70206 -0.099571943 174.54785 -26.360962 86.728638
6238000000 -28.591185 93.00882 -0.1022357 173.1566 -0.098476075 173.0071 -26.641363 86.879684
6287500000 -28.778082 92.633354 -0.097709298 171.62291 -0.095669612 171.46718 -26.714718 84.080284
6337000000 -29.19132 90.365852 -0.097983055 170.0737 -0.096692778 169.92412 -27.20516 82.585793
6386500000 -29.636131 89.531258 -0.10080373 168.53494 -0.098262131 168.38277 -27.223871 81.30835
6436000000 -29.978745 86.795609 -0.098514475 166.99858 -0.097363546 166.84296 -27.703152 78.888634
6485500000 -30.421558 84.768982 -0.099097334 165.45023 -0.096618928 165.30074 -27.854916 78.624168
6535000000 -30.690628 84.182838 -0.098254181 163.91068 -0.097467318 163.77586 -28.214407 75.123421
6584500000 -31.218622 80.740471 -0.099639483 162.36636 -0.097970612 162.22423 -28.658894 75.079964
6634000000 -31.621567 80.129906 -0.096681662 160.842 -0.095487818 160.69693 -28.791969 72.01355
6683500000 -32.204819 77.531898 -0.096432857 159.30145 -0.095020801 159.14355 -29.26874 70.809708
6733000000 -32.639389 75.916069 -0.098980807 157.7664 -0.097810693 157.60693 -29.37748 69.458305
6782500000 -33.310059 74.472488 -0.09781149 156.23006 -0.096090391 156.07541 -29.987804 66.371262
6832000000 -33.997108 71.377075 -0.096742541 154.68044 -0.095837653 154.52655 -30.265095 66.142326
6881500000 -34.278328 70.160423 -0.097692087 153.16144 -0.094629496 152.9939 -30.715288 62.516769
6931000000 -35.173962 67.250244 -0.098190375 151.61838 -0.097304247 151.45016 -31.219816 62.33292
6980500000 -35.814064 65.425606 -0.097265072 150.07909 -0.0955934 149.92599 -31.49716 58.889606
7030000000 -36.974915 63.392872 -0.095916249 148.54424 -0.094661772 148.38115 -32.162205 57.135658
7079500000 -37.663715 58.850433 -0.098485082 147.01749 -0.097369634 146.86513 -32.41103 56.209419
7129000000 -38.565475 57.610802 -0.097348191 145.47658 -0.095426694 145.31963 -33.178257 52.347004
7178500000 -39.980671 53.072628 -0.098288871 143.94466 -0.096778534 143.78299 -33.491734 52.373386
7228000000 -41.039722 47.816425 -0.096833065 142.42522 -0.095843211 142.26503 -34.384624 48.426506
7277500000 -42.323849 43.931709 -0.099400848 140.87286 -0.097222716 140.70702 -34.796318 47.494221
7327000000 -43.584339 33.720272 -0.099669412 139.36859 -0.097840346 139.19623 -35.412846 44.965332
7376500000 -46.090816 29.879889 -0.097997881 137.82478 -0.095454216 137.65068 -36.398952 41.736542
7426000000 -47.06411 8.4811831 -0.10018011 136.31952 -0.098526128 136.14308 -36.86298 41.285572
7475500000 -48.892822 -10.151639 -0.097276188 134.79396 -0.095166855 134.61876 -38.30304 37.017124
7525000000 -49.32954 -30.799206 -0.10015998 133.26085 -0.09899988 133.08485 -38.367672 35.608925
7574500000 -48.25243 -57.771408 -0.098230883 131.76602 -0.096541643 131.59254 -40.205788 29.350317
7624000000 -47.664173 -71.301651 -0.098713346 130.21451 -0.098339446 130.03722 -40.87178 25.601652
7673500000 -44.971157 -84.978233 -0.10166275 128.71309 -0.099201679 128.54445 -42.435959 20.210165
7723000000 -44.149876 -95.081551 -0.1005086 127.16946 -0.097770192 127.00722 -43.75563 12.498554
7772500000 -42.483536 -97.532806 -0.10320845 125.67141 -0.10130555 125.50988 -44.501373 7.7988243
7822000000 -41.057743 -108.11909 -0.097267717 124.15602 -0.0954521 123.99126 -47.633682 -4.4822564
7871500000 -40.149929 -106.88669 -0.10056105 122.62428 -0.098482169 122.44299 -48.021202 -12.641122
7921000000 -38.776241 -112.62835 -0.098217912 121.12147 -0.096682191 120.95048 -50.483768 -48.808636
7970500000 -38.704422 -112.67659 -0.10110259 119.57552 -0.099991508 119.39097 -49.381561 -51.791351
8020000000 -37.552208 -119.03541 -0.10383542 118.08844 -0.10184109 117.91229 -47.885025 -79.909943
8069500000 -37.061012 -121.7923 -0.10117202 116.57191 -0.098460987 116.40064 -47.377815 -95.715233
8119000000 -36.323303 -121.90472 -0.10348627 115.08907 -0.10198075 114.91459 -45.820412 -100.15787
8168500000 -35.611313 -128.18806 -0.09584374 113.58756 -0.093452089 113.40586 -44.265518 -119.79074
8218000000 -35.108021 -125.05283 -0.10050463 112.05113 -0.098507591 111.87447 -43.706806 -116.84075
8267500000 -34.487076 -130.99403 -0.098789871 110.55945 -0.096320115 110.38146 -41.498791 -129.74423
8317000000 -34.431828 -127.87172 -0.10210212 109.011 -0.10118526 108.82918 -41.52528 -129.56044
8366500000 -33.856716 -133.07494 -0.10313343 107.5617 -0.10180452 107.36981 -40.258076 -131.58292
8416000000 -33.811546 -135.18866 -0.098701164 106.04945 -0.097548857 105.84672 -39.57156 -137.24861
8465500000 -33.063164 -134.6053 -0.10223146 104.58344 -0.099557109 104.379 -39.081848 -137.16052
8515000000 -32.982567 -140.37941 -0.093119375 103.0752 -0.090531781 102.87572 -38.232315 -144.70436
8564500000 -32.504456 -136.62761 -0.099931113 101.55616 -0.097679116 101.36347 -37.958549 -141.96407
8614000000 -32.317959 -142.57419 -0.098451979 100.08387 -0.095568001 99.888359 -36.912861 -148.45
8663500000 -32.280773 -139.36504 -0.10317107 98.555038 -0.099720538 98.362488 -36.861568 -146.55191
8713000000 -31.720816 -144.03926 -0.09873426 97.114708 -0.096735656 96.93528 -36.319641 -149.17053
8762500000 -31.97423 -146.08214 -0.093813665 95.611145 -0.091713414 95.414772 -36.074886 -151.8385
8812000000 -31.207384 -145.81874 -0.097405903 94.149376 -0.095556885 93.957085 -35.571087 -152.08006
8861500000 -31.323362 -150.62752 -0.088874325 92.649178 -0.086257569 92.454796 -35.2239 -158.65578
8911000000 -30.885298 -147.48343 -0.098162837 91.149902 -0.094857022 90.953735 -35.048431 -155.03987
8960500000 -30.829025 -152.03374 -0.092734851 89.675232 -0.09007401 89.478165 -34.448536 -161.02707
9010000000 -31.076572 -149.7706 -0.097754039 88.147148 -0.095937952 87.958778 -34.604454 -157.87639
9059500000 -30.430447 -153.52394 -0.092447676 86.717705 -0.09046147 86.526207 -34.0191 -162.17392
9109000000 -30.982157 -154.82205 -0.08667057 85.203941 -0.084537081 85.00985 -34.335182 -164.96352
9158500000 -30.2082 -154.94933 -0.090370819 83.770851 -0.088422552 83.578835 -33.853474 -163.25526
9208000000 -30.444059 -158.68854 -0.082633115 82.238274 -0.078761525 82.049332 -33.677395 -171.21509
9257500000 -30.332676 -155.65759 -0.091116212 80.762367 -0.087791987 80.571831 -33.766033 -164.56877
9307000000 -30.020443 -160.67567 -0.086885795 79.289291 -0.083667725 79.101204 -33.142212 -173.32767
9356500000 -30.577654 -156.82814 -0.09367083 77.793076 -0.089926019 77.597008 -33.762192 -168.69354
9406000000 -29.917189 -161.81053 -0.084194228 76.403023 -0.08201395 76.19783 -33.104248 -171.47334
9455500000 -30.583393 -162.21684 -0.07616771 74.885452 -0.074533902 74.678505 -33.586712 -177.39154
9505000000 -30.017847 -162.65549 -0.078986116 73.47493 -0.07691779 73.268051 -33.092274 -171.5957
9554500000 -30.106741 -166.5851 -0.075269476 71.945801 -0.07226529 71.742378 -33.052288 178.08786
9604000000 -30.308325 -161.65092 -0.086425245 70.487625 -0.083213851 70.285446 -33.354988 -172.13489
9653500000 -29.938593 -168.30685 -0.079815514 69.034729 -0.077558368 68.841217 -32.980915 178.71432
9703000000 -30.460215 -163.94795 -0.083506487 67.545425 -0.080834679 67.35466 -33.912918 -179.16124
9752500000 -30.19298 -168.04448 -0.072230548 66.18483 -0.070540071 65.982628 -33.013794 -178.52812
9802000000 -30.532892 -170.15901 -0.067641169 64.677414 -0.066604853 64.478966 -33.446064 171.56244
9851500000 -30.414219 -168.49779 -0.069897898 63.273075 -0.068169676 63.066853 -33.289276 -178.64108
9901000000 -30.228502 -174.05627 -0.067679554 61.73769 -0.065713316 61.528194 -33.278736 170.9861
9950500000 -30.576008 -167.23723 -0.076372147 60.296711 -0.075215481 60.093445 -34.033428 -179.83644
10000000000 -30.429489 -174.00096 -0.067475006 58.837929 -0.065061085 58.635857 -33.333321 173.68057
